$$$$
! Edit this basic GAMESS input file as needed.
! Conformer was generated by a VeraChem VCPack run 
! and contains     25 atoms.
!
 $contrl scftyp=rhf runtyp=optimize nzvar=0
  maxit=200 icharg=0 $end
 $system mwords=50 $end
 $basis gbasis=pm3 $end
 $statpt nstep=200 $end
 $guess guess=huckel $end
 $data
VM2 Rank=1      G=62.075            E=29.291            -TS=32.785              
C1
C    6.0       21.2649433196       19.5699778083       21.1383642917
H    1.0       21.7745622824       19.7414702229       20.1802598202
H    1.0       22.0469007778       19.7182729130       21.8915921411
C    6.0       20.7595122355       18.1038055183       21.1583117141
H    1.0       19.7152073704       18.0408702877       20.8265364059
H    1.0       21.3326570790       17.5468138940       20.4044706691
C    6.0       20.9529848179       17.3662017137       22.5093780978
H    1.0       22.0133632870       17.4005030821       22.7946982596
H    1.0       20.7266454607       16.3038595059       22.3451432352
C    6.0       20.0857902940       17.8547879686       23.7002812982
H    1.0       19.0202993242       17.7989421053       23.4478357798
H    1.0       20.2246187025       17.1309662368       24.5147378974
C    6.0       20.4544430580       19.2645916107       24.2301210547
H    1.0       21.4702667661       19.5138433722       23.9017361744
C    6.0       19.4857709978       20.3914067184       23.7945592293
H    1.0       18.5769074415       20.3181566583       24.4070270009
H    1.0       19.9397696833       21.3597994817       24.0411678754
C    6.0       19.0436502073       20.4095194302       22.3085476798
H    1.0       18.3090891265       21.2184787262       22.1958296893
H    1.0       18.4890456654       19.4966772762       22.0627335310
C    6.0       20.1645285535       20.6552615953       21.2675959942
H    1.0       20.6411349977       21.6243639708       21.4682347226
H    1.0       19.6822057384       20.7604187844       20.2861111285
O    8.0       20.4523765164       19.2274476366       25.6528406402
H    1.0       20.7315029583       20.1156557407       25.9588034569
 $end
$$$$
! Edit this basic GAMESS input file as needed.
! Conformer was generated by a VeraChem VCPack run 
! and contains     25 atoms.
!
 $contrl scftyp=rhf runtyp=optimize nzvar=0
  maxit=200 icharg=0 $end
 $system mwords=50 $end
 $basis gbasis=pm3 $end
 $statpt nstep=200 $end
 $guess guess=huckel $end
 $data
VM2 Rank=2      G=62.111            E=29.304            -TS=32.807              
C1
C    6.0       21.2655925316       19.5695955549       21.1386062699
H    1.0       21.7735144777       19.7405087564       20.1794949623
H    1.0       22.0494535409       19.7177448823       21.8898650651
C    6.0       20.7600429002       18.1033738555       21.1596363836
H    1.0       19.7157040559       18.0405650220       20.8279168869
H    1.0       21.3329872417       17.5460372036       20.4058856439
C    6.0       20.9534945015       17.3658765878       22.5108803351
H    1.0       22.0136910826       17.4008201287       22.7967562362
H    1.0       20.7279213464       16.3034194677       22.3459982293
C    6.0       20.0832626098       17.8542449597       23.6992976347
H    1.0       19.0191746304       17.8028827116       23.4394442779
H    1.0       20.2119718810       17.1260061794       24.5110987174
C    6.0       20.4528574013       19.2643249991       24.2284291970
H    1.0       21.4658069679       19.5190815878       23.8957083744
C    6.0       19.4814748730       20.3887476592       23.7950929235
H    1.0       18.5733962967       20.3111884251       24.4078381616
H    1.0       19.9342727502       21.3555614044       24.0498260779
C    6.0       19.0429469309       20.4114182094       22.3077785030
H    1.0       18.3104815644       21.2223024511       22.1955227819
H    1.0       18.4868469374       19.5004203688       22.0586521327
C    6.0       20.1665426874       20.6564976232       21.2693473017
H    1.0       20.6447144359       21.6241917847       21.4730513197
H    1.0       19.6859925541       20.7650558594       20.2873698367
O    8.0       20.4577855642       19.2289205512       25.6509314516
H    1.0       21.1307904649       18.5666143327       25.9134101888
 $end
$$$$
! Edit this basic GAMESS input file as needed.
! Conformer was generated by a VeraChem VCPack run 
! and contains     25 atoms.
!
 $contrl scftyp=rhf runtyp=optimize nzvar=0
  maxit=200 icharg=0 $end
 $system mwords=50 $end
 $basis gbasis=pm3 $end
 $statpt nstep=200 $end
 $guess guess=huckel $end
 $data
VM2 Rank=3      G=62.126            E=29.342            -TS=32.784              
C1
C    6.0       21.2426269154       19.6237805295       21.1382079454
H    1.0       21.7260598101       19.8584770986       20.1799309069
H    1.0       21.8986462184       20.0758540112       21.8905845709
C    6.0       21.2324761517       18.0789010117       21.2749266111
H    1.0       20.9679088775       17.6585876077       20.2949541436
H    1.0       22.2545324056       17.7321687778       21.4792469168
C    6.0       20.2644175968       17.4646445907       22.3169868469
H    1.0       20.3178612319       16.3727028019       22.2097160409
H    1.0       19.2271230109       17.7161560833       22.0678807213
C    6.0       20.5611097808       17.7975241639       23.8019768453
H    1.0       19.8658092839       17.2092183742       24.4159549167
H    1.0       21.5666282974       17.4356266511       24.0523370544
C    6.0       20.4475215323       19.2812957166       24.2300871254
H    1.0       21.3424236192       19.8222658789       23.9009008732
C    6.0       19.1906340392       20.0141886796       23.6940938980
H    1.0       18.3986459235       19.2985895328       23.4435130472
H    1.0       18.7749734993       20.6279045191       24.5047173795
C    6.0       19.4602648278       20.9672052524       22.4990840982
H    1.0       20.2333744489       21.6945321148       22.7824276913
H    1.0       18.5490626263       21.5570709681       22.3301333220
C    6.0       19.8480916491       20.3024566016       21.1520275910
H    1.0       19.8605985353       21.0978967150       20.3943142284
H    1.0       19.0661957896       19.6064794626       20.8220839168
O    8.0       20.4168575070       19.3130034538       25.6526090387
H    1.0       21.2418435332       18.8841761231       25.9623577792
 $end
$$$$
! Edit this basic GAMESS input file as needed.
! Conformer was generated by a VeraChem VCPack run 
! and contains     25 atoms.
!
 $contrl scftyp=rhf runtyp=optimize nzvar=0
  maxit=200 icharg=0 $end
 $system mwords=50 $end
 $basis gbasis=pm3 $end
 $statpt nstep=200 $end
 $guess guess=huckel $end
 $data
VM2 Rank=4      G=62.127            E=29.319            -TS=32.807              
C1
C    6.0       21.2430036699       19.6245378573       21.1385441573
H    1.0       21.9001987964       20.0780814058       21.8889898027
H    1.0       21.7249100055       19.8584183313       20.1792947214
C    6.0       21.2349811915       18.0794880224       21.2768140442
H    1.0       20.9742771039       17.6579941313       20.2963198708
H    1.0       22.2571129570       17.7349129046       21.4843942521
C    6.0       20.2652947683       17.4628099509       22.3161855942
H    1.0       20.3215819463       16.3709950954       22.2093627641
H    1.0       19.2283002695       17.7119681078       22.0636185830
C    6.0       20.5559735870       17.7963204439       23.8025234143
H    1.0       19.8579968038       17.2116893730       24.4166195402
H    1.0       21.5594216533       17.4346185852       24.0611892921
C    6.0       20.4460752148       19.2803165373       24.2283941217
H    1.0       21.3428988013       19.8152826033       23.8949465966
C    6.0       19.1883911767       20.0127887066       23.6930213752
H    1.0       18.4005867495       19.2949979866       23.4349808156
H    1.0       18.7624123245       20.6224540917       24.5009630712
C    6.0       19.4604257107       20.9678101732       22.5005132525
H    1.0       20.2338161587       21.6945733518       22.7844947627
H    1.0       18.5496919455       21.5582779069       22.3308171352
C    6.0       19.8483419582       20.3031597129       21.1533127247
H    1.0       19.8605390169       21.0987062088       20.3956939915
H    1.0       19.0665510588       19.6070719913       20.8233282680
O    8.0       20.4215127229       19.3157685956       25.6506913158
H    1.0       20.4280507735       20.2612496419       25.9085741211
 $end
$$$$
! Edit this basic GAMESS input file as needed.
! Conformer was generated by a VeraChem VCPack run 
! and contains     25 atoms.
!
 $contrl scftyp=rhf runtyp=optimize nzvar=0
  maxit=200 icharg=0 $end
 $system mwords=50 $end
 $basis gbasis=pm3 $end
 $statpt nstep=200 $end
 $guess guess=huckel $end
 $data
VM2 Rank=5      G=62.195            E=29.408            -TS=32.788              
C1
C    6.0       20.7558298293       19.2414917882       20.8005608573
H    1.0       20.7018310400       19.0670251247       19.7172568517
H    1.0       21.8174710532       19.4274384019       21.0082027352
C    6.0       20.2661984041       17.9508490812       21.5065662278
H    1.0       19.2040938813       18.0305841082       21.7639019577
H    1.0       20.3136767133       17.1256330290       20.7828403595
C    6.0       21.1003341997       17.5255077779       22.7406307945
H    1.0       22.0420983839       17.0935831086       22.3754304972
H    1.0       20.5848294518       16.7050547178       23.2571257329
C    6.0       21.4659544254       18.6396189044       23.7585016750
H    1.0       22.1040506191       18.1862089174       24.5283485196
H    1.0       22.1068428034       19.3873315166       23.2790670498
C    6.0       20.2996860553       19.3460992509       24.4923947925
H    1.0       20.7560875613       20.0337547290       25.2188074284
C    6.0       19.3297533198       20.1867955992       23.6260308888
H    1.0       18.5531947328       19.5555682481       23.1804258470
H    1.0       18.7872965834       20.8466801454       24.3157144305
C    6.0       19.9922963075       21.0753103635       22.5395994971
H    1.0       21.0293401338       21.3196753763       22.8029325662
H    1.0       19.4640657811       22.0386031979       22.5337496543
C    6.0       19.9095464034       20.5060486166       21.0994091408
H    1.0       20.2359673627       21.2960755239       20.4093834967
H    1.0       18.8590925200       20.3095298816       20.8449285499
O    8.0       19.5444010556       18.3712786181       25.1963061263
H    1.0       19.2506277345       17.7296374058       24.5185849503
 $end
$$$$
! Edit this basic GAMESS input file as needed.
! Conformer was generated by a VeraChem VCPack run 
! and contains     25 atoms.
!
 $contrl scftyp=rhf runtyp=optimize nzvar=0
  maxit=200 icharg=0 $end
 $system mwords=50 $end
 $basis gbasis=pm3 $end
 $statpt nstep=200 $end
 $guess guess=huckel $end
 $data
VM2 Rank=6      G=62.220            E=29.432            -TS=32.788              
C1
C    6.0       20.6500726325       19.4973092943       20.8001066057
H    1.0       20.4906682946       19.5762265984       19.7160102354
H    1.0       21.5267317725       20.1245038941       21.0071556549
C    6.0       20.9569706666       18.0085218735       21.1065901474
H    1.0       20.0807413218       17.3965044289       20.8526403259
H    1.0       21.7508022253       17.6838659279       20.4201072015
C    6.0       21.4170051201       17.6748231541       22.5495265009
H    1.0       22.3178942325       18.2437816135       22.8125905455
H    1.0       21.7330892154       16.6226414168       22.5493259666
C    6.0       20.3161809173       17.8307974440       23.6323984939
H    1.0       19.3227395352       17.7180236385       23.1847231649
H    1.0       20.4042252365       16.9844775420       24.3262012881
C    6.0       20.3950696873       19.1157540826       24.4930875398
H    1.0       21.2034305669       18.9620503934       25.2223176485
C    6.0       20.7114951422       20.4391700038       23.7539382984
H    1.0       20.8339066677       21.2155239207       24.5205549884
H    1.0       21.6952001093       20.3693034151       23.2773764779
C    6.0       19.6636259490       20.9553665517       22.7309548740
H    1.0       20.0173117773       21.9278849669       22.3622176549
H    1.0       18.7159259520       21.1657911785       23.2440238963
C    6.0       19.3849108190       20.0568520342       21.5002630689
H    1.0       18.8319493073       20.6662018178       20.7722929150
H    1.0       18.6960706846       19.2451061827       21.7595234543
O    8.0       19.1686690660       19.2644055618       25.1931344711
H    1.0       18.5070405054       19.5018898461       24.5125768363
 $end
$$$$
! Edit this basic GAMESS input file as needed.
! Conformer was generated by a VeraChem VCPack run 
! and contains     25 atoms.
!
 $contrl scftyp=rhf runtyp=optimize nzvar=0
  maxit=200 icharg=0 $end
 $system mwords=50 $end
 $basis gbasis=pm3 $end
 $statpt nstep=200 $end
 $guess guess=huckel $end
 $data
VM2 Rank=7      G=62.234            E=29.468            -TS=32.766              
C1
C    6.0       21.2426980504       19.6233910333       21.1389981443
H    1.0       21.7270341745       19.8592131829       20.1814587736
H    1.0       21.8982062200       20.0740295151       21.8927388956
C    6.0       21.2318231053       18.0784915801       21.2739139990
H    1.0       20.9660361498       17.6591715202       20.2938499463
H    1.0       22.2539454503       17.7312018532       21.4769980403
C    6.0       20.2649084023       17.4639571723       22.3167758113
H    1.0       20.3195119342       16.3720435548       22.2096944924
H    1.0       19.2272770843       17.7144548134       22.0680188500
C    6.0       20.5624438090       17.7974614166       23.8014696395
H    1.0       19.8737493665       17.2020629205       24.4152910749
H    1.0       21.5708335112       17.4429691416       24.0516107132
C    6.0       20.4456463361       19.2808828489       24.2302690859
H    1.0       21.3417262714       19.8211216257       23.9035767140
C    6.0       19.1892216989       20.0151061455       23.6943594114
H    1.0       18.3966278932       19.3011136083       23.4402611990
H    1.0       18.7730897746       20.6323303850       24.5021208761
C    6.0       19.4613384651       20.9675669858       22.4996545312
H    1.0       20.2357985403       21.6934071769       22.7832767468
H    1.0       18.5514433886       21.5593275688       22.3301184247
C    6.0       19.8483245874       20.3022402981       21.1527389326
H    1.0       19.8609334424       21.0974076860       20.3947351620
H    1.0       19.0661570405       19.6063760616       20.8231890825
O    8.0       20.4175955456       19.3139025194       25.6518204448
H    1.0       19.6031501980       18.8431917174       25.9238507980
 $end
$$$$
! Edit this basic GAMESS input file as needed.
! Conformer was generated by a VeraChem VCPack run 
! and contains     25 atoms.
!
 $contrl scftyp=rhf runtyp=optimize nzvar=0
  maxit=200 icharg=0 $end
 $system mwords=50 $end
 $basis gbasis=pm3 $end
 $statpt nstep=200 $end
 $guess guess=huckel $end
 $data
VM2 Rank=8      G=62.249            E=29.482            -TS=32.767              
C1
C    6.0       21.2647898372       19.5702844535       21.1391759126
H    1.0       21.7758507154       19.7416036293       20.1818145353
H    1.0       22.0453837032       19.7191578579       21.8937637712
C    6.0       20.7594895993       18.1041376064       21.1590146311
H    1.0       19.7150691045       18.0410059288       20.8276324567
H    1.0       21.3324745837       17.5473807393       20.4048745723
C    6.0       20.9539164416       17.3666863652       22.5099284660
H    1.0       22.0141903527       17.4029726794       22.7955432859
H    1.0       20.7298263972       16.3039321254       22.3450961623
C    6.0       20.0853393619       17.8531271729       23.7005141900
H    1.0       19.0205683834       17.7957616318       23.4445240993
H    1.0       20.2262618794       17.1264528767       24.5121152835
C    6.0       20.4527798633       19.2635132348       24.2303042804
H    1.0       21.4689305624       19.5140896638       23.9044288141
C    6.0       19.4866878820       20.3924025565       23.7940541475
H    1.0       18.5774439149       20.3288449983       24.4062723791
H    1.0       19.9479807671       21.3575645709       24.0405381598
C    6.0       19.0436009447       20.4104457708       22.3083186197
H    1.0       18.3099382235       21.2202583572       22.1957772209
H    1.0       18.4879938890       19.4981279069       22.0627898024
C    6.0       20.1639404694       20.6551485155       21.2666376982
H    1.0       20.6402753890       21.6246325171       21.4661207531
H    1.0       19.6815093654       20.7588477568       20.2850551778
O    8.0       20.4534556006       19.2272543243       25.6520520545
H    1.0       19.5443231182       18.9849368242       25.9234321261
 $end
$$$$
! Edit this basic GAMESS input file as needed.
! Conformer was generated by a VeraChem VCPack run 
! and contains     25 atoms.
!
 $contrl scftyp=rhf runtyp=optimize nzvar=0
  maxit=200 icharg=0 $end
 $system mwords=50 $end
 $basis gbasis=pm3 $end
 $statpt nstep=200 $end
 $guess guess=huckel $end
 $data
VM2 Rank=9      G=62.280            E=29.544            -TS=32.736              
C1
C    6.0       20.0803359242       19.1697647741       20.7504012960
H    1.0       19.0107836455       18.9952758668       20.9241175330
H    1.0       20.1850026572       19.2407540522       19.6591112430
C    6.0       20.9185666734       17.9470824467       21.2068967431
H    1.0       20.6300555327       17.0925114089       20.5797642806
H    1.0       21.9788773034       18.1293375076       20.9847534633
C    6.0       20.7705285847       17.5143240822       22.6887489035
H    1.0       21.3063818394       16.5617294270       22.7999218705
H    1.0       19.7234717688       17.2820816393       22.9198763758
C    6.0       21.3721252009       18.5109200623       23.7172698305
H    1.0       21.9095863385       17.9336186602       24.4817257194
H    1.0       22.1513076674       19.1195152914       23.2465724303
C    6.0       20.3595376659       19.4244335333       24.4523287275
H    1.0       20.9208011479       20.2486075714       24.9152053031
C    6.0       19.2244550073       20.0353360567       23.5968218749
H    1.0       18.6141735271       19.2441606357       23.1484029478
H    1.0       18.5458666175       20.5592130511       24.2830841673
C    6.0       19.6554347030       21.0578689553       22.5140932421
H    1.0       20.1729124103       21.8994374586       22.9942913497
H    1.0       18.7401801299       21.4816648902       22.0786459992
C    6.0       20.5312721384       20.5264089198       21.3509629284
H    1.0       21.5851397406       20.4837916425       21.6483885638
H    1.0       20.5017313151       21.2807546007       20.5527712646
O    8.0       19.7517441021       18.6568611697       25.4824764540
H    1.0       19.3540605403       17.8800821833       25.0396853432
 $end
$$$$
! Edit this basic GAMESS input file as needed.
! Conformer was generated by a VeraChem VCPack run 
! and contains     25 atoms.
!
 $contrl scftyp=rhf runtyp=optimize nzvar=0
  maxit=200 icharg=0 $end
 $system mwords=50 $end
 $basis gbasis=pm3 $end
 $statpt nstep=200 $end
 $guess guess=huckel $end
 $data
VM2 Rank=10     G=62.309            E=29.573            -TS=32.736              
C1
C    6.0       20.1530862133       19.0665240739       20.7484681609
H    1.0       19.2963837740       18.4001580103       20.9115123319
H    1.0       20.2913603488       19.0932447137       19.6589387795
C    6.0       21.4467569397       18.4773833576       21.3680134604
H    1.0       21.9914213159       17.9420443375       20.5782197472
H    1.0       22.1269482473       19.2804819905       21.6734460227
C    6.0       21.2260755159       17.4756062313       22.5299773893
H    1.0       22.1885169868       17.2848848069       23.0238846953
H    1.0       20.9217311321       16.5151718649       22.0919726219
C    6.0       20.1678939840       17.8554663406       23.5974877217
H    1.0       19.1789934412       17.9439212838       23.1351714745
H    1.0       20.0821587348       17.0027847659       24.2841238832
C    6.0       20.4783553621       19.1050522248       24.4551884615
H    1.0       21.4579805133       18.9582285193       24.9319609024
C    6.0       20.5055880972       20.4674060388       23.7180313308
H    1.0       20.4362428965       21.2553172261       24.4802121778
H    1.0       21.4878791962       20.6252700858       23.2605890770
C    6.0       19.3798159635       20.7007287116       22.6734386630
H    1.0       19.0429353540       21.7411544023       22.7781373917
H    1.0       18.4951866785       20.0902226442       22.8934360639
C    6.0       19.8184619233       20.5129239839       21.1978365904
H    1.0       20.6752538321       21.1671489009       20.9863619641
H    1.0       19.0039614247       20.8803077619       20.5587395404
O    8.0       19.4879660010       19.1819090376       25.4715582219
H    1.0       18.6538894980       19.4165021158       25.0167152588
 $end
$$$$
! Edit this basic GAMESS input file as needed.
! Conformer was generated by a VeraChem VCPack run 
! and contains     25 atoms.
!
 $contrl scftyp=rhf runtyp=optimize nzvar=0
  maxit=200 icharg=0 $end
 $system mwords=50 $end
 $basis gbasis=pm3 $end
 $statpt nstep=200 $end
 $guess guess=huckel $end
 $data
VM2 Rank=11     G=62.324            E=29.662            -TS=32.661              
C1
C    6.0       20.8850973827       19.4385230530       20.6771839139
H    1.0       20.0833118530       19.0984613307       20.0075678830
H    1.0       21.6959273821       19.7741831115       20.0163163699
C    6.0       21.4146540893       18.2317361719       21.4955930505
H    1.0       21.8471768848       17.5225129658       20.7765719307
H    1.0       22.2522459656       18.5336215090       22.1375092543
C    6.0       20.3317382410       17.4722089856       22.3048157097
H    1.0       20.5191227474       16.3944565001       22.2031309413
H    1.0       19.3425212957       17.6222478935       21.8576182023
C    6.0       20.2995794115       17.7914237528       23.8222469298
H    1.0       19.3731523026       17.3876520933       24.2514352069
H    1.0       21.1185675939       17.2322160066       24.2933045275
C    6.0       20.4466711232       19.2756982896       24.2333894767
H    1.0       21.3876760393       19.6707312883       23.8312594313
C    6.0       19.2855984315       20.2042761096       23.8067421271
H    1.0       18.3470919704       19.8298084750       24.2357080231
H    1.0       19.4603505763       21.1819060588       24.2752054211
C    6.0       19.0880117821       20.4405425606       22.2863496684
H    1.0       18.4538485815       21.3308066223       22.1759016234
H    1.0       18.5010874252       19.6284139296       21.8425027388
C    6.0       20.3926627981       20.6709103094       21.4805688230
H    1.0       21.1921198611       21.0630431742       22.1223699755
H    1.0       20.1938708563       21.4690734896       20.7522423076
O    8.0       20.5199867405       19.3176807677       25.6531103009
H    1.0       21.2927785042       18.7741420954       25.9128021357
 $end
$$$$
! Edit this basic GAMESS input file as needed.
! Conformer was generated by a VeraChem VCPack run 
! and contains     25 atoms.
!
 $contrl scftyp=rhf runtyp=optimize nzvar=0
  maxit=200 icharg=0 $end
 $system mwords=50 $end
 $basis gbasis=pm3 $end
 $statpt nstep=200 $end
 $guess guess=huckel $end
 $data
VM2 Rank=12     G=62.334            E=29.672            -TS=32.661              
C1
C    6.0       20.8852384058       19.4382497176       20.6771923994
H    1.0       20.0837418189       19.0975425749       20.0075579539
H    1.0       21.6958353714       19.7745097964       20.0163437411
C    6.0       21.4157154620       18.2318496586       21.4956605574
H    1.0       21.8489985099       17.5230864965       20.7766585161
H    1.0       22.2528565694       18.5341164733       22.1380299738
C    6.0       20.3335297571       17.4710735298       22.3047088145
H    1.0       20.5246611676       16.3936973545       22.2064197242
H    1.0       19.3448435003       17.6168151748       21.8549409171
C    6.0       20.2967566584       17.7935617231       23.8216469456
H    1.0       19.3700521979       17.3909677496       24.2507957205
H    1.0       21.1145651601       17.2381099862       24.2995784120
C    6.0       20.4461222631       19.2769828255       24.2333811880
H    1.0       21.3891384365       19.6672237919       23.8312836160
C    6.0       19.2860331375       20.2077863824       23.8072996048
H    1.0       18.3468773351       19.8343447444       24.2362865746
H    1.0       19.4589606246       21.1888169161       24.2688461501
C    6.0       19.0875657455       20.4384629929       22.2864666376
H    1.0       18.4505157536       21.3262760767       22.1726295164
H    1.0       18.5033350126       19.6229698138       21.8452278807
C    6.0       20.3918492010       20.6702402367       21.4805161046
H    1.0       21.1913354108       21.0629617522       22.1218765607
H    1.0       20.1921995911       21.4681860627       20.7521696853
O    8.0       20.5211893697       19.3147929334       25.6531277482
H    1.0       20.6740476000       20.2496416460       25.9036729179
 $end
$$$$
! Edit this basic GAMESS input file as needed.
! Conformer was generated by a VeraChem VCPack run 
! and contains     25 atoms.
!
 $contrl scftyp=rhf runtyp=optimize nzvar=0
  maxit=200 icharg=0 $end
 $system mwords=50 $end
 $basis gbasis=pm3 $end
 $statpt nstep=200 $end
 $guess guess=huckel $end
 $data
VM2 Rank=13     G=62.415            E=29.634            -TS=32.781              
C1
C    6.0       20.5589836511       19.2233400136       20.6053917631
H    1.0       20.0761869543       18.4737718555       19.9638626151
H    1.0       21.1339558261       19.8677000427       19.9263283527
C    6.0       21.5726141839       18.5184292337       21.5415116821
H    1.0       22.3219509693       18.0317144481       20.9024296688
H    1.0       22.1401845918       19.2598735234       22.1153353130
C    6.0       20.9932034030       17.4301660242       22.4800398199
H    1.0       21.8387418034       16.9473881793       22.9888955201
H    1.0       20.5212936012       16.6438164381       21.8754684553
C    6.0       19.9899861065       17.9010580835       23.5647399264
H    1.0       18.9905377361       18.0125406509       23.1323657556
H    1.0       19.8840771178       17.0796490513       24.2858596815
C    6.0       20.3949519757       19.1974163292       24.3131923638
H    1.0       21.4728136937       19.3728376218       24.1965841444
C    6.0       19.6236511114       20.4598782524       23.8541821440
H    1.0       18.5448614351       20.2747992313       23.9390444518
H    1.0       19.8434470649       21.2626498892       24.5704462734
C    6.0       19.9447038722       21.0003582211       22.4339506761
H    1.0       21.0133342361       21.2317949276       22.3378377401
H    1.0       19.4320780320       21.9670428506       22.3357647380
C    6.0       19.4628944715       20.0969755144       21.2692151311
H    1.0       19.0483241994       20.7444785216       20.4844187388
H    1.0       18.6157531677       19.4788058317       21.5870564445
O    8.0       20.1230112248       19.0153783279       25.6977764935
H    1.0       20.6687452103       18.2570030876       25.9936769672
 $end
$$$$
! Edit this basic GAMESS input file as needed.
! Conformer was generated by a VeraChem VCPack run 
! and contains     25 atoms.
!
 $contrl scftyp=rhf runtyp=optimize nzvar=0
  maxit=200 icharg=0 $end
 $system mwords=50 $end
 $basis gbasis=pm3 $end
 $statpt nstep=200 $end
 $guess guess=huckel $end
 $data
VM2 Rank=14     G=62.424            E=29.643            -TS=32.781              
C1
C    6.0       20.5224680777       19.3667265022       20.6071550524
H    1.0       19.6590574338       19.5528444859       19.9541723689
H    1.0       21.3928327922       19.3138694388       19.9388807370
C    6.0       20.3561353400       17.9772184495       21.2756619810
H    1.0       19.3161277589       17.8175469856       21.5817578266
H    1.0       20.5297343840       17.2223657708       20.4964981740
C    6.0       21.3212912204       17.6840250374       22.4535228957
H    1.0       22.2420907703       18.2749442730       22.3656839583
H    1.0       21.6427700054       16.6373280658       22.3641877406
C    6.0       20.6951381626       17.8463499268       23.8655543934
H    1.0       19.8000434482       17.2153934355       23.9426392652
H    1.0       21.4092268505       17.4370727024       24.5924355903
C    6.0       20.3433392984       19.2868364196       24.3134887031
H    1.0       21.2313212410       19.9238345226       24.2045018849
C    6.0       19.1498312930       19.9143096449       23.5476278335
H    1.0       18.5266342851       19.1270895862       23.1115269032
H    1.0       18.4858584355       20.4241158921       24.2583883175
C    6.0       19.5399349485       20.9512027826       22.4625292492
H    1.0       19.7908359148       21.8927767033       22.9699065113
H    1.0       18.6577066148       21.1710970265       21.8461918802
C    6.0       20.7301951318       20.5862378116       21.5400585761
H    1.0       20.9241735352       21.4570955070       20.8991203714
H    1.0       21.6487214330       20.4654830111       22.1256155354
O    8.0       20.0056665276       19.2300934253       25.6944013155
H    1.0       19.8523789152       20.1537369003       25.9840580771
 $end
$$$$
! Edit this basic GAMESS input file as needed.
! Conformer was generated by a VeraChem VCPack run 
! and contains     25 atoms.
!
 $contrl scftyp=rhf runtyp=optimize nzvar=0
  maxit=200 icharg=0 $end
 $system mwords=50 $end