$$$$
! Edit this basic GAMESS input file as needed.
! Conformer was generated by a VeraChem VCPack run 
! and contains     29 atoms.
!
 $contrl scftyp=rhf runtyp=optimize nzvar=0
  maxit=200 icharg=0 $end
 $system mwords=50 $end
 $basis gbasis=pm3 $end
 $statpt nstep=200 $end
 $guess guess=huckel $end
 $data
VM2 Rank=1      G=58.148            E=20.963            -TS=37.185              
C1
C    6.0       19.9950348014       18.9913074408       18.8122138144
H    1.0       20.8994760984       19.6135524433       18.8049592789
H    1.0       20.3037190701       17.9386983881       18.7676736506
H    1.0       19.4251217636       19.2143162939       17.9008848009
C    6.0       19.1426156716       19.2665440777       20.0689832386
H    1.0       18.2298406710       18.6555376982       20.0314085693
H    1.0       18.8210283633       20.3174869730       20.0684213203
C    6.0       19.9220455620       18.9603732663       21.3669421223
H    1.0       20.2433256937       17.9095807848       21.3619713771
H    1.0       20.8345823545       19.5716499676       21.3989844439
C    6.0       19.0716618737       19.2348091645       22.6277217196
H    1.0       18.1591703573       18.6234821560       22.5947635423
H    1.0       18.7505863736       20.2856856135       22.6318541976
C    6.0       19.8517601431       18.9282700437       23.9259862515
H    1.0       20.1728735596       17.8773798629       23.9214118104
H    1.0       20.7643323700       19.5395480510       23.9584896944
C    6.0       19.0012500108       19.2027903371       25.1867066246
H    1.0       18.0884711610       18.5915818554       25.1546644648
H    1.0       18.6800367155       20.2537728431       25.1918082721
C    6.0       19.7802475931       18.8965388345       26.4846776102
H    1.0       20.0985760142       17.8454534156       26.4858164336
H    1.0       20.6907733946       19.5093912411       26.5230090024
C    6.0       18.9244761780       19.1731996653       27.7331864376
H    1.0       18.0244637323       18.5528867990       27.7076359839
H    1.0       18.6189524840       20.2229505415       27.7450454548
N    7.0       19.6549081663       18.8841671700       29.0285821811
H    1.0       19.9463973728       17.9030587515       29.0919845547
H    1.0       19.0674429530       19.0749440556       29.8478823136
H    1.0       20.4996366619       19.4571820143       29.1267928691
 $end
$$$$
! Edit this basic GAMESS input file as needed.
! Conformer was generated by a VeraChem VCPack run 
! and contains     29 atoms.
!
 $contrl scftyp=rhf runtyp=optimize nzvar=0
  maxit=200 icharg=0 $end
 $system mwords=50 $end
 $basis gbasis=pm3 $end
 $statpt nstep=200 $end
 $guess guess=huckel $end
 $data
VM2 Rank=2      G=58.385            E=21.097            -TS=37.288              
C1
C    6.0       19.8618688059       19.1639321085       18.8954776047
H    1.0       20.9427880271       19.3558288953       18.8887853086
H    1.0       19.7040069452       18.0906629904       18.7268668450
H    1.0       19.4178950750       19.7067347844       18.0509043362
C    6.0       19.2267556841       19.6153002936       20.2276691749
H    1.0       18.1420147404       19.4423016237       20.1915182418
H    1.0       19.3713411375       20.6976433613       20.3522625087
C    6.0       19.8344507578       18.8657249074       21.4338094698
H    1.0       19.6894199086       17.7843012217       21.3038208063
H    1.0       20.9189955348       19.0395900189       21.4644728948
C    6.0       19.2010806292       19.3151649737       22.7697920666
H    1.0       18.1165411610       19.1413192704       22.7382645824
H    1.0       19.3463498461       20.3966723680       22.8988721455
C    6.0       19.8092520662       18.5648474255       23.9761051744
H    1.0       19.6644078363       17.4833898251       23.8459349280
H    1.0       20.8937723292       18.7389879832       24.0075785522
C    6.0       19.1756041991       19.0139227906       25.3120843474
H    1.0       18.0914421357       18.8369486281       25.2816986258
H    1.0       19.3189651542       20.0958043243       25.4346060064
C    6.0       19.7863945608       18.2623417012       26.5183536682
H    1.0       19.6712845774       17.1804918666       26.3689340664
H    1.0       20.8654966280       18.4576831271       26.5764846175
C    6.0       19.1219378433       18.6432181758       27.8552969862
H    1.0       19.5347054365       18.0227276888       28.6553983411
H    1.0       18.0462921962       18.4557231855       27.7984616188
N    7.0       19.3266554537       20.0935476236       28.2464115078
H    1.0       20.3210351446       20.3260564021       28.3384308476
H    1.0       18.8830850317       20.3117043980       29.1454525542
H    1.0       18.9284962032       20.7333677179       27.5518920178
 $end
$$$$
! Edit this basic GAMESS input file as needed.
! Conformer was generated by a VeraChem VCPack run 
! and contains     29 atoms.
!
 $contrl scftyp=rhf runtyp=optimize nzvar=0
  maxit=200 icharg=0 $end
 $system mwords=50 $end
 $basis gbasis=pm3 $end
 $statpt nstep=200 $end
 $guess guess=huckel $end
 $data
VM2 Rank=3      G=58.419            E=21.131            -TS=37.288              
C1
C    6.0       19.7816974394       18.9386099443       18.8904307621
H    1.0       19.1066774648       18.8318765355       18.0313575804
H    1.0       20.3391341521       19.8762744475       18.7667122335
H    1.0       20.4988806395       18.1079285938       18.8608994216
C    6.0       18.9854989737       18.9371032385       20.2125146586
H    1.0       18.4126298327       18.0025497948       20.2920558143
H    1.0       18.2540536660       19.7572815431       20.1985544213
C    6.0       19.9129070987       19.0862646390       21.4387294513
H    1.0       20.6436996532       18.2657293442       21.4471905414
H    1.0       20.4849664315       20.0205744954       21.3537518691
C    6.0       19.1192219827       19.0850582036       22.7646511507
H    1.0       18.5472957369       18.1505763083       22.8487115640
H    1.0       18.3884438467       19.9056188649       22.7553336311
C    6.0       20.0474786134       19.2344614902       23.9910545153
H    1.0       20.7780517588       18.4136828240       24.0003077019
H    1.0       20.6197203046       20.1686772816       23.9058851378
C    6.0       19.2538222911       19.2337226515       25.3170001038
H    1.0       18.6803652466       18.3003635356       25.3945814695
H    1.0       18.5252203085       20.0563555826       25.3089014264
C    6.0       20.1848984727       19.3826158850       26.5433589522
H    1.0       20.8975876220       18.5478483612       26.5785340429
H    1.0       20.7806322410       20.2991752118       26.4385026476
C    6.0       19.4103802569       19.4541256685       27.8733949294
H    1.0       18.6954251863       20.2806047660       27.8391684385
H    1.0       20.1108734328       19.6425106391       28.6915451610
N    7.0       18.6480948714       18.1860382794       28.2038654766
H    1.0       17.9451899739       17.9693283016       27.4902693036
H    1.0       18.1538067185       18.2614539700       29.0997522541
H    1.0       19.2711087604       17.3745848360       28.2725339317
 $end
$$$$
! Edit this basic GAMESS input file as needed.
! Conformer was generated by a VeraChem VCPack run 
! and contains     29 atoms.
!
 $contrl scftyp=rhf runtyp=optimize nzvar=0
  maxit=200 icharg=0 $end
 $system mwords=50 $end
 $basis gbasis=pm3 $end
 $statpt nstep=200 $end
 $guess guess=huckel $end
 $data
VM2 Rank=4      G=58.653            E=21.369            -TS=37.284              
C1
C    6.0       20.2024861714       18.4714421395       19.1139030587
H    1.0       20.3376102280       17.3930570082       19.2690799016
H    1.0       19.7627632478       18.6162972995       18.1185568394
H    1.0       21.1933189300       18.9441966703       19.1167827234
C    6.0       19.2949117970       19.0791735756       20.2042255130
H    1.0       18.3018690676       18.6108637692       20.1547316408
H    1.0       19.1508929180       20.1500935470       20.0035033718
C    6.0       19.8914345830       18.8888689833       21.6162668952
H    1.0       20.0358141811       17.8171943196       21.8113820656
H    1.0       20.8847284890       19.3566673009       21.6603221525
C    6.0       18.9852543132       19.4961027478       22.7108838189
H    1.0       17.9921831802       19.0278317177       22.6663234321
H    1.0       18.8409103988       20.5675289385       22.5143020959
C    6.0       19.5824532789       19.3057706453       24.1233727106
H    1.0       19.7298859919       18.2337743533       24.3108531162
H    1.0       20.5742350549       19.7767114625       24.1679591186
C    6.0       18.6724652869       19.9134245801       25.2175868254
H    1.0       17.6899302318       19.4216310868       25.1981331716
H    1.0       18.4937797497       20.9736864677       24.9910427844
C    6.0       19.2754100514       19.8046896237       26.6377607639
H    1.0       20.2463806658       20.3169277689       26.6666871920
H    1.0       18.6204838481       20.3318576255       27.3442407665
C    6.0       19.4453849212       18.3460003561       27.1017740818
H    1.0       20.1311144458       17.8215318875       26.4314222021
H    1.0       18.4786289797       17.8360992886       27.0742920229
N    7.0       19.9941995970       18.2325273485       28.5092263325
H    1.0       20.9170023965       18.6712200559       28.5957414468
H    1.0       20.0998227687       17.2540660678       28.7993054302
H    1.0       19.3801441255       18.6829766051       29.1959180177
 $end
$$$$
! Edit this basic GAMESS input file as needed.
! Conformer was generated by a VeraChem VCPack run 
! and contains     29 atoms.
!
 $contrl scftyp=rhf runtyp=optimize nzvar=0
  maxit=200 icharg=0 $end
 $system mwords=50 $end
 $basis gbasis=pm3 $end
 $statpt nstep=200 $end
 $guess guess=huckel $end
 $data
VM2 Rank=5      G=58.661            E=21.378            -TS=37.284              
C1
C    6.0       20.4799065659       19.2505655396       19.1312254935
H    1.0       21.2636266713       19.9940132951       19.3269796941
H    1.0       20.9492681672       18.2585639504       19.1014570320
H    1.0       20.0615645653       19.4555157353       18.1372238462
C    6.0       19.3772114272       19.3101978661       20.2093461947
H    1.0       18.5920029895       18.5798837716       19.9685372482
H    1.0       18.9039197653       20.3019649616       20.1923222270
C    6.0       19.9399297896       19.0250569411       21.6192985885
H    1.0       20.4138516506       18.0337586330       21.6309042552
H    1.0       20.7259406906       19.7559737309       21.8545576682
C    6.0       18.8385233267       19.0839754346       22.7016668789
H    1.0       18.0526936555       18.3533248144       22.4649113179
H    1.0       18.3651151351       20.0755365087       22.6896026673
C    6.0       19.4017223645       18.7983224994       24.1120617530
H    1.0       19.8724590552       17.8055160905       24.1240546712
H    1.0       20.1904125240       19.5278415780       24.3397318911
C    6.0       18.2970715029       18.8593011539       25.1940316519
H    1.0       17.4919891101       18.1603454839       24.9281157036
H    1.0       17.8464967806       19.8614985428       25.2079951928
C    6.0       18.8129663661       18.5062084180       26.6087537846
H    1.0       17.9623450952       18.4839866774       27.3029418014
H    1.0       19.2413282318       17.4950258402       26.6036590577
C    6.0       19.8598469046       19.5095100716       27.1277921252
H    1.0       19.4333037622       20.5161851588       27.1340640514
H    1.0       20.7321728897       19.5086481900       26.4692259903
N    7.0       20.3368217526       19.1948620757       28.5308235298
H    1.0       21.0328728874       19.8739732459       28.8579451471
H    1.0       20.7734300433       18.2687293454       28.5869732122
H    1.0       19.5665804949       19.2071084623       29.2076488987
 $end
$$$$
! Edit this basic GAMESS input file as needed.
! Conformer was generated by a VeraChem VCPack run 
! and contains     29 atoms.
!
 $contrl scftyp=rhf runtyp=optimize nzvar=0
  maxit=200 icharg=0 $end
 $system mwords=50 $end
 $basis gbasis=pm3 $end
 $statpt nstep=200 $end
 $guess guess=huckel $end
 $data
VM2 Rank=6      G=58.790            E=21.495            -TS=37.295              
C1
C    6.0       19.6450043095       20.1991034795       19.5766618684
H    1.0       20.7238651919       20.3976601769       19.6174688451
H    1.0       19.3013689418       20.4191702826       18.5576334086
H    1.0       19.1401222699       20.8996864620       20.2532258747
C    6.0       19.3359753364       18.7305991045       19.9461208646
H    1.0       19.7601158549       18.0744094422       19.1732817587
H    1.0       18.2496414406       18.5655049744       19.9274161003
C    6.0       19.9057298188       18.3095664845       21.3221737669
H    1.0       19.7391341376       17.2314467844       21.4533006936
H    1.0       20.9944731485       18.4572805415       21.3291155324
C    6.0       19.2685160994       19.0674892367       22.5113557992
H    1.0       18.1757669695       18.9604695330       22.4712299118
H    1.0       19.4877348990       20.1402876444       22.4313007485
C    6.0       19.7888479992       18.5447338777       23.8693648639
H    1.0       19.5675410116       17.4721604993       23.9591709114
H    1.0       20.8821670370       18.6482812240       23.9071711549
C    6.0       19.1567667636       19.3031751155       25.0582480627
H    1.0       18.0632783825       19.2001692429       25.0203961260
H    1.0       19.3782541409       20.3759460062       24.9695640108
C    6.0       19.6761511873       18.7811254599       26.4158296516
H    1.0       19.4518056832       17.7102487642       26.5107121049
H    1.0       20.7683938637       18.8870007403       26.4595030756
C    6.0       19.0408915859       19.5430664468       27.5920686334
H    1.0       17.9541383053       19.4266895034       27.5623005750
H    1.0       19.2755438488       20.6078659984       27.5108169033
N    7.0       19.5261169000       19.0591407949       28.9431764892
H    1.0       20.5407173079       19.1670098453       29.0456761326
H    1.0       19.3110326029       18.0678457059       29.0936068193
H    1.0       19.0909518883       19.5795467595       29.7129615825
 $end
$$$$
! Edit this basic GAMESS input file as needed.
! Conformer was generated by a VeraChem VCPack run 
! and contains     29 atoms.
!
 $contrl scftyp=rhf runtyp=optimize nzvar=0
  maxit=200 icharg=0 $end
 $system mwords=50 $end
 $basis gbasis=pm3 $end
 $statpt nstep=200 $end
 $guess guess=huckel $end
 $data
VM2 Rank=7      G=58.791            E=21.496            -TS=37.295              
C1
C    6.0       18.9501178896       18.2472725522       19.5328712102
H    1.0       18.1067335576       17.9967227208       20.1881502226
H    1.0       18.5591207515       18.3344833801       18.5108876967
H    1.0       19.6604787460       17.4105461281       19.5503895702
C    6.0       19.6327886767       19.5648029747       19.9648143089
H    1.0       18.8951812734       20.3794509713       19.9681901731
H    1.0       20.3868813996       19.8358310202       19.2127183693
C    6.0       20.3209948142       19.4761619244       21.3482582798
H    1.0       21.0715829891       18.6738911322       21.3338136705
H    1.0       20.8709225856       20.4109382889       21.5245046843
C    6.0       19.3316017221       19.2444086064       22.5153180988
H    1.0       18.8251759283       18.2784394441       22.3896183172
H    1.0       18.5526239828       20.0189703973       22.4949788988
C    6.0       20.0459758235       19.2666429970       23.8854923049
H    1.0       20.8275724180       18.4944544606       23.9036904224
H    1.0       20.5505659700       20.2333445909       24.0208841096
C    6.0       19.0602313642       19.0314301979       25.0521877983
H    1.0       18.5557858587       18.0643228811       24.9180346722
H    1.0       18.2780496441       19.8031899591       25.0337865808
C    6.0       19.7733934115       19.0540925349       26.4219343778
H    1.0       20.5526072796       18.2805604319       26.4461339483
H    1.0       20.2744730860       20.0212376627       26.5621515362
C    6.0       18.7831176319       18.8189587679       27.5759296810
H    1.0       18.2938048065       17.8493914270       27.4495433064
H    1.0       18.0144921447       19.5965031543       27.5658384016
N    7.0       19.4457786662       18.8342294448       28.9381939403
H    1.0       18.7689227417       18.6756877967       29.6928385638
H    1.0       19.9027870655       19.7318366908       29.1305490387
H    1.0       20.1628787161       18.1060439187       29.0222639772
 $end
$$$$
! Edit this basic GAMESS input file as needed.
! Conformer was generated by a VeraChem VCPack run 
! and contains     29 atoms.
!
 $contrl scftyp=rhf runtyp=optimize nzvar=0
  maxit=200 icharg=0 $end
 $system mwords=50 $end
 $basis gbasis=pm3 $end
 $statpt nstep=200 $end
 $guess guess=huckel $end
 $data
VM2 Rank=8      G=58.820            E=21.536            -TS=37.284              
C1
C    6.0       20.2306509946       18.4037395829       19.2510528228
H    1.0       21.2153209108       18.8886709188       19.2282637386
H    1.0       20.3525249131       17.3757070603       18.8859008116
H    1.0       19.5719458517       18.9339639843       18.5509060535
C    6.0       19.6432953426       18.4089754818       20.6782854132
H    1.0       20.3076567943       17.8360400618       21.3385832257
H    1.0       18.6734116174       17.8922664909       20.6748682007
C    6.0       19.4664417416       19.8485025729       21.2162980987
H    1.0       20.4442195880       20.3468288517       21.2695889954
H    1.0       18.8652516254       20.4254849350       20.5000770437
C    6.0       18.7749781022       19.9127173255       22.6002781927
H    1.0       17.7908803930       19.4274720884       22.5423548388
H    1.0       18.5851098263       20.9669553042       22.8449095963
C    6.0       19.6067743712       19.2735971895       23.7380919259
H    1.0       19.7409992433       18.2008658352       23.5472130789
H    1.0       20.6091456906       19.7232446318       23.7568473970
C    6.0       18.9316372073       19.4605982636       25.1156079514
H    1.0       17.9273856538       19.0146535649       25.0960115113
H    1.0       18.7995803071       20.5325942294       25.3183968843
C    6.0       19.7571189480       18.8202130571       26.2531124315
H    1.0       19.8865561452       17.7473109057       26.0575897076
H    1.0       20.7601435930       19.2667466527       26.2788303236
C    6.0       19.0762792086       19.0125950676       27.6195194166
H    1.0       18.0833740384       18.5550435417       27.6039100312
H    1.0       18.9603495598       20.0799789000       27.8261898361
N    7.0       19.8568240840       18.3970614591       28.7627537470
H    1.0       19.3862084021       18.5363334630       29.6637980911
H    1.0       20.7936722449       18.8050410711       28.8488799563
H    1.0       19.9776121071       17.3859362653       28.6419893886
 $end
$$$$
! Edit this basic GAMESS input file as needed.
! Conformer was generated by a VeraChem VCPack run 
! and contains     29 atoms.
!
 $contrl scftyp=rhf runtyp=optimize nzvar=0
  maxit=200 icharg=0 $end
 $system mwords=50 $end
 $basis gbasis=pm3 $end
 $statpt nstep=200 $end
 $guess guess=huckel $end
 $data
VM2 Rank=9      G=58.822            E=21.537            -TS=37.285              
C1
C    6.0       20.5849109696       19.9824083880       19.5493550664
H    1.0       20.3261320249       20.1980726733       18.5045736751
H    1.0       20.8701174654       20.9282779773       20.0281309998
H    1.0       21.4610703201       19.3208996171       19.5500077060
C    6.0       19.3947207487       19.3269376156       20.2812934225
H    1.0       19.1108542474       18.4022736921       19.7594791958
H    1.0       18.5246647053       19.9968724516       20.2355699908
C    6.0       19.7329562623       19.0120249420       21.7552478549
H    1.0       20.6017114972       18.3406037789       21.7957944394
H    1.0       20.0233517062       19.9416064789       22.2618312328
C    6.0       18.5386644002       18.3584910453       22.4912152455
H    1.0       18.2122002967       17.4739144703       21.9270543581
H    1.0       17.6852146441       19.0504454059       22.5005478981
C    6.0       18.8675562007       17.9211624414       23.9397294528
H    1.0       18.0073725402       17.3657190990       24.3384039137
H    1.0       19.7109444051       17.2169645550       23.9285638673
C    6.0       19.1861993430       19.1035057823       24.8861455288
H    1.0       18.3651713728       19.8331098963       24.8524746723
H    1.0       20.0908131559       19.6242653560       24.5455893352
C    6.0       19.3954602674       18.6318187580       26.3419043745
H    1.0       18.4921541134       18.1191650872       26.6987074367
H    1.0       20.2162772949       17.9031651712       26.3799055288
C    6.0       19.7154730645       19.8123438731       27.2755173532
H    1.0       18.8932063349       20.5326582064       27.2534863991
H    1.0       20.6238579023       20.3161198790       26.9341954138
N    7.0       19.9280587436       19.3893071542       28.7145917014
H    1.0       19.0975154563       18.9315504702       29.1047250317
H    1.0       20.1398894187       20.1903095192       29.3197909844
H    1.0       20.7080005484       18.7300826957       28.8076285215
 $end
$$$$
! Edit this basic GAMESS input file as needed.
! Conformer was generated by a VeraChem VCPack run 
! and contains     29 atoms.
!
 $contrl scftyp=rhf runtyp=optimize nzvar=0
  maxit=200 icharg=0 $end
 $system mwords=50 $end
 $basis gbasis=pm3 $end
 $statpt nstep=200 $end
 $guess guess=huckel $end
 $data
VM2 Rank=10     G=58.823            E=21.538            -TS=37.285              
C1
C    6.0       19.8158898248       17.8220241205       19.5012824757
H    1.0       20.9128476103       17.7805789755       19.5159648907
H    1.0       19.4325402139       16.8906484710       19.9381135812
H    1.0       19.4939912012       17.8598989223       18.4524768401
C    6.0       19.2970924152       19.0524096477       20.2751918780
H    1.0       18.2001791719       19.0851970255       20.2151240143
H    1.0       19.6686163505       19.9682299232       19.7944478042
C    6.0       19.7372469135       19.0242578162       21.7555953313
H    1.0       19.3679660694       18.1010653844       22.2208095586
H    1.0       20.8341657413       18.9937353072       21.8105682243
C    6.0       19.2138726543       20.2555023693       22.5335485705
H    1.0       18.1151384627       20.2584260188       22.5274357225
H    1.0       19.5275101648       21.1689201312       22.0094949772
C    6.0       19.7245145270       20.3290934949       23.9935029591
H    1.0       20.8232052264       20.3424300540       23.9984069446
H    1.0       19.4026166834       21.2865469319       24.4259836154
C    6.0       19.2117214581       19.1746771451       24.8876723129
H    1.0       19.5893115343       18.2137602320       24.5140937770
H    1.0       18.1149735876       19.1291918681       24.8365152259
C    6.0       19.6509797755       19.3502131045       26.3579621702
H    1.0       20.7468966024       19.3950679230       26.4134193313
H    1.0       19.2689254228       20.3033050471       26.7474946674
C    6.0       19.1407442928       18.1966879657       27.2392803129
H    1.0       19.5322266966       17.2466766094       26.8655504184
H    1.0       18.0487461684       18.1584867492       27.2000238308
N    7.0       19.5519381388       18.3331343361       28.6909639894
H    1.0       20.5715365932       18.3479473212       28.7993177759
H    1.0       19.2020653090       17.5548845907       29.2607529367
H    1.0       19.1910412276       19.1964059413       29.1105635109
 $end
$$$$
! Edit this basic GAMESS input file as needed.
! Conformer was generated by a VeraChem VCPack run 
! and contains     29 atoms.
!
 $contrl scftyp=rhf runtyp=optimize nzvar=0
  maxit=200 icharg=0 $end
 $system mwords=50 $end
 $basis gbasis=pm3 $end
 $statpt nstep=200 $end
 $guess guess=huckel $end
 $data
VM2 Rank=11     G=58.851            E=21.568            -TS=37.284              
C1
C    6.0       20.5426252419       19.2797722215       19.2705990291
H    1.0       20.9996078089       18.2831306657       19.2146834500
H    1.0       19.7069878798       19.3133122364       18.5593882324
H    1.0       21.2917881992       20.0130083394       18.9447783633
C    6.0       20.0640485457       19.5902603520       20.7046716770
H    1.0       19.6389773093       20.6031967442       20.7354607801
H    1.0       20.9316166502       19.5877767841       21.3776829946
C    6.0       19.0098305475       18.5663924969       21.1876717516
H    1.0       18.1894717176       18.5279984544       20.4577067939
H    1.0       19.4519494267       17.5607283010       21.2073820227
C    6.0       18.4138650080       18.8987646794       22.5776346487
H    1.0       17.5972319487       18.1929010506       22.7830119118
H    1.0       17.9585367383       19.8984281073       22.5528276047
C    6.0       19.4462777971       18.8230220948       23.7280117439
H    1.0       19.9388772696       17.8409564271       23.7147742231
H    1.0       20.2306593543       19.5762941517       23.5779073282
C    6.0       18.7854500450       19.0501405249       25.1064366221
H    1.0       18.0030497378       18.2955894170       25.2684227504
H    1.0       18.2890603588       20.0305573934       25.1187241187
C    6.0       19.8137613629       18.9793585032       26.2566527426
H    1.0       20.3088343405       17.9990652817       26.2503901197
H    1.0       20.5945322054       19.7360657107       26.1020745876
C    6.0       19.1452287567       19.2061340980       27.6238608021
H    1.0       18.3782198226       18.4447544655       27.7895660135
H    1.0       18.6648592416       20.1881856965       27.6405533728
N    7.0       20.1229126952       19.1441550292       28.7794609830
H    1.0       20.5901750847       18.2330982605       28.8359524583
H    1.0       19.6574330238       19.2977053078       29.6808532067
H    1.0       20.8569176064       19.8555165581       28.6973144729
 $end
$$$$
! Edit this basic GAMESS input file as needed.
! Conformer was generated by a VeraChem VCPack run 
! and contains     29 atoms.
!
 $contrl scftyp=rhf runtyp=optimize nzvar=0
  maxit=200 icharg=0 $end
 $system mwords=50 $end
 $basis gbasis=pm3 $end
 $statpt nstep=200 $end
 $guess guess=huckel $end
 $data
VM2 Rank=12     G=58.857            E=21.572            -TS=37.285              
C1
C    6.0       19.8228238277       18.4684838923       19.1102154830
H    1.0       20.9195367542       18.4230579327       19.0899663322
H    1.0       19.4404898657       17.6797833424       18.4492922086
H    1.0       19.5128857092       19.4362054768       18.6946329731
C    6.0       19.2865776289       18.2840410700       20.5455675914
H    1.0       19.5835727202       17.2948630826       20.9213345979
H    1.0       18.1877778368       18.3003293387       20.5291731708
C    6.0       19.8101936738       19.3823712187       21.4971620988
H    1.0       20.9087933162       19.3635729770       21.5090906683
H    1.0       19.5132269236       20.3690547288       21.1155166201
C    6.0       19.2750353436       19.2013531239       22.9355794276
H    1.0       19.5703581619       18.2108249504       23.3054188598
H    1.0       18.1766034407       19.2242605087       22.9232664790
C    6.0       19.8046693832       20.3008854779       23.8871727162
H    1.0       20.9005590168       20.2454348483       23.9443856682
H    1.0       19.5676504817       21.2860102648       23.4620383279
C    6.0       19.2064565920       20.2264224135       25.3134453445
H    1.0       18.1113801918       20.2990938532       25.2579193536
H    1.0       19.5453162424       21.1052914048       25.8795343745
C    6.0       19.6056278064       18.9475706175       26.0864034072
H    1.0       19.2046130049       18.0597116093       25.5816333911
H    1.0       20.6992254743       18.8484840441       26.0977722087
C    6.0       19.0805163820       18.9809963951       27.5323620177
H    1.0       17.9902528728       19.0631040411       27.5263140111
H    1.0       19.4885392665       19.8519803563       28.0523122081
N    7.0       19.4520993624       17.7458757910       28.3270919135
H    1.0       19.0737440909       16.8915974842       27.9045485392
H    1.0       19.0931202841       17.7886880749       29.2873222852
H    1.0       20.4683408602       17.6258426853       28.3932348120
 $end
$$$$
! Edit this basic GAMESS input file as needed.
! Conformer was generated by a VeraChem VCPack run 
! and contains     29 atoms.
!
 $contrl scftyp=rhf runtyp=optimize nzvar=0
  maxit=200 icharg=0 $end
 $system mwords=50 $end
 $basis gbasis=pm3 $end
 $statpt nstep=200 $end
 $guess guess=huckel $end
 $data
VM2 Rank=13     G=58.907            E=21.622            -TS=37.285              
C1
C    6.0       20.1877695384       19.4930449565       19.1331743839
H    1.0       21.0665467247       18.8358890860       19.0992643119
H    1.0       19.3419176727       18.9564537665       18.6838865982
H    1.0       20.3993524754       20.3713417209       18.5095763272
C    6.0       19.8684681190       19.9177020452       20.5821484025
H    1.0       19.0069601893       20.6001218634       20.5806490774
H    1.0       20.7183899920       20.4807241788       20.9926614598
C    6.0       19.5666747911       18.6989258933       21.4818923321
H    1.0       18.7184490119       18.1380239210       21.0656096965
H    1.0       20.4296937173       18.0187739289       21.4790433541
C    6.0       19.2460082434       19.1201348274       22.9337734763