$$$$
! Edit this basic GAMESS input file as needed.
! Conformer was generated by a VeraChem VCPack run 
! and contains     20 atoms.
!
 $contrl scftyp=rhf runtyp=optimize nzvar=0
  maxit=200 icharg=0 $end
 $system mwords=50 $end
 $basis gbasis=pm3 $end
 $statpt nstep=200 $end
 $guess guess=huckel $end
 $data
VM2 Rank=1      G=53.937            E=31.435            -TS=22.502              
C1
C    6.0       19.8543508795       19.1510030836       18.8169383099
H    1.0       20.0356664222       20.2331301649       18.7808592570
H    1.0       20.3379259714       18.6998818984       17.9407695168
H    1.0       18.7731811130       18.9827310850       18.7278752690
C    6.0       20.4072638470       18.5374681041       20.1215824162
H    1.0       21.4948225512       18.6913206951       20.1651397935
H    1.0       20.2422726625       17.4507080185       20.1125613779
C    6.0       19.7439058382       19.1541887253       21.3727338018
H    1.0       19.9120420724       20.2393585219       21.3827340181
H    1.0       18.6578819184       18.9970016234       21.3301722846
C    6.0       20.3005696349       18.5373804627       22.6693666351
H    1.0       21.3791658382       18.7056237356       22.7224060960
H    1.0       20.1208444377       17.4593330076       22.6697645825
N    7.0       19.6775785265       19.1133194933       23.9259034472
H    1.0       18.6546900022       18.9806663722       23.9098814637
H    1.0       19.8197986510       20.1345229302       23.9586662376
C    6.0       20.2823312739       18.4506401311       25.1564753898
H    1.0       21.3590495940       18.6330546496       25.1709886866
H    1.0       19.8251177474       18.8743696924       26.0533693185
H    1.0       20.0900086033       17.3762442043       25.1178330155
 $end
$$$$
! Edit this basic GAMESS input file as needed.
! Conformer was generated by a VeraChem VCPack run 
! and contains     20 atoms.
!
 $contrl scftyp=rhf runtyp=optimize nzvar=0
  maxit=200 icharg=0 $end
 $system mwords=50 $end
 $basis gbasis=pm3 $end
 $statpt nstep=200 $end
 $guess guess=huckel $end
 $data
VM2 Rank=2      G=54.084            E=31.414            -TS=22.671              
C1
C    6.0       20.2446823717       19.5233521725       19.0575481286
H    1.0       21.0844206746       20.2044575867       19.2475604475
H    1.0       20.4068676992       19.0550497853       18.0780541988
H    1.0       19.3265618955       20.1220377652       18.9959192827
C    6.0       20.1365609811       18.4513618268       20.1636305644
H    1.0       21.0548785342       17.8473597455       20.1777890311
H    1.0       19.3108996672       17.7651839678       19.9275133051
C    6.0       19.9075297138       19.0821502495       21.5547959659
H    1.0       20.7340625439       19.7663074550       21.7861542860
H    1.0       18.9878132098       19.6817806442       21.5411295333
C    6.0       19.7993922470       18.0035638089       22.6524899868
H    1.0       20.7301642680       17.4332657349       22.7054589887
H    1.0       18.9938038227       17.3122383581       22.3921540956
N    7.0       19.5005575157       18.5423916177       24.0421392345
H    1.0       19.2825272298       17.7581718999       24.6767640678
H    1.0       18.6430797413       19.1153363081       24.0265704297
C    6.0       20.6772771706       19.3411803246       24.5923961197
H    1.0       20.8595094047       20.2064409647       23.9520823042
H    1.0       20.4391531402       19.6779812691       25.6037486273
H    1.0       21.5642694976       18.7044802307       24.6161616493
 $end
$$$$
! Edit this basic GAMESS input file as needed.
! Conformer was generated by a VeraChem VCPack run 
! and contains     20 atoms.
!
 $contrl scftyp=rhf runtyp=optimize nzvar=0
  maxit=200 icharg=0 $end
 $system mwords=50 $end
 $basis gbasis=pm3 $end
 $statpt nstep=200 $end
 $guess guess=huckel $end
 $data
VM2 Rank=3      G=54.173            E=31.503            -TS=22.670              
C1
C    6.0       19.4687170870       18.7547703336       19.0250510548
H    1.0       18.8814105247       19.6810244069       18.9771662612
H    1.0       19.9765558551       18.6286111414       18.0600635499
H    1.0       18.7726990333       17.9151788714       19.1507987501
C    6.0       20.4938886451       18.8051367427       20.1786341612
H    1.0       21.1967640140       19.6325726891       20.0065146458
H    1.0       21.0885483502       17.8806333238       20.1793225814
C    6.0       19.8068758617       18.9825556065       21.5505737609
H    1.0       19.2164783809       19.9083271654       21.5505914883
H    1.0       19.1062974182       18.1543614308       21.7180194077
C    6.0       20.8389823256       19.0333762370       22.6960613744
H    1.0       21.5476155703       19.8419368110       22.4992216721
H    1.0       21.3984866258       18.0953261891       22.7334462499
N    7.0       20.2444658841       19.2792901547       24.0733165987
H    1.0       19.6800644447       20.1425474237       24.0700458854
H    1.0       21.0029912484       19.4624144306       24.7488836350
C    6.0       19.4130701965       18.0888709255       24.5393630500
H    1.0       18.5741013816       17.9426217632       23.8562610898
H    1.0       20.0405583864       17.1951145858       24.5521826332
H    1.0       19.0358986814       18.2878535239       25.5449061155
 $end
$$$$
! Edit this basic GAMESS input file as needed.
! Conformer was generated by a VeraChem VCPack run 
! and contains     20 atoms.
!
 $contrl scftyp=rhf runtyp=optimize nzvar=0
  maxit=200 icharg=0 $end
 $system mwords=50 $end
 $basis gbasis=pm3 $end
 $statpt nstep=200 $end
 $guess guess=huckel $end
 $data
VM2 Rank=4      G=54.304            E=31.705            -TS=22.599              
C1
C    6.0       20.8667338028       19.3664731576       19.5193735376
H    1.0       20.5576638556       20.4198344152       19.5219958926
H    1.0       21.7364211574       19.2627081568       20.1803877416
H    1.0       21.1934080772       19.1163092721       18.5016843582
C    6.0       19.7057062843       18.4445612065       19.9579865903
H    1.0       20.0429429683       17.3984014100       19.9527085895
H    1.0       18.8958128687       18.5113529537       19.2179696416
C    6.0       19.1424088066       18.8035472195       21.3529791429
H    1.0       18.7741747458       19.8380625728       21.3461017977
H    1.0       18.2762263537       18.1625077042       21.5642920771
C    6.0       20.1839135576       18.6322018031       22.4759908490
H    1.0       21.0329924359       19.2956605501       22.2952881440
H    1.0       20.5483236175       17.6019062549       22.4843534928
N    7.0       19.6383392196       18.9444624033       23.8555969685
H    1.0       18.8280105713       18.3410048559       24.0637124833
H    1.0       19.2748061120       19.9093752365       23.8852266200
C    6.0       20.7288983291       18.7527542099       24.9010729117
H    1.0       20.3227981249       18.9807187650       25.8890602026
H    1.0       21.0742377107       17.7169581343       24.8751554518
H    1.0       21.5607679084       19.4253158540       24.6809521480
 $end
$$$$
! Edit this basic GAMESS input file as needed.
! Conformer was generated by a VeraChem VCPack run 
! and contains     20 atoms.
!
 $contrl scftyp=rhf runtyp=optimize nzvar=0
  maxit=200 icharg=0 $end
 $system mwords=50 $end
 $basis gbasis=pm3 $end
 $statpt nstep=200 $end
 $guess guess=huckel $end
 $data
VM2 Rank=5      G=54.310            E=31.711            -TS=22.599              
C1
C    6.0       19.6008436878       18.1121151991       19.4663395473
H    1.0       19.6693987552       17.2145320307       20.0938006447
H    1.0       18.5509008713       18.4313496285       19.4378987879
H    1.0       19.8910882297       17.8258197882       18.4471324182
C    6.0       20.5129480407       19.2444706992       19.9918148962
H    1.0       20.4841460195       20.0852704733       19.2845385031
H    1.0       21.5555814690       18.8972919874       20.0160715105
C    6.0       20.1000386699       19.7524285446       21.3931226950
H    1.0       20.7387951365       20.6024551504       21.6675348845
H    1.0       19.0698525761       20.1310894712       21.3585085429
C    6.0       20.2150410539       18.6631023009       22.4772759699
H    1.0       21.2409245220       18.2880767713       22.5132202658
H    1.0       19.5525667899       17.8292105144       22.2333107446
N    7.0       19.8496030314       19.1536208580       23.8644735639
H    1.0       18.8875010324       19.5256801842       23.8691086549
H    1.0       20.4507716261       19.9481517606       24.1317194958
C    6.0       19.9875255164       18.0182623983       24.8699733277
H    1.0       21.0204353727       17.6634490889       24.8727465903
H    1.0       19.7216620554       18.3849861907       25.8638719832
H    1.0       19.3175992124       17.2034574767       24.5869689187
 $end
$$$$
! Edit this basic GAMESS input file as needed.
! Conformer was generated by a VeraChem VCPack run 
! and contains     20 atoms.
!
 $contrl scftyp=rhf runtyp=optimize nzvar=0
  maxit=200 icharg=0 $end
 $system mwords=50 $end
 $basis gbasis=pm3 $end
 $statpt nstep=200 $end
 $guess guess=huckel $end
 $data
VM2 Rank=6      G=54.342            E=31.753            -TS=22.589              
C1
C    6.0       19.6843582371       18.8158151253       18.9888614551
H    1.0       20.5413271879       19.3304649964       18.5350885369
H    1.0       19.4591587152       17.9337323070       18.3754766732
H    1.0       18.8179388915       19.4883097126       18.9414100181
C    6.0       19.9896480785       18.4041705031       20.4453551914
H    1.0       20.8399903503       17.7076621594       20.4562802413
H    1.0       19.1275243569       17.8583054546       20.8518890891
C    6.0       20.3100674812       19.6309363047       21.3316741436
H    1.0       21.1481585345       20.1874291809       20.8914444431
H    1.0       19.4536955120       20.3181164907       21.3479853768
C    6.0       20.6878848386       19.2435132502       22.7755231275
H    1.0       20.9885417051       20.1403337447       23.3231881403
H    1.0       21.5356653519       18.5539544670       22.7609606514
N    7.0       19.5633355608       18.5876368907       23.5546915034
H    1.0       19.2485394086       17.7325816910       23.0727803790
H    1.0       18.7396198196       19.2080314161       23.5802335651
C    6.0       20.0307058038       18.2619279260       24.9668945791
H    1.0       20.3277383056       19.1849717290       25.4694352889
H    1.0       19.2124899709       17.7908038665       25.5160343968
H    1.0       20.8812928307       17.5787775889       24.9159279919
 $end
$$$$
! Edit this basic GAMESS input file as needed.
! Conformer was generated by a VeraChem VCPack run 
! and contains     20 atoms.
!
 $contrl scftyp=rhf runtyp=optimize nzvar=0
  maxit=200 icharg=0 $end
 $system mwords=50 $end
 $basis gbasis=pm3 $end
 $statpt nstep=200 $end
 $guess guess=huckel $end
 $data
VM2 Rank=7      G=54.383            E=31.794            -TS=22.589              
C1
C    6.0       20.1834527100       19.3099588597       19.0097771387
H    1.0       19.6811625433       18.4780745986       18.4990491329
H    1.0       19.5210277695       20.1845168568       18.9707443357
H    1.0       21.0926302143       19.5514597717       18.4440034234
C    6.0       20.5303878135       18.9398178046       20.4680821399
H    1.0       21.0659631445       19.7784832250       20.9331581039
H    1.0       21.2184471757       18.0825652399       20.4723393663
C    6.0       19.2644680989       18.5954269845       21.2878574265
H    1.0       18.5846822526       19.4575102180       21.3115322121
H    1.0       18.7198411362       17.7823688288       20.7896596011
C    6.0       19.5871484146       18.1534589009       22.7294130467
H    1.0       20.2692187176       17.2997884438       22.7079273136
H    1.0       18.6653650823       17.8396463862       23.2258575679
N    7.0       20.2193806875       19.2374260107       23.5821658183
H    1.0       19.6056880215       20.0658246840       23.6165885966
H    1.0       21.0967174681       19.5631273274       23.1501317490
C    6.0       20.4811622755       18.7079114395       24.9857044299
H    1.0       21.1582811000       17.8529863604       24.9273642213
H    1.0       20.9359824946       19.4973664401       25.5881073863
H    1.0       19.5351735968       18.3999377547       25.4363069309
 $end
$$$$
! Edit this basic GAMESS input file as needed.
! Conformer was generated by a VeraChem VCPack run 
! and contains     20 atoms.
!
 $contrl scftyp=rhf runtyp=optimize nzvar=0
  maxit=200 icharg=0 $end
 $system mwords=50 $end
 $basis gbasis=pm3 $end
 $statpt nstep=200 $end
 $guess guess=huckel $end
 $data
VM2 Rank=8      G=54.497            E=31.685            -TS=22.812              
C1
C    6.0       19.9201839564       18.3275804025       19.2181761803
H    1.0       19.1811136918       17.5277984601       19.3570488689
H    1.0       19.4294370211       19.1592181554       18.6959774828
H    1.0       20.7136906119       17.9422452514       18.5648259579
C    6.0       20.5031686712       18.7869270386       20.5720950110
H    1.0       21.2611564784       19.5636531614       20.3979324292
H    1.0       21.0182725515       17.9404703379       21.0462631334
C    6.0       19.4037182862       19.3330741499       21.5131886802
H    1.0       18.8681331892       20.1490315442       21.0101877220
H    1.0       18.6580760676       18.5526380322       21.7123837687
C    6.0       19.9677883844       19.8725428861       22.8464047889
H    1.0       19.1519282557       20.2797211805       23.4489592924
H    1.0       20.6647196120       20.6870043627       22.6329380245
N    7.0       20.7069426767       18.8541067869       23.7014309030
H    1.0       21.1548377787       19.3330916190       24.4984179913
H    1.0       21.4862982077       18.4409038891       23.1686102714
C    6.0       19.7641980251       17.7697687359       24.2117044367
H    1.0       20.3229111616       17.0805098145       24.8486455597
H    1.0       18.9608615222       18.2339193194       24.7877870810
H    1.0       19.3449413394       17.2259161702       23.3629037976
 $end
$$$$
! Edit this basic GAMESS input file as needed.
! Conformer was generated by a VeraChem VCPack run 
! and contains     20 atoms.
!
 $contrl scftyp=rhf runtyp=optimize nzvar=0
  maxit=200 icharg=0 $end
 $system mwords=50 $end
 $basis gbasis=pm3 $end
 $statpt nstep=200 $end
 $guess guess=huckel $end
 $data
VM2 Rank=9      G=54.514            E=31.702            -TS=22.812              
C1
C    6.0       20.6591105490       19.0613397845       19.2491832513
H    1.0       21.4568139886       19.7876003218       19.4525970448
H    1.0       21.0668505623       18.2929278966       18.5796367958
H    1.0       19.8533012472       19.5801107172       18.7137459305
C    6.0       20.1393955889       18.4257075451       20.5567903929
H    1.0       20.9618726949       17.8844440476       21.0438454045
H    1.0       19.3660571803       17.6818949048       20.3183133727
C    6.0       19.5607793161       19.4889921679       21.5197837892
H    1.0       20.3367141033       20.2193447674       21.7829411664
H    1.0       18.7701715491       20.0517370945       21.0060672485
C    6.0       18.9618999507       18.8737596717       22.8041113138
H    1.0       18.1528670073       18.1929598719       22.5273336396
H    1.0       18.5346948235       19.6668247357       23.4230113812
N    7.0       19.9386341802       18.0912048826       23.6691114747
H    1.0       20.3692139008       17.3316999401       23.1215888782
H    1.0       19.4235761102       17.6139925138       24.4255570546
C    6.0       21.0061804151       19.0029959482       24.2640197780
H    1.0       21.6644340267       18.4125023795       24.9050753689
H    1.0       21.5880164355       19.4533199037       23.4573663097
H    1.0       20.5230134319       19.7850013067       24.8536607225
 $end
$$$$
! Edit this basic GAMESS input file as needed.
! Conformer was generated by a VeraChem VCPack run 
! and contains     20 atoms.
!
 $contrl scftyp=rhf runtyp=optimize nzvar=0
  maxit=200 icharg=0 $end
 $system mwords=50 $end
 $basis gbasis=pm3 $end
 $statpt nstep=200 $end
 $guess guess=huckel $end
 $data
VM2 Rank=10     G=54.567            E=31.805            -TS=22.762              
C1
C    6.0       20.9206696697       19.1875739960       19.5881313112
H    1.0       21.7507298724       18.4998630125       19.7958533312
H    1.0       20.9046367250       19.3757072795       18.5067784014
H    1.0       21.1333114418       20.1417200140       20.0865887421
C    6.0       19.5731238463       18.5903526603       20.0546681926
H    1.0       19.3579443619       17.6875353668       19.4659365666
H    1.0       18.7610518469       19.2994009745       19.8402935097
C    6.0       19.5629207884       18.2247162312       21.5573611799
H    1.0       18.6090663339       17.7383440907       21.8005059504
H    1.0       20.3516111524       17.4882409391       21.7580678639
C    6.0       19.7481397149       19.4572979345       22.4683506741
H    1.0       18.9790338836       20.1953285913       22.2267826336
H    1.0       20.7240479923       19.9127362088       22.2841337241
N    7.0       19.6438639749       19.1652299118       23.9563790770
H    1.0       18.7464492652       18.7030536659       24.1679421711
H    1.0       19.6137910842       20.0533035942       24.4813829283
C    6.0       20.8172820057       18.3188292662       24.4381095652
H    1.0       21.7510508716       18.8413802539       24.2196738941
H    1.0       20.7267830699       18.1620774324       25.5152365564
H    1.0       20.8037112626       17.3549319422       23.9256572606
 $end
$$$$
! Edit this basic GAMESS input file as needed.
! Conformer was generated by a VeraChem VCPack run 
! and contains     20 atoms.
!
 $contrl scftyp=rhf runtyp=optimize nzvar=0
  maxit=200 icharg=0 $end
 $system mwords=50 $end
 $basis gbasis=pm3 $end
 $statpt nstep=200 $end
 $guess guess=huckel $end
 $data
VM2 Rank=11     G=54.568            E=31.807            -TS=22.762              
C1
C    6.0       19.7766975310       18.0533917795       19.5401497102
H    1.0       20.4486751389       17.2089050633       19.7411063891
H    1.0       18.8007965346       17.8290182966       19.9888620231
H    1.0       19.6344286252       18.1165579716       18.4535291980
C    6.0       20.3640246533       19.3744909285       20.0878307063
H    1.0       19.6709318489       20.2015063606       19.8784659425
H    1.0       21.2925300000       19.6055971586       19.5470413175
C    6.0       20.6659320851       19.3182631170       21.6036034528
H    1.0       21.3871385198       18.5148839975       21.8014773704
H    1.0       21.1489807625       20.2564227399       21.9069769476
C    6.0       19.3945769437       19.1068068617       22.4535484858
H    1.0       18.9397519524       18.1438653009       22.2093492723
H    1.0       18.6734048326       19.8923659814       22.2140183750
N    7.0       19.6243567156       19.1458548470       23.9555737379
H    1.0       18.7151715189       19.1624625804       24.4437487467
H    1.0       20.0842281865       20.0291274981       24.2240223184
C    6.0       20.4404120712       17.9451924662       24.4222939071
H    1.0       20.5523241794       17.9890252339       25.5078891921
H    1.0       19.9201830302       17.0264704334       24.1429927420
H    1.0       21.4251323395       17.9708838794       23.9515996799
 $end
$$$$
! Edit this basic GAMESS input file as needed.
! Conformer was generated by a VeraChem VCPack run 
! and contains     20 atoms.
!
 $contrl scftyp=rhf runtyp=optimize nzvar=0
  maxit=200 icharg=0 $end
 $system mwords=50 $end
 $basis gbasis=pm3 $end
 $statpt nstep=200 $end
 $guess guess=huckel $end
 $data
VM2 Rank=12     G=54.588            E=31.822            -TS=22.765              
C1
C    6.0       19.9877403307       19.5062857424       19.3466497721
H    1.0       20.4743679779       20.3793284764       19.7993376218
H    1.0       20.3576706290       19.4191017644       18.3168261854
H    1.0       18.9084977869       19.7013392344       19.2988819634
C    6.0       20.2852418836       18.2133801133       20.1405271354
H    1.0       21.3709037484       18.0463640193       20.1808529511
H    1.0       19.8611671658       17.3557149968       19.5996323788
C    6.0       19.7080614244       18.2368256546       21.5753445184
H    1.0       18.6194695569       18.3731585175       21.5317620193
H    1.0       19.8837063837       17.2591050146       22.0419627938
C    6.0       20.3336732971       19.3451164628       22.4495921134
H    1.0       20.1583775913       20.3138325413       21.9756383325
H    1.0       21.4136135977       19.1946781688       22.5228229894
N    7.0       19.7752568230       19.4290048646       23.8609645563
H    1.0       18.7495115535       19.5330879715       23.8338298838
H    1.0       20.1161505104       20.2902729860       24.3161836695
C    6.0       20.1760262412       18.2133871623       24.6899219044
H    1.0       19.7551557214       17.3122670890       24.2397311395
H    1.0       21.2653279540       18.1399931823       24.7169808041
H    1.0       19.7899970565       18.3298043326       25.7050046970
 $end
$$$$
! Edit this basic GAMESS input file as needed.
! Conformer was generated by a VeraChem VCPack run 
! and contains     20 atoms.
!
 $contrl scftyp=rhf runtyp=optimize nzvar=0
  maxit=200 icharg=0 $end
 $system mwords=50 $end
 $basis gbasis=pm3 $end
 $statpt nstep=200 $end
 $guess guess=huckel $end
 $data
VM2 Rank=13     G=54.637            E=31.871            -TS=22.765              
C1
C    6.0       19.4757899145       18.9992222994       19.3252001650
H    1.0       18.5801313385       18.5033555177       19.7199776192
H    1.0       19.2924533288       20.0815227933       19.3149336630
H    1.0       19.6031710896       18.6717883214       18.2852257037
C    6.0       20.7313020267       18.6550998592       20.1592408288
H    1.0       21.6147783895       19.0923138000       19.6731230923
H    1.0       20.8868777464       17.5669932697       20.1606420943
C    6.0       20.6523111385       19.1719786095       21.6149129714
H    1.0       21.6078281083       18.9665800363       22.1142330393
H    1.0       20.5275939739       20.2628277055       21.6116867812
C    6.0       19.5025355198       18.5221623984       22.4147640938
H    1.0       19.6401117223       17.4385564932       22.4484582495
H    1.0       18.5563118256       18.7275082275       21.9085357548
N    7.0       19.3640745890       19.0218122065       23.8437543450
H    1.0       18.4813507805       18.6713415804       24.2477181293
H    1.0       19.2703538504       20.0488446954       23.8557170663
C    6.0       20.5399868115       18.5737246269       24.7051275961
H    1.0       20.6025659125       17.4835318058       24.6890165728
H    1.0       21.4630069507       19.0035603495       24.3113029932
H    1.0       20.3841798090       18.9179923870       25.7299037545
 $end
$$$$
! Edit this basic GAMESS input file as needed.
! Conformer was generated by a VeraChem VCPack run 
! and contains     20 atoms.
!
 $contrl scftyp=rhf runtyp=optimize nzvar=0
  maxit=200 icharg=0 $end
 $system mwords=50 $end
 $basis gbasis=pm3 $end
 $statpt nstep=200 $end
 $guess guess=huckel $end
 $data
VM2 Rank=14     G=54.997            E=32.224            -TS=22.773              
C1
C    6.0       20.9019117495       18.3884395356       19.8179311340
H    1.0       20.2891635361       17.6309606292       19.3121280472
H    1.0       21.6445313257       18.7536795256       19.0967541558
H    1.0       21.4472254915       17.8984059486       20.6343272173
C    6.0       20.0288879695       19.5548912676       20.3350280820
H    1.0       19.5780390382       20.0714180251       19.4759929254
H    1.0       20.6639414844       20.2984673286       20.8354395449
C    6.0       18.8982194988       19.0913875500       21.2872622651
H    1.0       18.3011977450       19.9601708023       21.5947133960
H    1.0       18.2143232814       18.4292252580       20.7399123162
C    6.0       19.4003467870       18.3504284866       22.5441693287
H    1.0       19.9567909657       17.4581353475       22.2476067574
H    1.0       18.5435617999       18.0316414138       23.1431962087
N    7.0       20.2984673579       19.1871897318       23.4351314332
H    1.0       19.8052432046       20.0421065788       23.7347064243
H    1.0       21.1178450322       19.5141467935       22.9020201544
C    6.0       20.7381666374       18.3716634284       24.6434777569
H    1.0       21.3844509254       18.9854461983       25.2747913598
H    1.0       19.8564692522       18.0631547301       25.2093376206
H    1.0       21.2857217198       17.4902214867       24.3028859157
 $end
$$$$
! Edit this basic GAMESS input file as needed.
! Conformer was generated by a VeraChem VCPack run 
! and contains     20 atoms.
!
 $contrl scftyp=rhf runtyp=optimize nzvar=0
  maxit=200 icharg=0 $end
 $system mwords=50 $end
 $basis gbasis=pm3 $end
 $statpt nstep=200 $end
 $guess guess=huckel $end
 $data
VM2 Rank=15     G=55.103            E=32.330            -TS=22.772              
C1
C    6.0       20.5663620488       18.0554064988       19.8039403429
H    1.0       21.0175173687       17.4720202456       20.6164187942
H    1.0       20.2269282019       17.3469564806       19.0372183409
H    1.0       21.3488492108       18.6822506170       19.3568926869
C    6.0       19.3850837510       18.9160461655       20.3079735543
H    1.0       18.6166284442       18.2670262514       20.7494020268
H    1.0       18.9085211501       19.4069740526       19.4478090012
C    6.0       19.8155967047       20.0017374480       21.3257792720
H    1.0       20.5049734018       20.7022733670       20.8361127862
H    1.0       18.9386825425       20.5927874628       21.6214568102
C    6.0       20.4992826991       19.4409605225       22.5903214075
H    1.0       20.7982907783       20.2690812327       23.2378929400
H    1.0       21.3995012675       18.8897984621       22.3082015009
N    7.0       19.6194828294       18.5134719891       23.4066040605
H    1.0       19.3097276737       17.7200631467       22.8260502281
H    1.0       18.7560751961       19.0010427406       23.6906804142
C    6.0       20.3801919669       18.0163773761       24.6283813628
H    1.0       21.2714509428       17.4760042403       24.3021709046
H    1.0       20.6705750274       18.8708303296       25.2434847732
H    1.0       19.7358603792       17.3494854025       25.2054947750
 $end
$$$$
! Edit this basic GAMESS input file as needed.
! Conformer was generated by a VeraChem VCPack run 
! and contains     20 atoms.
!
 $contrl scftyp=rhf runtyp=optimize nzvar=0
  maxit=200 icharg=0 $end
 $system mwords=50 $end
 $basis gbasis=pm3 $end
 $statpt nstep=200 $end
 $guess guess=huckel $end
 $data
VM2 Rank=16     G=55.225            E=32.217            -TS=23.008              
C1
C    6.0       19.2818591114       18.9367148076       19.6798736703
H    1.0       19.7311622671       19.7797629724       19.1390835680
H    1.0       18.8404745963       18.2600637385       18.9367121644
H    1.0       18.4645117195       19.3249423021       20.3003564202
C    6.0       20.3394407314       18.1942857478       20.5286746261
H    1.0       21.0872732188       17.7488896204       19.8576589761
H    1.0       19.8681227806       17.3540869511       21.0565822677
C    6.0       21.0637775544       19.1175927786       21.5396809341
H    1.0       21.8259338813       18.5403505579       22.0788110667
H    1.0       21.6084635789       19.8968782988       20.9905308810
C    6.0       20.1198489466       19.8006921809       22.5555092854
H    1.0       19.4246855740       20.4480178404       22.0153280742
H    1.0       20.7043749380       20.4295106123       23.2317742290
N    7.0       19.2900590380       18.8525608065       23.4074609503
H    1.0       18.7327088088       18.2313727114       22.8028205191
H    1.0       18.5965988741       19.3914459356       23.9494676676
C    6.0       20.1710146181       18.0421536786       24.3518005337
H    1.0       19.5387063218       17.3983766960       24.9671416857
H    1.0       20.8596062101       17.4288472468       23.7672614883
H    1.0       20.7345763685       18.7244786635       24.9916939572
 $end
$$$$
! Edit this basic GAMESS input file as needed.
! Conformer was generated by a VeraChem VCPack run 
! and contains     20 atoms.
!
 $contrl scftyp=rhf runtyp=optimize nzvar=0
  maxit=200 icharg=0 $end
 $system mwords=50 $end
 $basis gbasis=pm3 $end
 $statpt nstep=200 $end
 $guess guess=huckel $end
 $data
VM2 Rank=17     G=55.226            E=32.218            -TS=23.008              
C1
C    6.0       20.0370460552       19.6845027759       19.7114963647
H    1.0       19.6303336409       20.4793145351       20.3491763376
H    1.0       20.7484094389       20.1492749470       19.0165758178
H    1.0       19.2135756648       19.2673043865       19.1174424734
C    6.0       20.7334374134       18.5844235028       20.5451669484
H    1.0       21.5547723850       19.0241925692       21.1272107091
H    1.0       21.2000673316       17.8605860833       19.8623718922
C    6.0       19.7617723567       17.8283671999       21.4851358469
H    1.0       19.0015304902       17.3155492500       20.8813269868
H    1.0       20.3088562583       17.0381561176       22.0152473359
C    6.0       19.0448546283       18.7362324060       22.5104861840
H    1.0       18.3828169525       18.1306986916       23.1345475308
H    1.0       18.4271825114       19.4603027903       21.9735674350
N    7.0       19.9635577247       19.5194133129       23.4356546217
H    1.0       19.4085188978       20.1953887249       23.9834169738
H    1.0       20.6147531351       20.0948157763       22.8816161947