$$$$
! Edit this basic GAMESS input file as needed.
! Conformer was generated by a VeraChem VCPack run 
! and contains     22 atoms.
!
 $contrl scftyp=rhf runtyp=optimize nzvar=0
  maxit=200 icharg=0 $end
 $system mwords=50 $end
 $basis gbasis=pm3 $end
 $statpt nstep=200 $end
 $guess guess=huckel $end
 $data
VM2 Rank=1      G=-16.998           E=-36.566           -TS=19.568              
C1
C    6.0       19.8314360920       19.1340983047       26.1874722794
O    8.0       20.0587432905       20.2372457611       26.6433547125
O    8.0       20.1744729171       18.0998502213       26.7251413914
C    6.0       19.0946144557       19.0432561732       24.8559110036
H    1.0       18.3979669600       19.8879278403       24.7936708196
H    1.0       18.4928852323       18.1264389237       24.8613228243
C    6.0       20.0506092350       19.0479853977       23.6376735831
H    1.0       20.6548417387       19.9657027278       23.6541240439
H    1.0       20.7496387274       18.2042576996       23.7216728097
C    6.0       19.2807848742       18.9553695061       22.3025049840
H    1.0       18.5820942646       19.7995067861       22.2222724537
H    1.0       18.6768439711       18.0376175046       22.2898453647
C    6.0       20.2363076687       18.9602525805       21.0899709738
H    1.0       20.8405345625       19.8777947143       21.1023463758
H    1.0       20.9350934063       18.1161819862       21.1697783731
C    6.0       19.4676616931       18.8679027818       19.7551595014
H    1.0       18.7689630634       19.7118061076       19.6707579092
H    1.0       18.8634998620       17.9502015215       19.7381955647
C    6.0       20.4253697738       18.8730392737       18.5468115709
H    1.0       21.0205446313       19.7952757633       18.5212511373
H    1.0       19.8624298961       18.8068320767       17.6067018480
H    1.0       21.1157980784       18.0204443824       18.5892079852
 $end
$$$$
! Edit this basic GAMESS input file as needed.
! Conformer was generated by a VeraChem VCPack run 
! and contains     22 atoms.
!
 $contrl scftyp=rhf runtyp=optimize nzvar=0
  maxit=200 icharg=0 $end
 $system mwords=50 $end
 $basis gbasis=pm3 $end
 $statpt nstep=200 $end
 $guess guess=huckel $end
 $data
VM2 Rank=2      G=-16.190           E=-35.867           -TS=19.677              
C1
C    6.0       19.7290088584       18.8549106380       25.9655550593
O    8.0       19.2129487945       19.6429604388       26.7331485950
O    8.0       20.5231954318       18.0021776149       26.3099660695
C    6.0       19.3783216494       18.9569669535       24.4854261383
H    1.0       18.3434483784       19.3104219338       24.4046013524
H    1.0       19.4107593856       17.9455686449       24.0649466460
C    6.0       20.3292799083       19.9034247174       23.7075904102
H    1.0       20.3430672413       20.8803852503       24.2103824691
H    1.0       21.3556940806       19.5144600630       23.7576949032
C    6.0       19.9206959586       20.1121719770       22.2299969753
H    1.0       20.5734784844       20.8803734011       21.7932720872
H    1.0       18.8978802173       20.5105649656       22.1838918289
C    6.0       20.0179715522       18.8259213943       21.3776060072
H    1.0       21.0268715552       18.4006923463       21.4681904886
H    1.0       19.3162783386       18.0712728653       21.7558593754
C    6.0       19.7076187108       19.1023596269       19.8914533544
H    1.0       20.4099839293       19.8505885058       19.4986812453
H    1.0       18.6997366406       19.5298301568       19.7970811474
C    6.0       19.8009591360       17.8181066393       19.0432573907
H    1.0       19.0854351776       17.0628391811       19.3939558922
H    1.0       20.8088089386       17.3857201589       19.0949616548
H    1.0       19.5779439282       18.0329873813       17.9900892343
 $end
$$$$
! Edit this basic GAMESS input file as needed.
! Conformer was generated by a VeraChem VCPack run 
! and contains     22 atoms.
!
 $contrl scftyp=rhf runtyp=optimize nzvar=0
  maxit=200 icharg=0 $end
 $system mwords=50 $end
 $basis gbasis=pm3 $end
 $statpt nstep=200 $end
 $guess guess=huckel $end
 $data
VM2 Rank=3      G=-16.125           E=-35.802           -TS=19.677              
C1
C    6.0       20.1334304479       19.1302487976       25.9559582079
O    8.0       19.6137670862       19.9158249568       26.7236558962
O    8.0       20.6479353633       18.0869140177       26.3070150199
C    6.0       20.1189012156       19.4613437951       24.4678913453
H    1.0       21.0340827228       19.0510606087       24.0264255309
H    1.0       20.1662446066       20.5516960369       24.3615176836
C    6.0       18.8654286668       18.9068744898       23.7422863953
H    1.0       18.8531448931       17.8107007293       23.8170053513
H    1.0       17.9680265579       19.2634500402       24.2666596426
C    6.0       18.7730138139       19.3308713222       22.2572004621
H    1.0       18.7754833509       20.4272425254       22.1867833363
H    1.0       17.8054428166       18.9959896849       21.8588930821
C    6.0       19.9060040826       18.7496900197       21.3802529123
H    1.0       20.8769997267       19.1336635944       21.7188891892
H    1.0       19.9349600346       17.6573871181       21.4940116153
C    6.0       19.7144656392       19.1070653402       19.8913016577
H    1.0       19.6830903940       20.1991639476       19.7738263715
H    1.0       18.7486558907       18.7199324338       19.5380702518
C    6.0       20.8470536846       18.5301672609       19.0184381033
H    1.0       21.8228724679       18.9259925919       19.3290736416
H    1.0       20.6948202419       18.7932816024       17.9636063055
H    1.0       20.8815948196       17.4353527760       19.0931537293
 $end
$$$$
! Edit this basic GAMESS input file as needed.
! Conformer was generated by a VeraChem VCPack run 
! and contains     22 atoms.
!
 $contrl scftyp=rhf runtyp=optimize nzvar=0
  maxit=200 icharg=0 $end
 $system mwords=50 $end
 $basis gbasis=pm3 $end
 $statpt nstep=200 $end
 $guess guess=huckel $end
 $data
VM2 Rank=4      G=-16.120           E=-35.794           -TS=19.673              
C1
C    6.0       19.9961375301       19.0328147016       25.9874446370
O    8.0       20.3223764105       20.0799999662       26.5103614992
O    8.0       20.4207300031       17.9476405406       26.3317895030
C    6.0       19.0154580881       19.0852736157       24.8213227035
H    1.0       18.3317676623       19.9261493870       24.9889902594
H    1.0       18.4134351915       18.1688473453       24.8408349108
C    6.0       19.7191220506       19.2327413359       23.4496803562
H    1.0       20.3245393210       20.1496780781       23.4494195479
H    1.0       20.4115993570       18.3915515989       23.3142419080
C    6.0       18.7021906457       19.2786733192       22.2857210867
H    1.0       17.9735714677       20.0776872591       22.4797609609
H    1.0       18.1326684383       18.3397372509       22.2536027524
C    6.0       19.3549594798       19.5356517856       20.9068048408
H    1.0       18.5570140314       19.6777487298       20.1651736219
H    1.0       19.9214668425       20.4764321411       20.9373445889
C    6.0       20.2767267752       18.3874699498       20.4374320873
H    1.0       19.7250126244       17.4375112669       20.4573047756
H    1.0       21.1264169554       18.2793375089       21.1242308303
C    6.0       20.8122990169       18.6387347853       19.0134432863
H    1.0       21.4672201011       17.8169264326       18.6959868477
H    1.0       21.3921210461       19.5700705571       18.9709591998
H    1.0       19.9889375752       18.7139806769       18.2911061284
 $end
$$$$
! Edit this basic GAMESS input file as needed.
! Conformer was generated by a VeraChem VCPack run 
! and contains     22 atoms.
!
 $contrl scftyp=rhf runtyp=optimize nzvar=0
  maxit=200 icharg=0 $end
 $system mwords=50 $end
 $basis gbasis=pm3 $end
 $statpt nstep=200 $end
 $guess guess=huckel $end
 $data
VM2 Rank=5      G=-16.088           E=-35.761           -TS=19.674              
C1
C    6.0       19.6002022044       19.0277014357       25.9802360832
O    8.0       19.2277984854       20.0659142999       26.4900422863
O    8.0       19.1925322301       17.9316719479       26.3103560585
C    6.0       20.6207055517       19.1060100858       24.8502939209
H    1.0       21.2451643598       18.2054761455       24.8920249476
H    1.0       21.2758771423       19.9642455422       25.0421220128
C    6.0       19.9634914190       19.2357667689       23.4540396600
H    1.0       19.2983970336       18.3769664250       23.2941028437
H    1.0       19.3349175104       20.1367039126       23.4314276010
C    6.0       21.0202846464       19.3085345747       22.3275576928
H    1.0       21.6146604599       18.3846393097       22.3164401520
H    1.0       21.7205353920       20.1260062338       22.5474439726
C    6.0       20.4113349434       19.5492675693       20.9258489039
H    1.0       19.8200929402       20.4751578065       20.9354754333
H    1.0       21.2316173676       19.7121747505       20.2134406596
C    6.0       19.5369342977       18.3779874054       20.4240408402
H    1.0       18.6661141936       18.2476645571       21.0798208448
H    1.0       20.1118430017       17.4425318522       20.4641599001
C    6.0       19.0467162218       18.6161459124       18.9815845543
H    1.0       18.4450453741       19.5322890480       18.9178700872
H    1.0       18.4250002682       17.7779400707       18.6410735282
H    1.0       19.8933543626       18.7129180384       18.2893456352
 $end
$$$$
! Edit this basic GAMESS input file as needed.
! Conformer was generated by a VeraChem VCPack run 
! and contains     22 atoms.
!
 $contrl scftyp=rhf runtyp=optimize nzvar=0
  maxit=200 icharg=0 $end
 $system mwords=50 $end
 $basis gbasis=pm3 $end
 $statpt nstep=200 $end
 $guess guess=huckel $end
 $data
VM2 Rank=6      G=-16.036           E=-35.714           -TS=19.677              
C1
C    6.0       19.7328523190       19.2232739083       26.0947218312
O    8.0       20.1387779176       20.2914556332       26.5078355647
O    8.0       19.7906374088       18.1896808835       26.7309633765
C    6.0       19.1378574225       19.1728991139       24.6919918555
H    1.0       18.6461702340       20.1333095206       24.4957485339
H    1.0       18.3586613894       18.4013095606       24.6798252902
C    6.0       20.1959637447       18.8811009029       23.5995550869
H    1.0       20.9751652901       19.6552324650       23.6329352611
H    1.0       20.6881180467       17.9232408342       23.8181862617
C    6.0       19.5686830630       18.8351093135       22.1893245084
H    1.0       19.0739800795       19.7934261549       21.9842288636
H    1.0       18.7917627432       18.0590365437       22.1583261010
C    6.0       20.6295457663       18.5473344053       21.1021167011
H    1.0       21.3807623255       19.3489440179       21.0964065467
H    1.0       21.1634969205       17.6224071007       21.3596830172
C    6.0       20.0306642705       18.3899232403       19.6851225721
H    1.0       19.2832573241       17.5845074547       19.6854402463
H    1.0       20.8279662984       18.0729136660       18.9987900420
C    6.0       19.3950180876       19.6882225992       19.1423685036
H    1.0       18.5177118494       19.9818831386       19.7321149002
H    1.0       19.0659489032       19.5495386735       18.1043901721
H    1.0       20.1157601030       20.5160704954       19.1606491819
 $end
$$$$
! Edit this basic GAMESS input file as needed.
! Conformer was generated by a VeraChem VCPack run 
! and contains     22 atoms.
!
 $contrl scftyp=rhf runtyp=optimize nzvar=0
  maxit=200 icharg=0 $end
 $system mwords=50 $end
 $basis gbasis=pm3 $end
 $statpt nstep=200 $end
 $guess guess=huckel $end
 $data
VM2 Rank=7      G=-16.003           E=-35.680           -TS=19.677              
C1
C    6.0       19.7434570635       19.0279097676       26.1022153009
O    8.0       19.6870847690       20.1073161801       26.6573375393
O    8.0       20.2602556348       18.0443285198       26.5940868879
C    6.0       19.1522605593       18.9066012830       24.7022220529
H    1.0       18.2944734838       19.5864904181       24.6344307892
H    1.0       18.7677995509       17.8866153630       24.5819160537
C    6.0       20.1772123461       19.2265210432       23.5863031869
H    1.0       20.5622926208       20.2457529203       23.7290997682
H    1.0       21.0352111156       18.5457597350       23.6754655291
C    6.0       19.5544515470       19.0967632133       22.1792931383
H    1.0       18.6985079454       19.7798834233       22.0923334788
H    1.0       19.1668292234       18.0778390251       22.0500261420
C    6.0       20.5825827695       19.4133948158       21.0689095475
H    1.0       21.0125702230       20.4074815875       21.2528581464
H    1.0       21.4159063359       18.6994226753       21.1213568414
C    6.0       19.9761052080       19.3965653700       19.6465149816
H    1.0       20.7373737614       19.7444505613       18.9346989344
H    1.0       19.1461293725       20.1142507171       19.5884031374
C    6.0       19.4865901028       17.9995998072       19.2071173647
H    1.0       20.2924014556       17.2582215911       19.2856153745
H    1.0       19.1488159018       18.0222701753       18.1629360254
H    1.0       18.6436535634       17.6588566853       19.8211664456
 $end
$$$$
! Edit this basic GAMESS input file as needed.
! Conformer was generated by a VeraChem VCPack run 
! and contains     22 atoms.
!
 $contrl scftyp=rhf runtyp=optimize nzvar=0
  maxit=200 icharg=0 $end
 $system mwords=50 $end
 $basis gbasis=pm3 $end
 $statpt nstep=200 $end
 $guess guess=huckel $end
 $data
VM2 Rank=8      G=-15.555           E=-35.435           -TS=19.880              
C1
C    6.0       19.9959529539       19.0180741429       25.8023067398
O    8.0       20.5946472347       19.9817661966       26.2379268674
O    8.0       20.3756965550       17.8719605373       25.9401921961
C    6.0       18.6863141211       19.2616978664       25.0575758628
H    1.0       18.1021163087       19.9779633504       25.6472512296
H    1.0       18.1150188037       18.3256663530       25.0383356574
C    6.0       18.8715166518       19.8057692813       23.6172008058
H    1.0       17.8886763787       20.0804906240       23.2108819536
H    1.0       19.4689489792       20.7275216045       23.6503533054
C    6.0       19.5430969500       18.7803479529       22.6764168910
H    1.0       18.9492372464       17.8562425407       22.6570565977
H    1.0       20.5347072164       18.5133743738       23.0673677485
C    6.0       19.6887104377       19.3307995423       21.2414083104
H    1.0       18.6980559396       19.5958244577       20.8471702538
H    1.0       20.2826889367       20.2548619054       21.2615993481
C    6.0       20.3600077380       18.3076253454       20.3014524153
H    1.0       19.7677639907       17.3823485826       20.2775165711
H    1.0       21.3522087606       18.0415756134       20.6916550006
C    6.0       20.5040573578       18.8609591349       18.8695199114
H    1.0       19.5227148187       19.1061460493       18.4426165644
H    1.0       20.9830004610       18.1209888158       18.2151942130
H    1.0       21.1190845427       19.7703818453       18.8599078056
 $end
$$$$
! Edit this basic GAMESS input file as needed.
! Conformer was generated by a VeraChem VCPack run 
! and contains     22 atoms.
!
 $contrl scftyp=rhf runtyp=optimize nzvar=0
  maxit=200 icharg=0 $end
 $system mwords=50 $end
 $basis gbasis=pm3 $end
 $statpt nstep=200 $end
 $guess guess=huckel $end
 $data
VM2 Rank=9      G=-15.525           E=-35.405           -TS=19.880              
C1
C    6.0       19.5406625601       19.1475251681       25.7848725198
O    8.0       19.5086745951       20.2904708175       26.1966382357
O    8.0       18.6068659621       18.3748134865       25.8728158684
C    6.0       20.8316736699       18.6517667409       25.1393954380
H    1.0       20.8256660443       17.5550151570       25.1416950150
H    1.0       21.6617679100       18.9659135089       25.7830540217
C    6.0       21.0620542636       19.1830301890       23.7007605615
H    1.0       21.0374490248       20.2816467774       23.7102083431
H    1.0       22.0684110135       18.8921704018       23.3703233439
C    6.0       20.0201440768       18.6448288122       22.6946069841
H    1.0       19.0115272051       18.9467238940       23.0091862140
H    1.0       20.0393887112       17.5463627012       22.6987399575
C    6.0       20.2871651671       19.1606257343       21.2641866477
H    1.0       20.2677803812       20.2591350169       21.2608716792
H    1.0       21.2941621084       18.8574669009       20.9462068096
C    6.0       19.2465639624       18.6242381919       20.2589600230
H    1.0       18.2380074601       18.9272714546       20.5727871842
H    1.0       19.2640892714       17.5255317786       20.2584092492
C    6.0       19.5161957429       19.1417008597       18.8317637217
H    1.0       19.4733729008       20.2382193873       18.7969346066
H    1.0       18.7673720108       18.7508465411       18.1306359897
H    1.0       20.5071702787       18.8258994855       18.4801456159
 $end
$$$$
! Edit this basic GAMESS input file as needed.
! Conformer was generated by a VeraChem VCPack run 
! and contains     22 atoms.
!
 $contrl scftyp=rhf runtyp=optimize nzvar=0
  maxit=200 icharg=0 $end
 $system mwords=50 $end
 $basis gbasis=pm3 $end
 $statpt nstep=200 $end
 $guess guess=huckel $end
 $data
VM2 Rank=10     G=-15.221           E=-35.031           -TS=19.810              
C1
C    6.0       19.5828369382       19.1072351618       25.9231471145
O    8.0       19.6058702059       20.2419367962       26.3572640577
O    8.0       19.7027575867       18.1182379571       26.6188961573
C    6.0       19.4170821747       18.9142744839       24.4200151311
H    1.0       18.7803076067       19.7247663054       24.0478423452
H    1.0       18.8772907711       17.9741506994       24.2550157117
C    6.0       20.7713568447       18.8930030090       23.6647204820
H    1.0       21.2833567076       19.8553804806       23.8024279903
H    1.0       21.4177595599       18.1299441228       24.1200210944
C    6.0       20.6298042767       18.5868277298       22.1547384350
H    1.0       20.1357911876       17.6144939937       22.0286086259
H    1.0       21.6347909600       18.4852419638       21.7230541507
C    6.0       19.8553424312       19.6797208572       21.3783853325
H    1.0       18.8104172710       19.7113749216       21.7134808336
H    1.0       20.2893248877       20.6612486752       21.6128636699
C    6.0       19.8892053058       19.4802808677       19.8453324550
H    1.0       20.9307577198       19.4640605216       19.4957916688
H    1.0       19.4146830501       20.3476369688       19.3660325482
C    6.0       19.1657442362       18.1974831372       19.3815008348
H    1.0       19.1436283656       18.1441140870       18.2853461915
H    1.0       18.1289833991       18.1790607438       19.7419357462
H    1.0       19.6738969847       17.2967236084       19.7478768194
 $end
$$$$
! Edit this basic GAMESS input file as needed.
! Conformer was generated by a VeraChem VCPack run 
! and contains     22 atoms.
!
 $contrl scftyp=rhf runtyp=optimize nzvar=0
  maxit=200 icharg=0 $end
 $system mwords=50 $end
 $basis gbasis=pm3 $end
 $statpt nstep=200 $end
 $guess guess=huckel $end
 $data
VM2 Rank=11     G=-15.190           E=-35.274           -TS=20.084              
C1
C    6.0       19.8253815177       19.1168246352       26.2070042586
O    8.0       20.5309968436       20.1067500502       26.2305828539
O    8.0       19.4085783933       18.5751697592       27.2113980515
C    6.0       19.4266831143       18.5007362312       24.8649904893
H    1.0       18.3311808117       18.4811178856       24.8267898299
H    1.0       19.7663606277       17.4583532534       24.8699364683
C    6.0       19.9821686359       19.2273429185       23.6112414128
H    1.0       19.6433071576       20.2726379317       23.6157318386
H    1.0       21.0797872591       19.2487888525       23.6588127179
C    6.0       19.5321703374       18.5409492577       22.3032361499
H    1.0       18.4345962495       18.5206955369       22.2579469658
H    1.0       19.8719355287       17.4961118666       22.3011136841
C    6.0       20.0858853710       19.2652330379       21.0573949480
H    1.0       19.7464220216       20.3101677547       21.0591050911
H    1.0       21.1834727170       19.2857063280       21.1022274221
C    6.0       19.6365336152       18.5798795451       19.7499257334
H    1.0       18.5389822943       18.5593740956       19.7005669510
H    1.0       19.9760486540       17.5348117177       19.7437288867
C    6.0       20.1916021716       19.3061145651       18.5082261027
H    1.0       19.8416393931       20.3461365080       18.4723328638
H    1.0       19.8625353737       18.8058645284       17.5881408159
H    1.0       21.2894597109       19.3138370430       18.5157822626
 $end
$$$$
! Edit this basic GAMESS input file as needed.
! Conformer was generated by a VeraChem VCPack run 
! and contains     22 atoms.
!
 $contrl scftyp=rhf runtyp=optimize nzvar=0
  maxit=200 icharg=0 $end
 $system mwords=50 $end
 $basis gbasis=pm3 $end
 $statpt nstep=200 $end
 $guess guess=huckel $end
 $data
VM2 Rank=12     G=-15.190           E=-34.925           -TS=19.735              
C1
C    6.0       19.7289942082       19.2105305856       25.9882482822
O    8.0       20.0549107221       20.3278522671       26.3373925203
O    8.0       19.7207484939       18.2491462558       26.7313733254
C    6.0       19.3301009229       18.9984477205       24.5321595057
H    1.0       18.8410471049       19.9152251473       24.1845835202
H    1.0       18.5824577156       18.1970355644       24.4977675824
C    6.0       20.5373194928       18.6431957343       23.6254991633
H    1.0       21.2567106804       19.4737140904       23.6289985749
H    1.0       21.0596595070       17.7792239588       24.0592757931
C    6.0       20.1408200900       18.3005845698       22.1694332033
H    1.0       19.4155167746       17.4755970716       22.1699953546
H    1.0       21.0348400397       17.9288514105       21.6528392572
C    6.0       19.5605906668       19.5062296378       21.3898357621
H    1.0       18.6646378449       19.8769435433       21.9035663370
H    1.0       20.2851942258       20.3318510576       21.3910460176
C    6.0       19.1687784739       19.1644481468       19.9332031059
H    1.0       18.6442604162       20.0267889145       19.4990426841
H    1.0       18.4527260116       18.3310661495       19.9270822833
C    6.0       20.3777369294       18.8185650822       19.0368551318
H    1.0       21.1235838235       19.6238648303       19.0550304588
H    1.0       20.0562322989       18.6795711291       17.9965510596
H    1.0       20.8647446849       17.8901001687       19.3596562360
 $end
$$$$
! Edit this basic GAMESS input file as needed.
! Conformer was generated by a VeraChem VCPack run 
! and contains     22 atoms.
!
 $contrl scftyp=rhf runtyp=optimize nzvar=0
  maxit=200 icharg=0 $end
 $system mwords=50 $end
 $basis gbasis=pm3 $end
 $statpt nstep=200 $end
 $guess guess=huckel $end
 $data
VM2 Rank=13     G=-15.188           E=-34.998           -TS=19.810              
C1
C    6.0       19.5824916351       19.1134561790       25.9229030385
O    8.0       19.5920688663       20.1598988060       26.5405019211
O    8.0       19.7261242970       18.0244036405       26.4423944515
C    6.0       19.4030409114       19.1719139397       24.4101258085
H    1.0       18.7650288463       20.0324869753       24.1760618945
H    1.0       18.8596206706       18.2710178618       24.1035773294
C    6.0       20.7501373036       19.2823983546       23.6497927661
H    1.0       21.3079443972       20.1436683149       24.0428055099
H    1.0       21.3630384355       18.3946542016       23.8584569832
C    6.0       20.5824784044       19.4551923175       22.1214410575
H    1.0       21.5722849007       19.6320480362       21.6790883482
H    1.0       19.9863315688       20.3556430378       21.9234810025
C    6.0       19.9345243294       18.2285873566       21.4340391941
H    1.0       20.4715641083       17.3207858846       21.7409649734
H    1.0       18.8978330390       18.1093097635       21.7749270661
C    6.0       19.9529089593       18.3128922933       19.8901064999
H    1.0       19.5774999298       17.3650425242       19.4804071705
H    1.0       20.9879755038       18.4155133184       19.5360196821
C    6.0       19.0962252935       19.4702571127       19.3326952627
H    1.0       19.5018864658       20.4462493162       19.6271359053
H    1.0       18.0621025652       19.4033094131       19.6949546560
H    1.0       19.0730429540       19.4370729120       18.2357653102
 $end
$$$$
! Edit this basic GAMESS input file as needed.
! Conformer was generated by a VeraChem VCPack run 
! and contains     22 atoms.
!
 $contrl scftyp=rhf runtyp=optimize nzvar=0
  maxit=200 icharg=0 $end
 $system mwords=50 $end
 $basis gbasis=pm3 $end
 $statpt nstep=200 $end
 $guess guess=huckel $end
 $data
VM2 Rank=14     G=-15.162           E=-34.896           -TS=19.735              
C1
C    6.0       19.7386363577       19.0320141727       25.9950737719
O    8.0       19.6238983028       20.0408358172       26.6626641012
O    8.0       20.1814821709       17.9861963237       26.4271457574
C    6.0       19.3252526170       19.0881558270       24.5287025749
H    1.0       18.4958408356       19.7994601853       24.4363066644
H    1.0       18.9391609829       18.1002195321       24.2541524925
C    6.0       20.4909640135       19.5010201524       23.5926076819
H    1.0       20.9154482896       20.4467965642       23.9569796317
H    1.0       21.2955637117       18.7554866144       23.6565859902
C    6.0       20.0659546445       19.6867277418       22.1162601764
H    1.0       20.9169481916       20.1118791407       21.5690997655
H    1.0       19.2561427275       20.4265465052       22.0567581505
C    6.0       19.6219783832       18.3696478202       21.4334688084
H    1.0       20.4311550283       17.6292602360       21.4947854705
H    1.0       18.7689683125       17.9450783774       21.9777049235
C    6.0       19.2017036996       18.5549897232       19.9566058361
H    1.0       18.4001873833       19.3035853170       19.8897736836
H    1.0       18.7747915738       17.6105911468       19.5917745972
C    6.0       20.3701298108       18.9594124218       19.0314712917
H    1.0       20.0398356523       18.9831249265       17.9849245954
H    1.0       21.1981920440       18.2427725573       19.1080406034
H    1.0       20.7531015986       19.9568096572       19.2803783971
 $end
$$$$
! Edit this basic GAMESS input file as needed.
! Conformer was generated by a VeraChem VCPack run 
! and contains     22 atoms.
!
 $contrl scftyp=rhf runtyp=optimize nzvar=0
  maxit=200 icharg=0 $end
 $system mwords=50 $end
 $basis gbasis=pm3 $end
 $statpt nstep=200 $end
 $guess guess=huckel $end
 $data
VM2 Rank=15     G=-15.086           E=-35.091           -TS=20.005              
C1
C    6.0       19.9221360317       18.7599844957       25.6882469034
O    8.0       19.5010942997       19.3874975437       26.6398735965
O    8.0       20.8464641757       17.9741761477       25.7564381127
C    6.0       19.2688732433       18.9880109314       24.3298750851
H    1.0       18.2113056344       19.2256172596       24.4953569439
H    1.0       19.3082315106       18.0418308964       23.7781877159
C    6.0       19.9510647798       20.1196173483       23.5183613035
H    1.0       19.9764705612       21.0291723627       24.1342448249
H    1.0       20.9992875313       19.8539874292       23.3275375469
C    6.0       19.2314041125       20.4468659329       22.1856801076
H    1.0       19.7598976959       21.2746983306       21.6935813200
H    1.0       18.2233109444       20.8217128542       22.4092868806
C    6.0       19.1123301401       19.2658996691       21.1896863570
H    1.0       18.4907482219       18.4709056823       21.6219659180
H    1.0       18.5762030008       19.6190018486       20.2982546560
C    6.0       20.4766351300       18.6840532713       20.7562562890
H    1.0       20.9952879919       18.2538604918       21.6233701590
H    1.0       21.1154460740       19.4882464709       20.3660315014
C    6.0       20.3099980871       17.5928946599       19.6795822451
H    1.0       19.6972365663       16.7625603044       20.0543057022
H    1.0       21.2868323464       17.1875254500       19.3854929303
H    1.0       19.8266558670       17.9977372969       18.7808104269
 $end
$$$$
! Edit this basic GAMESS input file as needed.
! Conformer was generated by a VeraChem VCPack run 
! and contains     22 atoms.
!
 $contrl scftyp=rhf runtyp=optimize nzvar=0
  maxit=200 icharg=0 $end
 $system mwords=50 $end
 $basis gbasis=pm3 $end
 $statpt nstep=200 $end
 $guess guess=huckel $end
 $data
VM2 Rank=16     G=-15.021           E=-34.995           -TS=19.974              
C1
C    6.0       19.9998293901       18.9456679536       25.8522449860
O    8.0       20.0428436225       19.9723782599       26.5007467578
O    8.0       20.6759781578       17.9662331389       26.0972206366
C    6.0       19.0586565184       18.8898248384       24.6541608469
H    1.0       18.1790891167       19.5033646274       24.8832499508
H    1.0       18.7122210688       17.8555434516       24.5406491301
C    6.0       19.7239700998       19.3764573060       23.3431700272
H    1.0       20.0734957890       20.4097481157       23.4747047477
H    1.0       20.6110698172       18.7601933124       23.1454991328
C    6.0       18.7503767223       19.3034245255       22.1442840138
H    1.0       17.8371660146       19.8615584257       22.3918046956
H    1.0       18.4370089124       18.2635996359       21.9832131962