$$$$
! Edit this basic GAMESS input file as needed.
! Conformer was generated by a VeraChem VCPack run 
! and contains     19 atoms.
!
 $contrl scftyp=rhf runtyp=optimize nzvar=0
  maxit=200 icharg=0 $end
 $system mwords=50 $end
 $basis gbasis=pm3 $end
 $statpt nstep=200 $end
 $guess guess=huckel $end
 $data
VM2 Rank=1      G=-26.152           E=-40.889           -TS=14.737              
C1
C    6.0       19.9538820391       19.2770585831       25.5145004838
O    8.0       20.6501487364       18.4763276188       26.1062979008
O    8.0       19.7317709021       20.4017916319       25.9167733346
C    6.0       19.3418780975       18.8541620756       24.1837196512
H    1.0       18.3778532512       19.3654072707       24.0740510217
H    1.0       19.1346332336       17.7782378142       24.2303952969
C    6.0       20.2548906342       19.1702851866       22.9735174708
H    1.0       20.4633768204       20.2489178128       22.9482903881
H    1.0       21.2201166615       18.6616479205       23.1045831341
C    6.0       19.6127437333       18.7327756354       21.6394034024
H    1.0       18.6474970729       19.2419354180       21.5119380074
H    1.0       19.4043253598       17.6543872526       21.6682725081
C    6.0       20.5244766818       19.0488807711       20.4355795373
H    1.0       20.7336894152       20.1271218045       20.4021260073
H    1.0       21.4904657953       18.5397066502       20.5584559450
C    6.0       19.8802091755       18.6107184976       19.1052082190
H    1.0       19.6887130766       17.5296490177       19.0988104342
H    1.0       18.9262751292       19.1289528588       18.9413027195
H    1.0       20.5415210342       18.8427759346       18.2602682710
 $end
