$$$$
! Edit this basic GAMESS input file as needed.
! Conformer was generated by a VeraChem VCPack run 
! and contains     23 atoms.
!
 $contrl scftyp=rhf runtyp=optimize nzvar=0
  maxit=200 icharg=0 $end
 $system mwords=50 $end
 $basis gbasis=pm3 $end
 $statpt nstep=200 $end
 $guess guess=huckel $end
 $data
VM2 Rank=1      G=37.916            E=10.396            -TS=27.520              
C1
N    7.0       19.7414520615       18.6610087485       26.4278196112
H    1.0       20.7321493877       18.4175183066       26.5283930231
H    1.0       19.2107951000       17.7844777523       26.4591274890
H    1.0       19.4803261790       19.1972582445       27.2622918729
C    6.0       19.4763126464       19.4375820742       25.1540329492
H    1.0       20.0476434762       20.3686273830       25.2012841673
H    1.0       18.4123885299       19.6882283720       25.1268478212
C    6.0       19.8579014016       18.6596092777       23.8821339939
H    1.0       20.9232444007       18.3957976296       23.9214784606
H    1.0       19.2937245269       17.7180246377       23.8471748634
C    6.0       19.5728508599       19.4846718637       22.6076930223
H    1.0       20.1349959087       20.4281195034       22.6489411622
H    1.0       18.5071562922       19.7511536011       22.5747619848
C    6.0       19.9524817259       18.7124939727       21.3237058708
H    1.0       21.0180441786       18.4460061745       21.3564621148
H    1.0       19.3903935892       17.7691752169       21.2822600632
C    6.0       19.6673340616       19.5379390213       20.0493078146
H    1.0       20.2293957934       20.4817570149       20.0848757594
H    1.0       18.6018897571       19.8049740180       20.0106603533
C    6.0       20.0476672431       18.7636950419       18.7693067380
H    1.0       21.1162351024       18.5119951511       18.7629798035
H    1.0       19.8381643705       19.3655904131       17.8755072211
H    1.0       19.4760116888       17.8299639125       18.6881534100
 $end
