$$$$
! Edit this basic GAMESS input file as needed.
! Conformer was generated by a VeraChem VCPack run 
! and contains     22 atoms.
!
 $contrl scftyp=rhf runtyp=optimize nzvar=0
  maxit=200 icharg=0 $end
 $system mwords=50 $end
 $basis gbasis=pm3 $end
 $statpt nstep=200 $end
 $guess guess=huckel $end
 $data
VM2 Rank=1      G=47.363            E=20.694            -TS=26.668              
C1
C    6.0       19.8825345730       19.0489990378       20.9026239097
H    1.0       20.8932296788       19.1566333074       20.4858621658
H    1.0       19.2824075928       18.5760050731       20.1133721162
C    6.0       19.2916717596       20.4492620218       21.1835903580
H    1.0       19.3609898402       21.0411788459       20.2607545480
H    1.0       18.2185241173       20.3558345311       21.3989810932
C    6.0       19.9805896879       21.2344423806       22.3249312601
H    1.0       19.6223561942       22.2719652325       22.2799334609
H    1.0       21.0669445948       21.2803354308       22.1687661783
C    6.0       19.6466560920       20.6732460101       23.7282591229
H    1.0       19.7185358510       21.4904543436       24.4577389973
H    1.0       18.5973734852       20.3506541298       23.7486815106
C    6.0       20.5644139715       19.5312999131       24.2234442300
H    1.0       21.4771207596       19.9849343089       24.6358425589
C    6.0       21.0067808170       18.5018324611       23.1577945268
H    1.0       21.8883601432       18.8894291908       22.6311689832
H    1.0       21.3563772041       17.5990898421       23.6766504470
C    6.0       19.9264567759       18.1000517342       22.1234752287
H    1.0       20.1660053077       17.0930957100       21.7554890303
H    1.0       18.9370960154       18.0248428214       22.5939518949
O    8.0       19.8868963231       18.8388664412       25.2628813638
H    1.0       19.1421963723       18.3715113888       24.8326972786
 $end
$$$$
! Edit this basic GAMESS input file as needed.
! Conformer was generated by a VeraChem VCPack run 
! and contains     22 atoms.
!
 $contrl scftyp=rhf runtyp=optimize nzvar=0
  maxit=200 icharg=0 $end
 $system mwords=50 $end
 $basis gbasis=pm3 $end
 $statpt nstep=200 $end
 $guess guess=huckel $end
 $data
VM2 Rank=2      G=47.387            E=20.718            -TS=26.669              
C1
C    6.0       19.6680762532       19.0240207362       20.9215450154
H    1.0       19.9308009515       18.8838147970       19.8641354230
H    1.0       18.7047652759       18.5145853737       21.0603756181
C    6.0       19.4894182992       20.5379467137       21.1763148688
H    1.0       20.3872540050       21.0730555678       20.8381887627
H    1.0       18.6693660595       20.8979608259       20.5401556869
C    6.0       19.1809774667       20.9230981654       22.6424091848
H    1.0       18.3220446860       20.3539322370       23.0220449568
H    1.0       18.8759393885       21.9783641447       22.6535198593
C    6.0       20.4080223012       20.7691436914       23.5746127068
H    1.0       21.3173659263       21.0516881295       23.0287114510
H    1.0       20.3269836616       21.4969333673       24.3932274518
C    6.0       20.6080386506       19.3660672348       24.1930577682
H    1.0       21.6588110729       19.2969357829       24.5092671140
C    6.0       20.3091264749       18.1641451638       23.2670123156
H    1.0       20.8271187477       17.2915860914       23.6858930348
H    1.0       19.2398354150       17.9173322497       23.3013266831
C    6.0       20.7460380888       18.3355525903       21.7920524794
H    1.0       21.7033621644       18.8701531252       21.7257708565
H    1.0       20.9256176115       17.3362234292       21.3726448347
O    8.0       19.7763024654       19.2580257045       25.3399956610
H    1.0       18.8641906819       19.4247655653       25.0264585634
 $end
$$$$
! Edit this basic GAMESS input file as needed.
! Conformer was generated by a VeraChem VCPack run 
! and contains     22 atoms.
!
 $contrl scftyp=rhf runtyp=optimize nzvar=0
  maxit=200 icharg=0 $end
 $system mwords=50 $end
 $basis gbasis=pm3 $end
 $statpt nstep=200 $end
 $guess guess=huckel $end
 $data
VM2 Rank=3      G=47.470            E=20.456            -TS=27.013              
C1
C    6.0       19.9765707176       19.1865964558       21.0729425550
H    1.0       20.9200028065       19.6951173673       20.8324710425
H    1.0       19.5990590488       18.7849600614       20.1226200881
C    6.0       18.9304492549       20.1892630431       21.6112499156
H    1.0       18.4880305036       20.7247986977       20.7599476888
H    1.0       18.0964143300       19.6368629679       22.0635514108
C    6.0       19.4660253526       21.2481739781       22.6080149996
H    1.0       18.6328123760       21.5820505952       23.2417331876
H    1.0       19.7732541706       22.1365040010       22.0393245644
C    6.0       20.6595928865       20.8354385254       23.5114788392
H    1.0       21.5881228937       20.8958335576       22.9291213853
H    1.0       20.7649743330       21.5917559326       24.3000723648
C    6.0       20.5856357325       19.4459729704       24.1851933392
H    1.0       21.2554822377       19.4691242444       25.0567734559
C    6.0       21.0851505475       18.3068684902       23.2680272096
H    1.0       22.1060295558       18.5417896182       22.9398810671
H    1.0       21.1716526123       17.3942633932       23.8721077854
C    6.0       20.2185060697       17.9903782688       22.0240206645
H    1.0       20.7217301642       17.1953703881       21.4570654093
H    1.0       19.2563965445       17.5642284639       22.3390124951
O    8.0       19.2640694387       19.1753082681       24.6260724773
H    1.0       18.7216199412       19.2540728374       23.8162396981
 $end
$$$$
! Edit this basic GAMESS input file as needed.
! Conformer was generated by a VeraChem VCPack run 
! and contains     22 atoms.
!
 $contrl scftyp=rhf runtyp=optimize nzvar=0
  maxit=200 icharg=0 $end
 $system mwords=50 $end
 $basis gbasis=pm3 $end
 $statpt nstep=200 $end
 $guess guess=huckel $end
 $data
VM2 Rank=4      G=47.498            E=20.485            -TS=27.013              
C1
C    6.0       19.2811130002       18.8973993915       21.3797549100
H    1.0       19.0866991440       18.5182335757       20.3669932086
H    1.0       18.3217166549       18.8068522535       21.9057737270
C    6.0       19.6718800209       20.3897087537       21.2807463466
H    1.0       20.7219999641       20.5011109557       20.9785521332
H    1.0       19.0762017457       20.8402512225       20.4750672984
C    6.0       19.3812981869       21.1820906923       22.5775564087
H    1.0       18.3601512095       20.9706399960       22.9225551427
H    1.0       19.3954080261       22.2538930185       22.3372398425
C    6.0       20.3858590617       20.9417305038       23.7316272524
H    1.0       21.3654378330       21.3420302041       23.4396572288
H    1.0       20.0691601682       21.5379841588       24.5973225690
C    6.0       20.5672171869       19.4786193616       24.1949632848
H    1.0       21.2303391063       19.5027462160       25.0716436442
C    6.0       21.2479144139       18.5908954165       23.1279232274
H    1.0       22.0434476032       19.1707676387       22.6422992527
H    1.0       21.7639046534       17.7713154863       23.6446855245
C    6.0       20.3342953494       17.9696284313       22.0368099720
H    1.0       20.9859925709       17.5702718367       21.2476760171
H    1.0       19.8154396446       17.0962607456       22.4555375959
O    8.0       19.3164227801       18.9279274493       24.5776185981
H    1.0       18.8182816157       18.8617014351       23.7387183879
 $end
$$$$
! Edit this basic GAMESS input file as needed.
! Conformer was generated by a VeraChem VCPack run 
! and contains     22 atoms.
!
 $contrl scftyp=rhf runtyp=optimize nzvar=0
  maxit=200 icharg=0 $end
 $system mwords=50 $end
 $basis gbasis=pm3 $end
 $statpt nstep=200 $end
 $guess guess=huckel $end
 $data
VM2 Rank=5      G=47.628            E=20.970            -TS=26.657              
C1
C    6.0       19.8709840357       19.1040653295       20.8414764623
H    1.0       20.3616720981       18.9261468399       19.8748257157
H    1.0       18.8001158908       18.9295851309       20.6692327200
C    6.0       20.0921477128       20.5825366642       21.2421216643
H    1.0       21.1479433098       20.7715097056       21.4791730461
H    1.0       19.8617566626       21.2034742089       20.3656119868
C    6.0       19.1751421751       21.0346638033       22.4024708856
H    1.0       18.1926433999       20.5540238535       22.3002174946
H    1.0       18.9860137620       22.1127188668       22.3080839514
C    6.0       19.7368551462       20.7695864916       23.8215198505
H    1.0       20.4182765666       21.5886165894       24.0858458077
H    1.0       18.9027113531       20.8273941155       24.5337911043
C    6.0       20.4966316965       19.4386801516       24.0270840009
H    1.0       21.5263101424       19.5657119108       23.6631464681
C    6.0       19.8776999145       18.2249610624       23.2989248704
H    1.0       20.1402727177       17.3143574381       23.8538812441
H    1.0       18.7819291620       18.2858181969       23.3108621939
C    6.0       20.4028722251       18.0614376442       21.8514786770
H    1.0       21.5011926447       18.0856476638       21.8568278704
H    1.0       20.1270350354       17.0616398351       21.4894642010
O    8.0       20.5336670940       19.1620688533       25.4219235890
H    1.0       20.9742406256       19.9261108948       25.8496156869
 $end
$$$$
! Edit this basic GAMESS input file as needed.
! Conformer was generated by a VeraChem VCPack run 
! and contains     22 atoms.
!
 $contrl scftyp=rhf runtyp=optimize nzvar=0
  maxit=200 icharg=0 $end
 $system mwords=50 $end
 $basis gbasis=pm3 $end
 $statpt nstep=200 $end
 $guess guess=huckel $end
 $data
VM2 Rank=6      G=47.654            E=20.996            -TS=26.657              
C1
C    6.0       20.3566734918       19.2286282516       20.9946024839
H    1.0       21.4143284452       19.4317642485       21.2107254512
H    1.0       20.3192982907       18.8927126403       19.9492909175
C    6.0       19.5116075649       20.5206745619       21.1031681320
H    1.0       19.7920243867       21.1925528256       20.2804954515
H    1.0       18.4523655472       20.2777614992       20.9423276344
C    6.0       19.6621765795       21.2963183310       22.4319959882
H    1.0       18.9675452214       22.1471196779       22.4129869122
H    1.0       20.6688564733       21.7326549960       22.4879323697
C    6.0       19.3901507831       20.4649873080       23.7097033882
H    1.0       19.3074236710       21.1650756539       24.5518149763
H    1.0       18.4223192037       19.9519427174       23.6415373739
C    6.0       20.5184541733       19.4563375337       24.0194875115
H    1.0       21.4700330000       19.8976136553       23.6899434263
C    6.0       20.3556918639       18.0780485047       23.3378323596
H    1.0       21.3347823583       17.5817622509       23.3476228032
H    1.0       19.6902876580       17.4478127899       23.9432321761
C    6.0       19.8203893748       18.0829107286       21.8842448549
H    1.0       18.7223571825       18.1135471457       21.8968751222
H    1.0       20.0821163568       17.1208997830       21.4228190076
O    8.0       20.5708561685       19.2500947803       25.4259652818
H    1.0       21.3243716226       18.6463774246       25.5948524702
 $end
$$$$
! Edit this basic GAMESS input file as needed.
! Conformer was generated by a VeraChem VCPack run 
! and contains     22 atoms.
!
 $contrl scftyp=rhf runtyp=optimize nzvar=0
  maxit=200 icharg=0 $end
 $system mwords=50 $end
 $basis gbasis=pm3 $end
 $statpt nstep=200 $end
 $guess guess=huckel $end
 $data
VM2 Rank=7      G=47.662            E=20.999            -TS=26.663              
C1
C    6.0       19.8722148238       19.1044615602       20.8421567985
H    1.0       18.8013194405       18.9312343012       20.6687906205
H    1.0       20.3635430318       18.9262972281       19.8758699588
C    6.0       20.0944839815       20.5828106040       21.2430698115
H    1.0       21.1500758367       20.7706297694       21.4819424999
H    1.0       19.8664508444       21.2038904908       20.3660492007
C    6.0       19.1760777560       21.0367889860       22.4017229948
H    1.0       18.1920983824       20.5600067684       22.2960178657
H    1.0       18.9913863508       22.1157142869       22.3088046541
C    6.0       19.7326790534       20.7670543694       23.8221022886
H    1.0       20.4125023700       21.5843968037       24.0953082522
H    1.0       18.8978193801       20.8197434832       24.5336804899
C    6.0       20.4953815203       19.4381389877       24.0259916076
H    1.0       21.5233587397       19.5706295985       23.6591778902
C    6.0       19.8750417874       18.2240811683       23.2987572923
H    1.0       20.1301835750       17.3096318903       23.8502752594
H    1.0       18.7793172118       18.2898338061       23.3066383348
C    6.0       20.4020242435       18.0606226044       21.8521232015
H    1.0       21.5003885752       18.0834523007       21.8580699025
H    1.0       20.1251587701       17.0615056781       21.4888930458
O    8.0       20.5380968340       19.1640417199       25.4210760052
H    1.0       21.0889402998       18.3613167993       25.5343112044
 $end
$$$$
! Edit this basic GAMESS input file as needed.
! Conformer was generated by a VeraChem VCPack run 
! and contains     22 atoms.
!
 $contrl scftyp=rhf runtyp=optimize nzvar=0
  maxit=200 icharg=0 $end
 $system mwords=50 $end
 $basis gbasis=pm3 $end
 $statpt nstep=200 $end
 $guess guess=huckel $end
 $data
VM2 Rank=8      G=47.680            E=21.017            -TS=26.663              
C1
C    6.0       20.3584049866       19.2285544720       20.9955039818
H    1.0       20.3227383080       18.8935374437       19.9498482681
H    1.0       21.4157580280       19.4312990502       21.2134704605
C    6.0       19.5132602386       20.5207133916       21.1036957228
H    1.0       19.7944963495       21.1926416816       20.2813376942
H    1.0       18.4542083534       20.2777854584       20.9416029529
C    6.0       19.6622056743       21.2966196016       22.4326501802
H    1.0       18.9673600341       22.1472652783       22.4122211614
H    1.0       20.6687132171       21.7332961691       22.4893601534
C    6.0       19.3881388400       20.4652271025       23.7096995916
H    1.0       19.2974153925       21.1667818739       24.5493875682
H    1.0       18.4216108486       19.9500167918       23.6363574593
C    6.0       20.5171631589       19.4564746185       24.0184916782
H    1.0       21.4693826838       19.8926803589       23.6840591356
C    6.0       20.3500497625       18.0781202950       23.3391463309
H    1.0       21.3275296344       17.5790789370       23.3576087943
H    1.0       19.6815737609       17.4526558257       23.9458125068
C    6.0       19.8208456672       18.0817417215       21.8831353800
H    1.0       20.0863342676       17.1201131560       21.4231240086
H    1.0       18.7227455964       18.1103770169       21.8913759072
O    8.0       20.5759316719       19.2505487974       25.4246771345
H    1.0       20.7579014144       20.1239307507       25.8305211597
 $end
