$$$$
! Edit this basic GAMESS input file as needed.
! Conformer was generated by a VeraChem VCPack run 
! and contains     22 atoms.
!
 $contrl scftyp=rhf runtyp=optimize nzvar=0
  maxit=200 icharg=0 $end
 $system mwords=50 $end
 $basis gbasis=pm3 $end
 $statpt nstep=200 $end
 $guess guess=huckel $end
 $data
VM2 Rank=1      G=-16.998           E=-36.566           -TS=19.568              
C1
C    6.0       19.8314393165       19.1340704705       26.1874736886
O    8.0       20.0586473589       20.2371675255       26.6435270130
O    8.0       20.1745608201       18.0997705588       26.7249890194
C    6.0       19.0946204520       19.0433641760       24.8559009818
H    1.0       18.3980392662       19.8880949751       24.7936987101
H    1.0       18.4928216905       18.1265912568       24.8612614556
C    6.0       20.0506227945       19.0480813349       23.6376685771
H    1.0       20.6548851586       19.9657792233       23.6541319131
H    1.0       20.7496251506       18.2043292667       23.7216554442
C    6.0       19.2807938571       18.9554994473       22.3025007930
H    1.0       18.5821526831       19.7996768154       22.2222570429
H    1.0       18.6767985217       18.0377831165       22.2898542324
C    6.0       20.2363117001       18.9603014123       21.0899631481
H    1.0       20.8405488493       19.8778373324       21.1022808325
H    1.0       20.9350907792       18.1162294636       21.1698146835
C    6.0       19.4676515732       18.8678800217       19.7551651082
H    1.0       18.7690010248       19.7118168674       19.6707003218
H    1.0       18.8634394070       17.9502091208       19.7382791738
C    6.0       20.4253521276       18.8728650530       18.5468116710
H    1.0       21.1157070792       18.0202130831       18.5892542290
H    1.0       21.0206051745       19.7950490391       18.5211972662
H    1.0       19.8624026900       18.8066541446       17.6067078646
 $end
