$$$$
! Edit this basic GAMESS input file as needed.
! Conformer was generated by a VeraChem VCPack run 
! and contains     20 atoms.
!
 $contrl scftyp=rhf runtyp=optimize nzvar=0
  maxit=200 icharg=0 $end
 $system mwords=50 $end
 $basis gbasis=pm3 $end
 $statpt nstep=200 $end
 $guess guess=huckel $end
 $data
VM2 Rank=1      G=-21.890           E=-37.137           -TS=15.248              
C1
C    6.0       20.4454814431       18.0660556545       18.7398728268
H    1.0       20.6596560712       17.7973927995       17.7068477127
H    1.0       20.5834493769       17.2883396257       19.4879837714
C    6.0       20.0331055695       19.2995238012       19.0535863019
H    1.0       19.9133423477       20.0361944910       18.2594815534
C    6.0       19.6972450686       19.8196702923       20.4412672765
H    1.0       18.6643261369       20.1927662195       20.4377635664
H    1.0       20.3271591484       20.6942111394       20.6522674234
C    6.0       19.8605127674       18.7896903996       21.5834001228
H    1.0       19.2167442862       17.9208945726       21.3888749021
H    1.0       20.8976153059       18.4277394410       21.6056785396
C    6.0       19.5003378850       19.3965503984       22.9570860073
H    1.0       18.4636510614       19.7607449542       22.9412802115
H    1.0       20.1411052515       20.2664864045       23.1576700169
C    6.0       19.6629540761       18.3671070829       24.1024591202
H    1.0       19.0192235120       17.4973584503       23.9242696486
H    1.0       20.6967040152       18.0030948919       24.1406586308
C    6.0       19.3129469500       18.9429657679       25.4698900931
O    8.0       20.1971413260       19.4750597260       26.1115468716
O    8.0       18.1612749144       18.8613768774       25.8488913799
 $end
