$$$$
! Edit this basic GAMESS input file as needed.
! Conformer was generated by a VeraChem VCPack run 
! and contains     13 atoms.
!
 $contrl scftyp=rhf runtyp=optimize nzvar=0
  maxit=200 icharg=0 $end
 $system mwords=50 $end
 $basis gbasis=pm3 $end
 $statpt nstep=200 $end
 $guess guess=huckel $end
 $data
VM2 Rank=1      G=16.554            E=6.694             -TS=9.860               
C1
C    6.0       19.7183880710       18.9886977780       20.9308458759
H    1.0       18.7845003309       19.2996023871       20.4442472779
H    1.0       20.4604115455       18.7657164342       20.1549474095
C    6.0       19.5459588702       17.9070188520       22.0477919256
H    1.0       20.4631790929       17.3616272919       22.3028379457
H    1.0       18.7360009463       17.1846118667       21.8985638731
C    6.0       19.2225964551       19.1061531062       22.9894438563
H    1.0       18.1790586618       19.4457217078       22.9366863439
C    6.0       20.1960053619       19.9253054127       22.0892723846
H    1.0       21.2554003938       19.8236414508       22.3556018523
H    1.0       19.9609453238       20.9895102771       21.9789286479
O    8.0       19.6300512418       18.9478248510       24.3286459577
H    1.0       19.0296041133       18.2889505057       24.7391959334
 $end
$$$$
! Edit this basic GAMESS input file as needed.
! Conformer was generated by a VeraChem VCPack run 
! and contains     13 atoms.
!
 $contrl scftyp=rhf runtyp=optimize nzvar=0
  maxit=200 icharg=0 $end
 $system mwords=50 $end
 $basis gbasis=pm3 $end
 $statpt nstep=200 $end
 $guess guess=huckel $end
 $data
VM2 Rank=2      G=16.565            E=6.705             -TS=9.860               
C1
C    6.0       19.7183569541       18.9885859977       20.9308430944
H    1.0       18.7843703715       19.2991709956       20.4442320625
H    1.0       20.4602986868       18.7653341141       20.1549435270
C    6.0       19.5460044642       17.9071486812       22.0480238988
H    1.0       18.7355734775       17.1849329603       21.9011661463
H    1.0       20.4624732771       17.3617260046       22.3052852434
C    6.0       19.2226514799       19.1063181950       22.9894487389
H    1.0       18.1777173477       19.4415493956       22.9366063218
C    6.0       20.1960408678       19.9254516261       22.0890431747
H    1.0       21.2560556547       19.8234202963       22.3531481021
H    1.0       19.9614905180       20.9896193160       21.9763265667
O    8.0       19.6299462340       18.9474955000       24.3286410932
H    1.0       19.5216331296       19.8171221826       24.7704783786
 $end
$$$$
! Edit this basic GAMESS input file as needed.
! Conformer was generated by a VeraChem VCPack run 
! and contains     13 atoms.
!
 $contrl scftyp=rhf runtyp=optimize nzvar=0
  maxit=200 icharg=0 $end
 $system mwords=50 $end
 $basis gbasis=pm3 $end
 $statpt nstep=200 $end
 $guess guess=huckel $end
 $data
VM2 Rank=3      G=16.881            E=7.062             -TS=9.819               
C1
C    6.0       19.7178439863       18.9888015532       20.9312599329
H    1.0       18.7835411897       19.2996468978       20.4453349760
H    1.0       20.4590068887       18.7659643069       20.1544442841
C    6.0       19.5457400726       17.9064249620       22.0475917830
H    1.0       20.4618324463       17.3570395690       22.2972651642
H    1.0       18.7332988958       17.1864129524       21.8998977628
C    6.0       19.2241837962       19.1057331617       22.9896195089
H    1.0       18.1800219176       19.4430789644       22.9384934251
C    6.0       20.1962158286       19.9260692881       22.0888638989
H    1.0       21.2577087492       19.8281377051       22.3477634250
H    1.0       19.9582331149       20.9896856410       21.9776136413
O    8.0       19.6290163163       18.9479710350       24.3286648763
H    1.0       20.5619022307       18.6477388372       24.3112013860
 $end
$$$$
! Edit this basic GAMESS input file as needed.
! Conformer was generated by a VeraChem VCPack run 
! and contains     13 atoms.
!
 $contrl scftyp=rhf runtyp=optimize nzvar=0
  maxit=200 icharg=0 $end
 $system mwords=50 $end
 $basis gbasis=pm3 $end
 $statpt nstep=200 $end
 $guess guess=huckel $end
 $data
VM2 Rank=4      G=17.420            E=7.528             -TS=9.892               
C1
C    6.0       20.3521085593       18.7766666233       21.3180219606
H    1.0       20.4221018112       18.7764841848       20.2237300920
H    1.0       21.3189138629       18.4570097444       21.7271698512
C    6.0       19.1069697793       18.0469568357       21.9240703345
H    1.0       19.2663835517       17.0154593205       22.2576977461
H    1.0       18.2126102381       18.0737232387       21.2897045127
C    6.0       19.1275645944       19.1357573889       23.0412459700
H    1.0       18.1379937267       19.4470788680       23.3994561529
C    6.0       19.7592136869       20.0726021115       21.9654499485
H    1.0       20.4863527040       20.8042718554       22.3350930408
H    1.0       19.0247690929       20.5960046832       21.3412254750
O    8.0       19.9671433801       18.8430170405       24.1372117864
H    1.0       20.8296781455       18.5728141921       23.7599360039
 $end
$$$$
! Edit this basic GAMESS input file as needed.
! Conformer was generated by a VeraChem VCPack run 
! and contains     13 atoms.
!
 $contrl scftyp=rhf runtyp=optimize nzvar=0
  maxit=200 icharg=0 $end
 $system mwords=50 $end
 $basis gbasis=pm3 $end
 $statpt nstep=200 $end
 $guess guess=huckel $end
 $data
VM2 Rank=5      G=17.627            E=7.736             -TS=9.891               
C1
C    6.0       20.3542217306       18.7758665782       21.3214970672
H    1.0       20.4355353958       18.7713920762       20.2281787302
H    1.0       21.3151661514       18.4575680207       21.7463247963
C    6.0       19.1056862917       18.0482039846       21.9220285013
H    1.0       18.2128881947       18.0764078574       21.2857253861
H    1.0       19.2646562958       17.0173350070       22.2573357694
C    6.0       19.1282019675       19.1360995747       23.0406906027
H    1.0       18.1373239701       19.4458045579       23.3971396653
C    6.0       19.7574116503       20.0727375749       21.9623122494
H    1.0       20.4844706667       20.8058805691       22.3286977248
H    1.0       19.0226770116       20.5921601570       21.3351447007
O    8.0       19.9674783599       18.8420922876       24.1394715793
H    1.0       20.0358151344       19.6580630453       24.6795426734
 $end
$$$$
! Edit this basic GAMESS input file as needed.
! Conformer was generated by a VeraChem VCPack run 
! and contains     13 atoms.
!
 $contrl scftyp=rhf runtyp=optimize nzvar=0
  maxit=200 icharg=0 $end
 $system mwords=50 $end
 $basis gbasis=pm3 $end
 $statpt nstep=200 $end
 $guess guess=huckel $end
 $data
VM2 Rank=6      G=17.628            E=7.736             -TS=9.891               
C1
C    6.0       20.3542496164       18.7759541104       21.3214975206
H    1.0       21.3153101890       18.4580154269       21.7463319473
H    1.0       20.4359314891       18.7726239529       20.2282033575
C    6.0       19.1054634848       18.0480129648       21.9209446787
H    1.0       19.2639849939       17.0154827553       22.2512535241
H    1.0       18.2132281990       18.0782992407       21.2837845148
C    6.0       19.1278875064       19.1351212996       23.0406704737
H    1.0       18.1382163097       19.4485729343       23.3971955430
C    6.0       19.7574682771       20.0724128197       21.9633872040
H    1.0       20.4838597397       20.8037634482       22.3347001610
H    1.0       19.0234773902       20.5938213179       21.3371640445
O    8.0       19.9679311152       18.8434988055       24.1395001229
H    1.0       19.5410500278       18.1215641698       24.6481633440
 $end
