$$$$
! Edit this basic GAMESS input file as needed.
! Conformer was generated by a VeraChem VCPack run 
! and contains     17 atoms.
!
 $contrl scftyp=rhf runtyp=optimize nzvar=0
  maxit=200 icharg=0 $end
 $system mwords=50 $end
 $basis gbasis=pm3 $end
 $statpt nstep=200 $end
 $guess guess=huckel $end
 $data
VM2 Rank=1      G=-29.181           E=-40.002           -TS=10.820              
C1
C    6.0       19.7723678223       19.0786587519       25.2791389841
O    8.0       19.3188288572       19.9200283437       26.0302083215
O    8.0       20.4466230670       18.1425413045       25.6657359699
C    6.0       19.4751453255       19.2204705120       23.8280322004
H    1.0       18.8676660483       20.0785992735       23.5496551598
C    6.0       19.9148638137       18.3608316416       22.8810608503
H    1.0       20.5261143742       17.4991151008       23.1486297041
C    6.0       19.6098551384       18.5135178813       21.4069866563
H    1.0       18.5799572738       18.8710064347       21.2716329261
H    1.0       19.6671993485       17.5326863365       20.9159980850
C    6.0       20.5929076206       19.4889219638       20.7278602505
H    1.0       20.5338530257       20.4719838888       21.2153665272
H    1.0       21.6220748731       19.1280854590       20.8626905831
C    6.0       20.2944083553       19.6430296012       19.2229767671
H    1.0       20.3778367090       18.6785809936       18.7049912630
H    1.0       19.2806932841       20.0325471139       19.0614409727
H    1.0       21.0033526015       20.3400490904       18.7574744592
 $end
