$$$$
! Edit this basic GAMESS input file as needed.
! Conformer was generated by a VeraChem VCPack run 
! and contains     17 atoms.
!
 $contrl scftyp=rhf runtyp=optimize nzvar=0
  maxit=200 icharg=0 $end
 $system mwords=50 $end
 $basis gbasis=pm3 $end
 $statpt nstep=200 $end
 $guess guess=huckel $end
 $data
VM2 Rank=1      G=-26.661           E=-36.827           -TS=10.165              
C1
C    6.0       20.1215813423       19.0267582910       25.0643153321
O    8.0       21.2292449492       19.3332844269       25.4594928481
O    8.0       19.0984112796       19.5456255070       25.4654924875
C    6.0       20.0077399517       17.9136225494       24.0271929626
H    1.0       19.0748030311       17.3708155605       24.2188405446
H    1.0       20.8162905389       17.1972919440       24.2138920496
C    6.0       20.0480182807       18.3594461309       22.5718587294
H    1.0       19.9641510597       17.5396200053       21.8612920770
C    6.0       20.1729894426       19.6232755286       22.1416454202
H    1.0       20.2563803880       20.4370817464       22.8608172327
C    6.0       20.2152187105       20.0871628499       20.6950073021
H    1.0       19.4084215357       20.8142407961       20.5308536788
H    1.0       21.1490319877       20.6402399991       20.5258666773
C    6.0       20.0997960433       18.9628247163       19.6419949180
H    1.0       20.1386670577       19.3805223940       18.6275730251
H    1.0       20.9238037878       18.2440624547       19.7409641395
H    1.0       19.1503623694       18.4213856894       19.7460282619
 $end
$$$$
! Edit this basic GAMESS input file as needed.
! Conformer was generated by a VeraChem VCPack run 
! and contains     17 atoms.
!
 $contrl scftyp=rhf runtyp=optimize nzvar=0
  maxit=200 icharg=0 $end
 $system mwords=50 $end
 $basis gbasis=pm3 $end
 $statpt nstep=200 $end
 $guess guess=huckel $end
 $data
VM2 Rank=2      G=-26.576           E=-36.435           -TS=9.860               
C1
C    6.0       19.9357965048       19.0109210540       25.0042142019
O    8.0       18.8064670055       18.5764154969       25.1174061299
O    8.0       20.3108337504       20.0471995379       25.5166164971
C    6.0       20.9447003642       18.1979103426       24.1987926434
H    1.0       20.6932900840       17.1374730489       24.3172579803
H    1.0       21.9287197655       18.3281614805       24.6640459500
C    6.0       21.0312115067       18.5392701611       22.7179597622
H    1.0       21.7572957369       17.9474583531       22.1619865960
C    6.0       20.3100792506       19.4699870169       22.0817758041
H    1.0       19.5767683647       20.0747942387       22.6139378583
C    6.0       20.4358070550       19.7717916257       20.6049387281
H    1.0       20.5204381466       20.8565509273       20.4544248164
H    1.0       21.3528012815       19.3246378003       20.1971042725
C    6.0       19.2181045629       19.2385047648       19.8252962333
H    1.0       19.3139779472       19.4614600831       18.7547081700
H    1.0       19.1278884890       18.1502690643       19.9401801073
H    1.0       18.2893127972       19.6985699158       20.1874345222
 $end
$$$$
! Edit this basic GAMESS input file as needed.
! Conformer was generated by a VeraChem VCPack run 
! and contains     17 atoms.
!
 $contrl scftyp=rhf runtyp=optimize nzvar=0
  maxit=200 icharg=0 $end
 $system mwords=50 $end
 $basis gbasis=pm3 $end
 $statpt nstep=200 $end
 $guess guess=huckel $end
 $data
VM2 Rank=3      G=-26.552           E=-36.412           -TS=9.860               
C1
C    6.0       20.3002488054       18.9745577459       25.0032206947
O    8.0       20.1397072146       20.0640676550       25.5172976702
O    8.0       21.3223546734       18.3258478254       25.1103135911
C    6.0       19.1464273962       18.3770064848       24.2037185838
H    1.0       18.2099998704       18.6983401120       24.6744296301
H    1.0       19.1844864154       17.2877235167       24.3211182853
C    6.0       19.1206820024       18.7299038744       22.7232888420
H    1.0       18.2888816800       18.2936036470       22.1716586606
C    6.0       20.0079325751       19.5002067334       22.0826523830
H    1.0       20.8493708118       19.9476758154       22.6103717635
C    6.0       19.9360520756       19.8218762416       20.6064079848
H    1.0       18.9463692636       19.5653880131       20.2040457014
H    1.0       20.0670048972       20.9020139923       20.4558300808
C    6.0       21.0195952574       19.0585334394       19.8201002505
H    1.0       22.0231383998       19.3253112123       20.1767372140
H    1.0       20.8931660583       17.9739073669       19.9349783734
H    1.0       20.9637061150       19.2967745932       18.7499704098
 $end
$$$$
! Edit this basic GAMESS input file as needed.
! Conformer was generated by a VeraChem VCPack run 
! and contains     17 atoms.
!
 $contrl scftyp=rhf runtyp=optimize nzvar=0
  maxit=200 icharg=0 $end
 $system mwords=50 $end
 $basis gbasis=pm3 $end
 $statpt nstep=200 $end
 $guess guess=huckel $end
 $data
VM2 Rank=4      G=-26.538           E=-36.512           -TS=9.974               
C1
C    6.0       20.2302434603       19.0497654987       25.1478161833
O    8.0       21.3843473260       18.9679253938       25.5197258843
O    8.0       19.4241735416       19.8246795157       25.6238513869
C    6.0       19.7685055616       18.1232348142       24.0306601200
H    1.0       18.6810566902       18.0059239311       24.1099000567
H    1.0       20.2110617959       17.1365295657       24.2097351385
C    6.0       20.1637474149       18.6292867000       22.6562141639
H    1.0       21.2342421342       18.6185873912       22.4586892962
C    6.0       19.2894315580       19.0657186408       21.7408951259
H    1.0       18.2256173787       19.0657243367       21.9762302091
C    6.0       19.6146860137       19.5877821942       20.3515618429
H    1.0       19.0777859326       18.9828304704       19.6084070952
H    1.0       19.2127413960       20.6049602836       20.2500226554
C    6.0       21.1178651239       19.6036072426       19.9962752928
H    1.0       21.2693469928       19.9934766226       18.9813447410
H    1.0       21.6796825013       20.2434447918       20.6894262670
H    1.0       21.5424488471       18.5918404168       20.0344690247
 $end
$$$$
! Edit this basic GAMESS input file as needed.
! Conformer was generated by a VeraChem VCPack run 
! and contains     17 atoms.
!
 $contrl scftyp=rhf runtyp=optimize nzvar=0
  maxit=200 icharg=0 $end
 $system mwords=50 $end
 $basis gbasis=pm3 $end
 $statpt nstep=200 $end
 $guess guess=huckel $end
 $data
VM2 Rank=5      G=-26.492           E=-36.127           -TS=9.636               
C1
C    6.0       20.1141630355       18.9945497153       25.2590006128
O    8.0       21.1853153208       19.4018018568       25.6634722430
O    8.0       19.0545903713       19.2358187570       25.8031088445
C    6.0       20.0969673090       18.1295490087       24.0055720418
H    1.0       19.3782319372       17.3181220948       24.1684092682
H    1.0       21.0846065085       17.6658610940       23.8951064510
C    6.0       19.7230393346       18.9149152308       22.7629461826
H    1.0       18.6941209639       19.2719546725       22.7305516160
C    6.0       20.5642829340       19.1754687427       21.7576360428
H    1.0       21.5938508715       18.8206923583       21.7920434035
C    6.0       20.1907126446       19.9619818563       20.5210418009
H    1.0       19.2415409664       20.4933892222       20.6756397073
H    1.0       20.9527321274       20.7284103990       20.3249650602
C    6.0       20.0639290502       19.0379148323       19.2942222316
H    1.0       19.2884495535       18.2778496617       19.4571071754
H    1.0       19.7934533338       19.6143313745       18.3999788532
H    1.0       21.0118288680       18.5217693997       19.0929574775
 $end
$$$$
! Edit this basic GAMESS input file as needed.
! Conformer was generated by a VeraChem VCPack run 
! and contains     17 atoms.
!
 $contrl scftyp=rhf runtyp=optimize nzvar=0
  maxit=200 icharg=0 $end
 $system mwords=50 $end
 $basis gbasis=pm3 $end
 $statpt nstep=200 $end
 $guess guess=huckel $end
 $data
VM2 Rank=6      G=-26.487           E=-36.461           -TS=9.974               
C1
C    6.0       20.0342722341       18.8557208712       25.1338439314
O    8.0       20.0798667639       17.6768853047       25.4257988679
O    8.0       19.2331943352       19.6355210873       25.6103258810
C    6.0       21.0425819474       19.3843305255       24.1221239191
H    1.0       22.0103567030       18.9174603474       24.3388156227
H    1.0       21.1621714845       20.4617204799       24.2879999220
C    6.0       20.6341345226       19.0950294409       22.6900348306
H    1.0       20.6509812039       18.0413817628       22.4168470854
C    6.0       20.2717614154       20.0381630620       21.8114602550
H    1.0       20.2629799003       21.0823237755       22.1224833026
C    6.0       19.8492146978       19.8199405149       20.3684012745
H    1.0       18.8450743908       20.2409575138       20.2235973121
H    1.0       20.5103531759       20.4010232846       19.7113287136
C    6.0       19.8479740836       18.3464091935       19.9050110406
H    1.0       19.5315792178       18.2729988486       18.8564247207
H    1.0       20.8511158685       17.9073975036       19.9848742339
H    1.0       19.1554035088       17.7445150818       20.5079684344
 $end
$$$$
! Edit this basic GAMESS input file as needed.
! Conformer was generated by a VeraChem VCPack run 
! and contains     17 atoms.
!
 $contrl scftyp=rhf runtyp=optimize nzvar=0
  maxit=200 icharg=0 $end
 $system mwords=50 $end
 $basis gbasis=pm3 $end
 $statpt nstep=200 $end
 $guess guess=huckel $end
 $data
VM2 Rank=7      G=-26.482           E=-36.117           -TS=9.636               
C1
C    6.0       20.1102435964       18.9988918651       25.2592085837
O    8.0       20.6754175005       19.9845257707       25.6903963685
O    8.0       20.2329535030       17.8895811425       25.7401782028
C    6.0       19.1935831816       19.1613847964       24.0538320741
H    1.0       18.8611126807       20.2056598827       24.0139294024
H    1.0       18.3019819617       18.5474176913       24.2258789978
C    6.0       19.8637021714       18.7541946836       22.7554181555
H    1.0       20.0786466794       17.6905987464       22.6566147699
C    6.0       20.1872964452       19.6061330192       21.7778119038
H    1.0       19.9749667180       20.6700003091       21.8786189190
C    6.0       20.8591475615       19.1988663814       20.4854998692
H    1.0       21.7101157624       19.8637076713       20.2845691087
H    1.0       21.2663335210       18.1816985211       20.5678946639
C    6.0       19.8706560404       19.2584223412       19.3046548424
H    1.0       20.3640233686       18.9625380193       18.3697076611
H    1.0       19.0226584221       18.5811871958       19.4715448636
H    1.0       19.4762665093       20.2748027158       19.1748257264
 $end
$$$$
! Edit this basic GAMESS input file as needed.
! Conformer was generated by a VeraChem VCPack run 
! and contains     17 atoms.
!
 $contrl scftyp=rhf runtyp=optimize nzvar=0
  maxit=200 icharg=0 $end
 $system mwords=50 $end
 $basis gbasis=pm3 $end
 $statpt nstep=200 $end
 $guess guess=huckel $end
 $data
VM2 Rank=8      G=-26.408           E=-36.054           -TS=9.646               
C1
C    6.0       20.1632331927       19.1351267533       25.1459821716
O    8.0       21.2732906984       19.5660136539       25.3887178195
O    8.0       19.1531608259       19.5352008941       25.6906819150
C    6.0       20.0292984413       18.0258188162       24.1109349424
H    1.0       19.3073651168       17.2956541950       24.4945424692
H    1.0       20.9947224154       17.5116313040       24.0320749015
C    6.0       19.5774493357       18.5443037835       22.7589834966
H    1.0       18.5594195054       18.9312606417       22.7258968606
C    6.0       20.3428542710       18.5522179922       21.6633963731
H    1.0       21.3624962826       18.1698964509       21.6983163401
C    6.0       19.8913335449       19.0723681269       20.3169529489
H    1.0       20.1389253528       18.3418010368       19.5349736275
H    1.0       18.7997183803       19.1959083390       20.2989776900
C    6.0       20.5623796901       20.4209499798       19.9913503330
H    1.0       21.6551473487       20.3182379567       19.9642779305
H    1.0       20.2308754147       20.7939988948       19.0135943874
H    1.0       20.3085789068       21.1751680730       20.7479345081
 $end
