$$$$
! Edit this basic GAMESS input file as needed.
! Conformer was generated by a VeraChem VCPack run 
! and contains     29 atoms.
!
 $contrl scftyp=rhf runtyp=optimize nzvar=0
  maxit=200 icharg=0 $end
 $system mwords=50 $end
 $basis gbasis=pm3 $end
 $statpt nstep=200 $end
 $guess guess=huckel $end
 $data
VM2 Rank=1      G=58.146            E=20.962            -TS=37.184              
C1
C    6.0       19.9950096403       18.9913286162       18.8122297898
H    1.0       20.3035050264       17.9386675247       18.7676059196
H    1.0       19.4251513385       19.2145226885       17.9009121441
H    1.0       20.8995627774       19.6134121187       18.8050552621
C    6.0       19.1426207044       19.2665984666       20.0690085179
H    1.0       18.2297757624       18.6556977696       20.0314060609
H    1.0       18.8211546997       20.3175781688       20.0684996330
C    6.0       19.9220257347       18.9602900454       21.3669465808
H    1.0       20.2432134728       17.9094700764       21.3619338525
H    1.0       20.8346141484       19.5714896401       21.3990175066
C    6.0       19.0716615677       19.2347478659       22.6277296472
H    1.0       18.1591763060       18.6234087285       22.5948034692
H    1.0       18.7505732157       20.2856198439       22.6318348097
C    6.0       19.8517856889       18.9282622022       23.9259865680
H    1.0       20.1729020671       17.8773721274       23.9214508539
H    1.0       20.7643553207       19.5395453040       23.9584591645
C    6.0       19.0012829824       19.2028274267       25.1866968490
H    1.0       18.0885167684       18.5916002016       25.1546787679
H    1.0       18.6800478229       20.2538037860       25.1917569755
C    6.0       19.7802950826       18.8966406343       26.4846717707
H    1.0       20.0987486237       17.8455934920       26.4857918029
H    1.0       20.6907471420       19.5096011506       26.5230355905
C    6.0       18.9244558354       19.1731690015       27.7331605559
H    1.0       18.0244988183       18.5527780629       27.7075432193
H    1.0       18.6188418931       20.2228930388       27.7450559693
N    7.0       19.6548627637       18.8841357412       29.0285697209
H    1.0       19.0673249160       19.0747548130       29.8478539012
H    1.0       20.4995030745       19.4572647055       29.1268715331
H    1.0       19.9464920231       17.9030648882       29.0919051161
 $end
