$$$$
! Edit this basic GAMESS input file as needed.
! Conformer was generated by a VeraChem VCPack run 
! and contains     26 atoms.
!
 $contrl scftyp=rhf runtyp=optimize nzvar=0
  maxit=200 icharg=0 $end
 $system mwords=50 $end
 $basis gbasis=pm3 $end
 $statpt nstep=200 $end
 $guess guess=huckel $end
 $data
VM2 Rank=1      G=23.710            E=-8.843            -TS=32.552              
C1
C    6.0       20.2414652279       18.6563533305       18.8059593269
H    1.0       19.6044540451       19.4971264612       18.5017231684
H    1.0       21.0557776663       18.5688769185       18.0750076790
H    1.0       19.6426204496       17.7376522969       18.7548324338
C    6.0       20.8050656589       18.8729035270       20.2263782405
H    1.0       21.4263131757       19.7794679629       20.2376928856
H    1.0       21.4642774826       18.0335327196       20.4887055995
C    6.0       19.6784473261       18.9994148594       21.2756973280
H    1.0       19.0206803665       19.8375407902       21.0067154510
H    1.0       19.0592834568       18.0917421169       21.2594053841
C    6.0       20.2388859997       19.2172413481       22.6994371457
H    1.0       20.8549504522       20.1271530776       22.7150536778
H    1.0       20.8998956133       18.3792076279       22.9575778044
C    6.0       19.1075600648       19.3422228862       23.7488122771
H    1.0       18.4279091307       20.1489847357       23.4433275532
H    1.0       18.5118408351       18.4197978279       23.7646210161
C    6.0       19.6331275959       19.6455948117       25.1687499047
H    1.0       20.2418269287       20.5539079192       25.1221704873
C    6.0       18.4605379192       19.8996084552       26.1295944838
H    1.0       17.8446051073       20.7376453793       25.7802340005
H    1.0       18.8275784842       20.1521397322       27.1320344951
H    1.0       17.8173081082       19.0146985276       26.2138711488
N    7.0       20.5229102074       18.5546607820       25.6993712932
H    1.0       21.3337370894       18.4049966471       25.0931117996
H    1.0       20.8769592235       18.7815690395       26.6329587348
H    1.0       20.0217789640       17.6651559813       25.7697290608
 $end
