$$$$
! Edit this basic GAMESS input file as needed.
! Conformer was generated by a VeraChem VCPack run 
! and contains     16 atoms.
!
 $contrl scftyp=rhf runtyp=optimize nzvar=0
  maxit=200 icharg=0 $end
 $system mwords=50 $end
 $basis gbasis=pm3 $end
 $statpt nstep=200 $end
 $guess guess=huckel $end
 $data
VM2 Rank=1      G=30.218            E=15.547            -TS=14.671              
C1
C    6.0       19.6971396832       19.0163834759       20.9390821781
H    1.0       19.6785415006       19.9332758520       20.3343678614
H    1.0       20.1313114374       18.2118313768       20.3293593518
C    6.0       18.2981292362       18.6037579827       21.4167875443
H    1.0       17.7279803575       19.4984207330       21.7035510557
H    1.0       17.7317719213       18.0676342796       20.6431744872
C    6.0       18.5585652442       17.7366079183       22.6617124369
H    1.0       18.6890347847       16.6896812258       22.3577609579
H    1.0       17.7164379386       17.7774386697       23.3651867966
C    6.0       19.8755775150       18.2476435914       23.2814894377
H    1.0       20.5433309245       17.3965132596       23.4794475939
C    6.0       20.5129695200       19.1856981068       22.2344697307
H    1.0       21.5724461272       18.9477500780       22.0750769453
H    1.0       20.4511669906       20.2285981171       22.5739957866
O    8.0       19.6066188014       18.9649089249       24.4804586723
H    1.0       19.1944307517       18.3291339810       25.1026643451
 $end
$$$$
! Edit this basic GAMESS input file as needed.
! Conformer was generated by a VeraChem VCPack run 
! and contains     16 atoms.
!
 $contrl scftyp=rhf runtyp=optimize nzvar=0
  maxit=200 icharg=0 $end
 $system mwords=50 $end
 $basis gbasis=pm3 $end
 $statpt nstep=200 $end
 $guess guess=huckel $end
 $data
VM2 Rank=2      G=30.235            E=15.563            -TS=14.672              
C1
C    6.0       19.5321889116       19.3693055099       21.1296982798
H    1.0       19.0757581010       20.3345284055       21.3899696950
H    1.0       19.9651720390       19.4531111993       20.1236322955
C    6.0       18.4765176088       18.2591054971       21.2230113396
H    1.0       17.4976822414       18.5802633618       20.8416232099
H    1.0       18.8038588370       17.3882331501       20.6382023802
C    6.0       18.4312218488       17.8943117196       22.7187197016
H    1.0       18.1717132009       16.8381754913       22.8661925235
H    1.0       17.6658965439       18.5008295257       23.2218607383
C    6.0       19.8270870945       18.2175738348       23.2927623920
H    1.0       20.3646061994       17.2856390296       23.5209642689
C    6.0       20.5808234101       18.9911934733       22.1913077006
H    1.0       21.1013323424       19.8774309571       22.5778002594
H    1.0       21.3344364657       18.3308474518       21.7424466295
O    8.0       19.7011611263       19.0235099653       24.4585005862
H    1.0       20.6112301813       19.2080147223       24.7731134968
 $end
$$$$
! Edit this basic GAMESS input file as needed.
! Conformer was generated by a VeraChem VCPack run 
! and contains     16 atoms.
!
 $contrl scftyp=rhf runtyp=optimize nzvar=0
  maxit=200 icharg=0 $end
 $system mwords=50 $end
 $basis gbasis=pm3 $end
 $statpt nstep=200 $end
 $guess guess=huckel $end
 $data
VM2 Rank=3      G=30.360            E=15.047            -TS=15.313              
C1
C    6.0       19.5851058652       19.3562426588       21.1698999759
H    1.0       19.3999950366       20.4294195427       21.3156824799
H    1.0       19.9162425767       19.2130911846       20.1321845639
C    6.0       18.2992270668       18.5557752250       21.4712122525
H    1.0       17.4915088591       19.2416195452       21.7617899219
H    1.0       17.9582765730       17.9930727567       20.5913724547
C    6.0       18.6385574206       17.6061591832       22.6397671420
H    1.0       18.8818941622       16.6109272574       22.2448985004
H    1.0       17.8004499366       17.4919773006       23.3401554787
C    6.0       19.8852307459       18.1925125580       23.3157763560
H    1.0       20.4855875172       17.4116394430       23.8044396468
C    6.0       20.6535247786       18.8593925556       22.1668847528
H    1.0       21.3047949204       19.6709782776       22.5178545684
H    1.0       21.2889447311       18.1081674419       21.6795201924
O    8.0       19.4873541229       19.1849178193       24.2504595209
H    1.0       18.9644536960       19.8294975423       23.7305992536
 $end
