$$$$
! Edit this basic GAMESS input file as needed.
! Conformer was generated by a VeraChem VCPack run 
! and contains     22 atoms.
!
 $contrl scftyp=rhf runtyp=optimize nzvar=0
  maxit=200 icharg=0 $end
 $system mwords=50 $end
 $basis gbasis=pm3 $end
 $statpt nstep=200 $end
 $guess guess=huckel $end
 $data
VM2 Rank=1      G=47.363            E=20.694            -TS=26.668              
C1
C    6.0       19.8825345730       19.0489990378       20.9026239097
H    1.0       20.8932296788       19.1566333074       20.4858621658
H    1.0       19.2824075928       18.5760050731       20.1133721162
C    6.0       19.2916717596       20.4492620218       21.1835903580
H    1.0       19.3609898402       21.0411788459       20.2607545480
H    1.0       18.2185241173       20.3558345311       21.3989810932
C    6.0       19.9805896879       21.2344423806       22.3249312601
H    1.0       19.6223561942       22.2719652325       22.2799334609
H    1.0       21.0669445948       21.2803354308       22.1687661783
C    6.0       19.6466560920       20.6732460101       23.7282591229
H    1.0       19.7185358510       21.4904543436       24.4577389973
H    1.0       18.5973734852       20.3506541298       23.7486815106
C    6.0       20.5644139715       19.5312999131       24.2234442300
H    1.0       21.4771207596       19.9849343089       24.6358425589
C    6.0       21.0067808170       18.5018324611       23.1577945268
H    1.0       21.8883601432       18.8894291908       22.6311689832
H    1.0       21.3563772041       17.5990898421       23.6766504470
C    6.0       19.9264567759       18.1000517342       22.1234752287
H    1.0       20.1660053077       17.0930957100       21.7554890303
H    1.0       18.9370960154       18.0248428214       22.5939518949
O    8.0       19.8868963231       18.8388664412       25.2628813638
H    1.0       19.1421963723       18.3715113888       24.8326972786
 $end
