$$$$
! Edit this basic GAMESS input file as needed.
! Conformer was generated by a VeraChem VCPack run 
! and contains     16 atoms.
!
 $contrl scftyp=rhf runtyp=optimize nzvar=0
  maxit=200 icharg=0 $end
 $system mwords=50 $end
 $basis gbasis=pm3 $end
 $statpt nstep=200 $end
 $guess guess=huckel $end
 $data
VM2 Rank=1      G=-35.660           E=-45.569           -TS=9.910               
C1
C    6.0       20.0717622250       19.4317932036       24.6566849839
O    8.0       20.4840971057       20.5080194374       25.0408199555
O    8.0       19.2403096692       18.7783947019       25.2546824193
C    6.0       20.6140152693       18.8794398997       23.3431212054
H    1.0       20.6286449622       17.7850520440       23.4134844817
H    1.0       21.6540145796       19.2111205932       23.2371037815
C    6.0       19.7839265945       19.3242434758       22.1138271607
H    1.0       18.7429712569       18.9957567467       22.2405505133
H    1.0       19.7683265603       20.4218978541       22.0641955574
C    6.0       20.3534419909       18.7521753446       20.7989309773
H    1.0       20.3685698040       17.6544909951       20.8479052275
H    1.0       21.3942098623       19.0809714361       20.6715223778
C    6.0       19.5224471454       19.1989339370       19.5799332978
H    1.0       19.5162178915       20.2930393553       19.4884707762
H    1.0       18.4829951874       18.8560423313       19.6661688878
H    1.0       19.9405628560       18.7837657849       18.6536697099
 $end
$$$$
! Edit this basic GAMESS input file as needed.
! Conformer was generated by a VeraChem VCPack run 
! and contains     16 atoms.
!
 $contrl scftyp=rhf runtyp=optimize nzvar=0
  maxit=200 icharg=0 $end
 $system mwords=50 $end
 $basis gbasis=pm3 $end
 $statpt nstep=200 $end
 $guess guess=huckel $end
 $data
VM2 Rank=2      G=-34.844           E=-44.867           -TS=10.023              
C1
C    6.0       20.0738471742       19.3291437140       24.5703965048
O    8.0       20.7531010394       20.1562950425       25.1452273164
O    8.0       19.1097676869       18.7860241579       25.0719226409
C    6.0       20.4398741010       18.9677804790       23.1351214535
H    1.0       20.1774715199       17.9153760104       22.9779353191
H    1.0       21.5282781175       19.0508749154       23.0300485472
C    6.0       19.7319437221       19.8679566925       22.0894114256
H    1.0       18.6436156565       19.7439111636       22.1758072198
H    1.0       19.9446254179       20.9195291005       22.3268780550
C    6.0       20.1756451302       19.5876362309       20.6351221871
H    1.0       21.2624113054       19.7230834838       20.5458200707
H    1.0       19.7141318801       20.3348419071       19.9748193330
C    6.0       19.7858211461       18.1781636832       20.1407984718
H    1.0       18.7063484661       18.0090177328       20.2474642905
H    1.0       20.3142883011       17.3965352457       20.7007654369
H    1.0       20.0433384146       18.0587521349       19.0804059040
 $end
$$$$
! Edit this basic GAMESS input file as needed.
! Conformer was generated by a VeraChem VCPack run 
! and contains     16 atoms.
!
 $contrl scftyp=rhf runtyp=optimize nzvar=0
  maxit=200 icharg=0 $end
 $system mwords=50 $end
 $basis gbasis=pm3 $end
 $statpt nstep=200 $end
 $guess guess=huckel $end
 $data
VM2 Rank=3      G=-34.790           E=-44.813           -TS=10.023              
C1
C    6.0       19.9194427386       19.5237172528       24.5496865295
O    8.0       20.8187379778       20.0734451937       25.1538894148
O    8.0       19.1178939520       18.7756936532       25.0730777819
C    6.0       19.8030890702       19.7704880233       23.0496397414
H    1.0       20.1475747438       20.7912314709       22.8447522599
H    1.0       18.7404764888       19.7266937181       22.7849647769
C    6.0       20.6166382247       18.7530928734       22.2081887211
H    1.0       21.6586320811       18.7595174506       22.5569530154
H    1.0       20.2345909515       17.7389449399       22.3894425842
C    6.0       20.5985342869       19.0546756749       20.6919001034
H    1.0       21.2817901291       18.3591094501       20.1852843328
H    1.0       20.9915452599       20.0644408250       20.5094198077
C    6.0       19.1956637498       18.9218873287       20.0616177079
H    1.0       18.7699684588       17.9288050242       20.2560954539
H    1.0       19.2493035005       19.0593511055       18.9738526421
H    1.0       18.5050248886       19.6767094832       20.4579058102
 $end
$$$$
! Edit this basic GAMESS input file as needed.
! Conformer was generated by a VeraChem VCPack run 
! and contains     16 atoms.
!
 $contrl scftyp=rhf runtyp=optimize nzvar=0
  maxit=200 icharg=0 $end
 $system mwords=50 $end
 $basis gbasis=pm3 $end
 $statpt nstep=200 $end
 $guess guess=huckel $end
 $data
VM2 Rank=4      G=-34.176           E=-44.394           -TS=10.218              
C1
C    6.0       20.1070677542       19.3610987468       24.4385113445
O    8.0       20.9072278006       20.1992133572       24.8040929595
O    8.0       20.1123130058       18.2115676701       24.8319737489
C    6.0       19.0237155045       19.7831913210       23.4497326129
H    1.0       18.6134748504       20.7377412041       23.8001220888
H    1.0       18.2067690037       19.0524932074       23.4917343344
C    6.0       19.5259524540       19.9406653561       21.9909646701
H    1.0       18.7222724192       20.3770104020       21.3824745734
H    1.0       20.3621207721       20.6533695568       21.9686445697
C    6.0       19.9656996980       18.5988670222       21.3661528707
H    1.0       19.1324836299       17.8833562671       21.4004059361
H    1.0       20.7841813129       18.1625078025       21.9555610267
C    6.0       20.4280237829       18.7783965266       19.9065717933
H    1.0       19.6181882064       19.1815926442       19.2844674285
H    1.0       20.7377271312       17.8163252140       19.4780631213
H    1.0       21.2815396501       19.4664561303       19.8471123692
 $end
$$$$
! Edit this basic GAMESS input file as needed.
! Conformer was generated by a VeraChem VCPack run 
! and contains     16 atoms.
!
 $contrl scftyp=rhf runtyp=optimize nzvar=0
  maxit=200 icharg=0 $end
 $system mwords=50 $end
 $basis gbasis=pm3 $end
 $statpt nstep=200 $end
 $guess guess=huckel $end
 $data
VM2 Rank=5      G=-34.119           E=-44.337           -TS=10.218              
C1
C    6.0       20.0068757847       19.4102324604       24.4377192213
O    8.0       20.1752324504       20.5581030984       24.7988161000
O    8.0       19.0903713137       18.7126163598       24.8245183679
C    6.0       21.0157411443       18.8065300005       23.4644644898
H    1.0       20.9378490353       17.7134779142       23.5119394571
H    1.0       22.0173364642       19.0688618744       23.8253285701
C    6.0       20.8501426546       19.2914491172       22.0007460077
H    1.0       20.9017872874       20.3887928698       21.9726100543
H    1.0       21.6944834780       18.9198045386       21.4044853440
C    6.0       19.5276505296       18.8136511657       21.3628494811
H    1.0       18.6744610933       19.1969351415       21.9398105828
H    1.0       19.4718065421       17.7169965401       21.4029291023
C    6.0       19.4039861227       19.2804177980       19.8988863322
H    1.0       20.2260582068       18.8834559708       19.2889405129
H    1.0       19.4260028313       20.3761587182       19.8331820337
H    1.0       18.4589516847       18.9335207298       19.4610628403
 $end
$$$$
! Edit this basic GAMESS input file as needed.
! Conformer was generated by a VeraChem VCPack run 
! and contains     16 atoms.
!
 $contrl scftyp=rhf runtyp=optimize nzvar=0
  maxit=200 icharg=0 $end
 $system mwords=50 $end
 $basis gbasis=pm3 $end
 $statpt nstep=200 $end
 $guess guess=huckel $end
 $data
VM2 Rank=6      G=-33.969           E=-44.385           -TS=10.416              
C1
C    6.0       20.0196112677       19.3904954143       24.6749330286
O    8.0       20.1520325085       20.5986740484       24.6515742652
O    8.0       19.9477632558       18.7519983520       25.7056961220
C    6.0       19.9367587715       18.6092917607       23.3623971258
H    1.0       18.9893924640       18.0573770781       23.3693048360
H    1.0       20.7416577178       17.8648571927       23.3732664713
C    6.0       20.0338681997       19.4665716875       22.0724403794
H    1.0       19.2283696326       20.2139903049       22.0698130396
H    1.0       20.9824428473       20.0212551872       22.0737744921
C    6.0       19.9414628593       18.5994995653       20.7992923732
H    1.0       18.9924420256       18.0455615140       20.7958541337
H    1.0       20.7475622866       17.8527043241       20.7998075321
C    6.0       20.0385031376       19.4564691717       19.5216667058
H    1.0       19.2247429987       20.1923336143       19.4796265226
H    1.0       19.9711272793       18.8249724394       18.6262260712
H    1.0       20.9928115460       19.9980555871       19.4836033814
 $end
$$$$
! Edit this basic GAMESS input file as needed.
! Conformer was generated by a VeraChem VCPack run 
! and contains     16 atoms.
!
 $contrl scftyp=rhf runtyp=optimize nzvar=0
  maxit=200 icharg=0 $end
 $system mwords=50 $end
 $basis gbasis=pm3 $end
 $statpt nstep=200 $end
 $guess guess=huckel $end
 $data
VM2 Rank=7      G=-33.020           E=-43.372           -TS=10.352              
C1
C    6.0       20.0626343489       19.5193088780       24.2841873044
O    8.0       20.7090372945       20.5481250436       24.2835915597
O    8.0       20.2324386561       18.6214270502       25.0852857301
C    6.0       18.9552793890       19.3578575072       23.2461847083
H    1.0       18.7521860777       20.3350614178       22.7933338805
H    1.0       18.0444000541       19.0700537445       23.7840953945
C    6.0       19.2597308240       18.2994491959       22.1508500264
H    1.0       19.4047183171       17.3233447368       22.6341241364
H    1.0       18.3820839676       18.1929537209       21.4991101308
C    6.0       20.5015116330       18.6174439605       21.2843340804
H    1.0       20.6794683758       17.7756162915       20.6011174413
H    1.0       21.3936359977       18.6922850413       21.9216018196
C    6.0       20.3493678545       19.9093883645       20.4535665907
H    1.0       21.2118257637       20.0408152242       19.7874186691
H    1.0       20.2923433002       20.7941404509       21.1004411570
H    1.0       19.4443653664       19.8747850392       19.8332128528
 $end
$$$$
! Edit this basic GAMESS input file as needed.
! Conformer was generated by a VeraChem VCPack run 
! and contains     16 atoms.
!
 $contrl scftyp=rhf runtyp=optimize nzvar=0
  maxit=200 icharg=0 $end
 $system mwords=50 $end
 $basis gbasis=pm3 $end
 $statpt nstep=200 $end
 $guess guess=huckel $end
 $data
VM2 Rank=8      G=-32.970           E=-43.322           -TS=10.352              
C1
C    6.0       19.9434165601       19.3534968532       24.3046420348
O    8.0       20.9343196581       19.5973408753       24.9645170228
O    8.0       19.1878615687       18.4328488807       24.5451493993
C    6.0       19.6144827277       20.2745841493       23.1328274826
H    1.0       19.6509544299       21.3040931586       23.5078761855
H    1.0       18.5787447777       20.0939790711       22.8231886496
C    6.0       20.5796333156       20.1350382131       21.9238228523
H    1.0       20.3185390303       20.8860084945       21.1660342448
H    1.0       21.5989643882       20.3748786791       22.2566809733
C    6.0       20.5843729231       18.7326861309       21.2700804995
H    1.0       20.8783118917       17.9754669525       22.0102274130
H    1.0       21.3529037229       18.7123383128       20.4851762069
C    6.0       19.2259132466       18.3470048975       20.6469607087
H    1.0       18.8919828273       19.1067612330       19.9284014831
H    1.0       18.4522154741       18.2348866391       21.4172250798
H    1.0       19.3056605090       17.3899396849       20.1154277738
 $end
