$$$$
! Edit this basic GAMESS input file as needed.
! Conformer was generated by a VeraChem VCPack run 
! and contains     29 atoms.
!
 $contrl scftyp=rhf runtyp=optimize nzvar=0
  maxit=200 icharg=0 $end
 $system mwords=50 $end
 $basis gbasis=pm3 $end
 $statpt nstep=200 $end
 $guess guess=huckel $end
 $data
VM2 Rank=1      G=33.702            E=-3.682            -TS=37.385              
C1
C    6.0       19.5306235394       19.9312941272       18.7439313051
H    1.0       20.3585966842       20.6519299095       18.7239623527
H    1.0       19.5231701568       19.3997224021       17.7834991777
H    1.0       18.5906472954       20.4925211282       18.8259234470
C    6.0       19.6876925279       18.9384475897       19.9150167830
H    1.0       20.6189586522       18.3688622832       19.7876699989
H    1.0       18.8646361193       18.2105792729       19.8888021376
C    6.0       19.7011125047       19.6615462099       21.2798982418
H    1.0       20.5239021481       20.3895641525       21.3005178665
H    1.0       18.7694126385       20.2312314530       21.4015329571
C    6.0       19.8583774058       18.6704607038       22.4550875378
H    1.0       20.7897490625       18.1006243480       22.3313988537
H    1.0       19.0351362120       17.9429138547       22.4338783860
C    6.0       19.8724063823       19.3942819856       23.8203957200
H    1.0       20.6981078088       20.1191609474       23.8420587108
H    1.0       18.9418350476       19.9661864309       23.9336671865
C    6.0       20.0288643550       18.3990887101       24.9957642213
H    1.0       20.9354119732       17.8002988780       24.8353661960
H    1.0       19.1855361496       17.6956939667       25.0018137077
C    6.0       20.1313745123       19.0989392345       26.3682307263
H    1.0       20.9618663019       19.8105690376       26.3292339428
C    6.0       20.4280611609       18.0708291826       27.4715335403
H    1.0       19.6208115626       17.3321807916       27.5533673876
H    1.0       21.3622682574       17.5343835230       27.2635822310
H    1.0       20.5383526967       18.5659560982       28.4442080128
N    7.0       18.8974876117       19.8911122565       26.7041419245
H    1.0       18.7119571276       20.6103587505       25.9999072975
H    1.0       18.9909226782       20.3638238777       27.6077396062
H    1.0       18.0709933470       19.2896895197       26.7565746569
 $end
