$$$$
! Edit this basic GAMESS input file as needed.
! Conformer was generated by a VeraChem VCPack run 
! and contains     26 atoms.
!
 $contrl scftyp=rhf runtyp=optimize nzvar=0
  maxit=200 icharg=0 $end
 $system mwords=50 $end
 $basis gbasis=pm3 $end
 $statpt nstep=200 $end
 $guess guess=huckel $end
 $data
VM2 Rank=1      G=75.466            E=43.303            -TS=32.163              
C1
N    7.0       19.9837372746       18.6238314632       26.4860960191
H    1.0       20.8628348144       18.0854529205       26.5331222892
H    1.0       19.2303539763       17.9187242144       26.4754683269
C    6.0       19.9441321937       19.4506574239       25.2165987654
H    1.0       20.7596605283       20.1767317046       25.2638310893
H    1.0       18.9974535965       19.9966183754       25.2014876430
C    6.0       20.0757310804       18.6064971001       23.9359227246
H    1.0       21.0203558532       18.0470095205       23.9629815550
H    1.0       19.2640502957       17.8675703880       23.9007788465
C    6.0       20.0303215394       19.4899718836       22.6694883053
H    1.0       20.8403968856       20.2315099971       22.7111161858
H    1.0       19.0861933621       20.0521374238       22.6488909743
C    6.0       20.1617849807       18.6528112014       21.3767184151
H    1.0       21.1058204950       18.0907471541       21.3970613096
H    1.0       19.3518275070       17.9113607182       21.3348609376
C    6.0       20.1162891242       19.5367322928       20.1102978027
H    1.0       20.9262786003       20.2787741178       20.1461837506
H    1.0       19.1724707501       20.0993234808       20.0839480233
C    6.0       20.2479018227       18.6974397181       18.8214414732
H    1.0       19.4312948096       17.9682632796       18.7398468002
H    1.0       21.1988379682       18.1492012899       18.8025132364
H    1.0       20.2133748341       19.3422103308       17.9336868434
C    6.0       19.8481019844       19.5320589170       27.7004364946
H    1.0       18.8966584276       20.0656262778       27.6454027001
H    1.0       19.8782037790       18.9242305428       28.6075138413
H    1.0       20.6736414599       20.2471773993       27.7080928820
 $end
$$$$
! Edit this basic GAMESS input file as needed.
! Conformer was generated by a VeraChem VCPack run 
! and contains     26 atoms.
!
 $contrl scftyp=rhf runtyp=optimize nzvar=0
  maxit=200 icharg=0 $end
 $system mwords=50 $end
 $basis gbasis=pm3 $end
 $statpt nstep=200 $end
 $guess guess=huckel $end
 $data
VM2 Rank=2      G=75.756            E=43.422            -TS=32.333              
C1
N    7.0       20.3923206694       19.0036136676       26.6222381144
H    1.0       20.8628792250       19.5629005546       27.3514654162
H    1.0       20.8763822285       18.0925254088       26.6321223910
C    6.0       20.5687285848       19.6777374429       25.2718158803
H    1.0       21.6300278844       19.9159602290       25.1642700901
H    1.0       20.0105278569       20.6171601587       25.2890488899
C    6.0       20.1225071551       18.8244469739       24.0670670673
H    1.0       20.6520287667       17.8626922273       24.0860491526
H    1.0       19.0501905252       18.6034048505       24.1454941701
C    6.0       20.4030958484       19.5463422284       22.7304614921
H    1.0       21.4764215923       19.7693720488       22.6529186159
H    1.0       19.8766805872       20.5109868285       22.7181333589
C    6.0       19.9616252715       18.7008619346       21.5140484598
H    1.0       20.4877186377       17.7361878164       21.5264461763
H    1.0       18.8883485777       18.4780462809       21.5912209516
C    6.0       20.2424724065       19.4231336096       20.1774012952
H    1.0       21.3154942763       19.6460607614       20.0941995113
H    1.0       19.7163225723       20.3879260400       20.1590651724
C    6.0       19.8002964928       18.5759737035       18.9650939897
H    1.0       20.3351946849       17.6177036346       18.9367240920
H    1.0       20.0077128142       19.1051639175       18.0259649535
H    1.0       18.7235008590       18.3653933924       19.0020827406
C    6.0       18.9169535714       18.8378904395       26.9688737012
H    1.0       18.8314906172       18.3853130822       27.9593098029
H    1.0       18.4361112866       19.8185211777       26.9690101771
H    1.0       18.4415081517       18.1917747018       26.2282403793
 $end
$$$$
! Edit this basic GAMESS input file as needed.
! Conformer was generated by a VeraChem VCPack run 
! and contains     26 atoms.
!
 $contrl scftyp=rhf runtyp=optimize nzvar=0
  maxit=200 icharg=0 $end
 $system mwords=50 $end
 $basis gbasis=pm3 $end
 $statpt nstep=200 $end
 $guess guess=huckel $end
 $data
VM2 Rank=3      G=75.762            E=43.429            -TS=32.333              
C1
N    7.0       19.4984326131       18.9122612557       26.5905961963
H    1.0       19.2090015879       17.9220992244       26.5731825711
H    1.0       18.8747456429       19.3597255962       27.2810952745
C    6.0       19.2842856317       19.5463797356       25.2263227086
H    1.0       19.6383721192       20.5791299240       25.2758145287
H    1.0       18.2069223451       19.5658154781       25.0430651232
C    6.0       19.9770488069       18.8095718984       24.0619205125
H    1.0       21.0637381458       18.8094233555       24.2167742984
H    1.0       19.6529856460       17.7604850615       24.0507184795
C    6.0       19.6504979699       19.4693035066       22.7038008493
H    1.0       19.9703603962       20.5205787498       22.7214424948
H    1.0       18.5623692332       19.4710656189       22.5496684466
C    6.0       20.3380388484       18.7393833456       21.5274143406
H    1.0       21.4261008795       18.7378456880       21.6811803770
H    1.0       20.0185137616       17.6881368369       21.5098727224
C    6.0       20.0111685022       19.3994034502       20.1692171925
H    1.0       20.3310353724       20.4508520598       20.1808742769
H    1.0       18.9237627178       19.4010366605       20.0094005456
C    6.0       20.6996005151       18.6680345081       18.9970223087
H    1.0       21.7914339637       18.6796619319       19.1108928977
H    1.0       20.4556313540       19.1509309838       18.0418694900
H    1.0       20.3732101781       17.6215124973       18.9381735140
C    6.0       20.9489271126       19.0456622998       27.0407058916
H    1.0       21.2204805491       20.1032040029       27.0673365241
H    1.0       21.0546155997       18.6127368012       28.0379518025
H    1.0       21.5957222811       18.5141792658       26.3398248423
 $end
$$$$
! Edit this basic GAMESS input file as needed.
! Conformer was generated by a VeraChem VCPack run 
! and contains     26 atoms.
!
 $contrl scftyp=rhf runtyp=optimize nzvar=0
  maxit=200 icharg=0 $end
 $system mwords=50 $end
 $basis gbasis=pm3 $end
 $statpt nstep=200 $end
 $guess guess=huckel $end
 $data
VM2 Rank=4      G=75.941            E=43.686            -TS=32.255              
C1
N    7.0       19.3272312641       19.1681043180       25.9039211871
H    1.0       18.7827760474       18.2915866018       25.9025672024
H    1.0       18.8266808796       19.8054020632       25.2663753693
C    6.0       20.7302928201       18.9115221119       25.3886268846
H    1.0       21.2210115841       18.2345495949       26.0925654698
H    1.0       21.2711370508       19.8612012388       25.3952800197
C    6.0       20.7755037390       18.2987500797       23.9749224597
H    1.0       21.8195800532       18.0572434209       23.7350849936
H    1.0       20.2254072210       17.3483116780       23.9693662884
C    6.0       20.2076725390       19.2478467942       22.8928480569
H    1.0       20.7444944851       20.2061474268       22.9287087871
H    1.0       19.1520575226       19.4658861460       23.1028449231
C    6.0       20.3292607878       18.6415720374       21.4762081365
H    1.0       21.3843835798       18.4261859771       21.2574736423
H    1.0       19.7953831403       17.6817732189       21.4401524550
C    6.0       19.7622758127       19.5869877017       20.3936228366
H    1.0       20.2945910843       20.5480784163       20.4243163362
H    1.0       18.7057686732       19.8032657808       20.6057323569
C    6.0       19.8861516283       18.9783354162       18.9804475861
H    1.0       19.4785856743       19.6637058268       18.2260059590
H    1.0       19.3346589610       18.0318368311       18.9083453654
H    1.0       20.9358239911       18.7825858743       18.7253532517
C    6.0       19.3896114091       19.7568815410       27.3064028525
H    1.0       19.9425601450       20.6983135559       27.2764239350
H    1.0       18.3736644141       19.9369406904       27.6649483915
H    1.0       19.8952287881       19.0516474641       27.9696801182
 $end
$$$$
! Edit this basic GAMESS input file as needed.
! Conformer was generated by a VeraChem VCPack run 
! and contains     26 atoms.
!
 $contrl scftyp=rhf runtyp=optimize nzvar=0
  maxit=200 icharg=0 $end
 $system mwords=50 $end
 $basis gbasis=pm3 $end
 $statpt nstep=200 $end
 $guess guess=huckel $end
 $data
VM2 Rank=5      G=75.944            E=43.689            -TS=32.255              
C1
N    7.0       20.5559096237       19.2934691215       25.9474755227
H    1.0       20.9610307793       20.0231640301       25.3420132368
H    1.0       21.2647064914       18.5448242419       25.9905591645
C    6.0       19.2730691413       18.7628264635       25.3369979349
H    1.0       18.5526663482       19.5838146528       25.2989630144
H    1.0       18.8809121669       17.9957631234       26.0096446410
C    6.0       19.4515360662       18.1636584719       23.9280095645
H    1.0       20.1809911240       17.3437315088       23.9678028181
H    1.0       18.4970333988       17.7183004766       23.6173277569
C    6.0       19.8907283640       19.2154661816       22.8816290741
H    1.0       20.8633778077       19.6403001997       23.1634654368
H    1.0       19.1705939511       20.0456078479       22.8730039159
C    6.0       19.9933253305       18.6073003239       21.4642943998
H    1.0       20.7108998283       17.7750986291       21.4725256861
H    1.0       19.0212326512       18.1852268005       21.1737608944
C    6.0       20.4324661798       19.6553396405       20.4173726928
H    1.0       21.4062057021       20.0785981454       20.7013757681
H    1.0       19.7165423833       20.4891676306       20.4039146451
C    6.0       20.5330278109       19.0443861443       19.0033381757
H    1.0       21.2676281344       18.2289997241       18.9767200373
H    1.0       20.8458832890       19.8032405210       18.2744447267
H    1.0       19.5648303086       18.6429451543       18.6767775565
C    6.0       20.2779374836       19.8475536527       27.3378826357
H    1.0       19.8797723386       19.0501184736       27.9691522393
H    1.0       21.2090075621       20.2262925682       27.7654220924
H    1.0       19.5499394099       20.6582807934       27.2624851598
 $end
$$$$
! Edit this basic GAMESS input file as needed.
! Conformer was generated by a VeraChem VCPack run 
! and contains     26 atoms.
!
 $contrl scftyp=rhf runtyp=optimize nzvar=0
  maxit=200 icharg=0 $end
 $system mwords=50 $end
 $basis gbasis=pm3 $end
 $statpt nstep=200 $end
 $guess guess=huckel $end
 $data
VM2 Rank=6      G=76.022            E=43.762            -TS=32.260              
C1
N    7.0       19.9279883122       18.8064564450       26.2895974002
H    1.0       20.7993662887       19.0415100537       26.7898867675
H    1.0       19.8664002071       17.7767037247       26.3146854760
C    6.0       20.0011555954       19.2912776552       24.8557094019
H    1.0       20.0759074493       20.3814673584       24.8736879768
H    1.0       19.0646202172       19.0178402679       24.3639879617
C    6.0       21.1918018686       18.7031197018       24.0742187443
H    1.0       22.1232862726       18.9473130390       24.6020760774
H    1.0       21.1176930985       17.6075813339       24.0576450293
C    6.0       21.2799567699       19.2401375180       22.6260884469
H    1.0       22.1972016904       18.8520535792       22.1618262527
H    1.0       21.3816634858       20.3341721896       22.6466639921
C    6.0       20.0625544637       18.8449883246       21.7556395136
H    1.0       19.9439116452       17.7526102872       21.7642982728
H    1.0       19.1429914568       19.2682756327       22.1814464125
C    6.0       20.2164561341       19.3333628242       20.2979073163
H    1.0       21.1298667563       18.9087092759       19.8582072588
H    1.0       20.3363367714       20.4257996470       20.2832849260
C    6.0       19.0011135126       18.9401577695       19.4311462662
H    1.0       19.1291379618       19.2949763699       18.4002526436
H    1.0       18.0756927322       19.3794990087       19.8258225683
H    1.0       18.8752732327       17.8500590496       19.3987454908
C    6.0       18.7269733435       19.4304997615       26.9866929106
H    1.0       18.8308299137       20.5177331398       26.9767027908
H    1.0       17.8152220185       19.1408404550       26.4596609410
H    1.0       18.6860616865       19.0733534717       28.0181567255
 $end
$$$$
! Edit this basic GAMESS input file as needed.
! Conformer was generated by a VeraChem VCPack run 
! and contains     26 atoms.
!
 $contrl scftyp=rhf runtyp=optimize nzvar=0
  maxit=200 icharg=0 $end
 $system mwords=50 $end
 $basis gbasis=pm3 $end
 $statpt nstep=200 $end
 $guess guess=huckel $end
 $data
VM2 Rank=7      G=76.058            E=43.798            -TS=32.260              
C1
N    7.0       20.0149802265       18.8153618045       26.2926968571
H    1.0       20.2811386662       17.8190583254       26.3294517767
H    1.0       19.0812406332       18.8662287908       26.7290265032
C    6.0       19.9461317456       19.2856168448       24.8537523762
H    1.0       20.9506712835       19.2102449015       24.4308167668
H    1.0       19.6519068949       20.3381536500       24.8586068334
C    6.0       18.9563597602       18.4749209407       23.9950227966
H    1.0       19.2509660287       17.4170143328       23.9915012483
H    1.0       17.9601302578       18.5223604578       24.4545926065
C    6.0       18.8633026595       18.9934699433       22.5404813682
H    1.0       18.5417785958       20.0443126063       22.5460921702
H    1.0       18.0780276086       18.4316509019       22.0158966283
C    6.0       20.1933018105       18.8583183953       21.7602669449
H    1.0       20.9764269434       19.4553618359       22.2464090832
H    1.0       20.5289953412       17.8123070717       21.7849899661
C    6.0       20.0465109085       19.3160488344       20.2918960638
H    1.0       19.7100256145       20.3619148613       20.2611384020
H    1.0       19.2706364088       18.7190205742       19.7923349920
C    6.0       21.3738474629       19.1823475668       19.5152057998
H    1.0       21.2493944796       19.5114401307       18.4753801831
H    1.0       21.7189713954       18.1403097143       19.4994516968
H    1.0       22.1616453629       19.7965044185       19.9705967257
C    6.0       21.0135654261       19.6639156702       27.0676777934
H    1.0       20.6934745093       20.7078869625       27.0425923465
H    1.0       21.0533266268       19.3150760430       28.1020249714
H    1.0       21.9996383502       19.5678870130       26.6079015341
 $end
$$$$
! Edit this basic GAMESS input file as needed.
! Conformer was generated by a VeraChem VCPack run 
! and contains     26 atoms.
!
 $contrl scftyp=rhf runtyp=optimize nzvar=0
  maxit=200 icharg=0 $end
 $system mwords=50 $end
 $basis gbasis=pm3 $end
 $statpt nstep=200 $end
 $guess guess=huckel $end
 $data
VM2 Rank=8      G=76.061            E=43.581            -TS=32.479              
C1
N    7.0       19.5903159823       19.7661531118       26.0203507505
H    1.0       18.9705701956       19.9966288142       26.8132478837
H    1.0       19.4496017631       20.5282212865       25.3405106918
C    6.0       19.1662100847       18.4381484111       25.4124434537
H    1.0       18.0900818871       18.4922913392       25.2290370004
H    1.0       19.3404577770       17.6613565110       26.1612669076
C    6.0       19.8804506134       18.0565225769       24.0972866855
H    1.0       20.9568916987       17.9406786917       24.2781860014
H    1.0       19.5134402570       17.0718016524       23.7789671419
C    6.0       19.6409634056       19.0832072482       22.9649389679
H    1.0       20.0433965490       20.0619174896       23.2587050783
H    1.0       18.5606935250       19.2143260689       22.8117299064
C    6.0       20.3003994546       18.6402121145       21.6390573487
H    1.0       21.3801325879       18.5057695301       21.7927642731
H    1.0       19.8987148720       17.6630817471       21.3368048675
C    6.0       20.0652678459       19.6654466532       20.5073314505
H    1.0       20.4682016051       20.6442246837       20.8033234969
H    1.0       18.9863390179       19.8020667778       20.3484749035
C    6.0       20.7248003171       19.2193587719       19.1848796922
H    1.0       21.8104446749       19.1071718792       19.3031509344
H    1.0       20.5470595127       19.9595611650       18.3939756547
H    1.0       20.3169695194       18.2585941301       18.8445768324
C    6.0       21.0395922963       19.7209511124       26.4907116510
H    1.0       21.1546642030       18.9173202094       27.2212766856
H    1.0       21.6917034572       19.5396906421       25.6339323339
H    1.0       21.2958165424       20.6776229337       26.9513328499
 $end
