$$$$
! Edit this basic GAMESS input file as needed.
! Conformer was generated by a VeraChem VCPack run 
! and contains     20 atoms.
!
 $contrl scftyp=rhf runtyp=optimize nzvar=0
  maxit=200 icharg=0 $end
 $system mwords=50 $end
 $basis gbasis=pm3 $end
 $statpt nstep=200 $end
 $guess guess=huckel $end
 $data
VM2 Rank=1      G=2.705             E=-20.181           -TS=22.887              
C1
N    7.0       20.3911806674       20.1731487412       24.1279726622
H    1.0       20.3064969285       20.4446183013       25.1112263172
H    1.0       20.0069674817       20.9379973365       23.5676416122
H    1.0       21.3895270825       20.1069866706       23.9147319414
C    6.0       19.6810954105       18.8752374741       23.8517926979
H    1.0       18.6271255039       19.0338573066       24.1005384039
C    6.0       20.2261379177       17.7582268489       24.7568826123
H    1.0       19.6673004161       16.8262575762       24.6059743489
H    1.0       20.1318736910       18.0342685290       25.8143226364
H    1.0       21.2848196057       17.5590804974       24.5487328014
C    6.0       19.7688472519       18.4547251728       22.3680095147
H    1.0       20.8204167238       18.3118138595       22.0857095157
H    1.0       19.2771900610       17.4802734521       22.2464117484
C    6.0       19.1035699720       19.4719445943       21.4097898098
H    1.0       19.6146400526       20.4422199302       21.4714311883
H    1.0       18.0612377734       19.6411716587       21.7149898570
C    6.0       19.1341687805       18.9807171688       19.9465527032
H    1.0       20.1656359645       18.8311806672       19.6016315049
H    1.0       18.6599690965       19.7140374060       19.2813757854
H    1.0       18.5959868886       18.0301510242       19.8369320330
 $end
$$$$
! Edit this basic GAMESS input file as needed.
! Conformer was generated by a VeraChem VCPack run 
! and contains     20 atoms.
!
 $contrl scftyp=rhf runtyp=optimize nzvar=0
  maxit=200 icharg=0 $end
 $system mwords=50 $end
 $basis gbasis=pm3 $end
 $statpt nstep=200 $end
 $guess guess=huckel $end
 $data
VM2 Rank=2      G=3.182             E=-19.721           -TS=22.903              
C1
N    7.0       20.6729201829       20.0593805603       24.6125248986
H    1.0       20.4990109481       19.9950362154       25.6191504561
H    1.0       20.5583311826       21.0416966032       24.3483599029
H    1.0       21.6536069337       19.8127588963       24.4571021814
C    6.0       19.7478188925       19.1634227133       23.8354051871
H    1.0       18.7310335050       19.4974493576       24.0643935463
C    6.0       19.8976849122       17.7048218401       24.3053233805
H    1.0       19.1314206086       17.0607564053       23.8589574601
H    1.0       19.7835254985       17.6360499531       25.3941117180
H    1.0       20.8830855592       17.3015500045       24.0408692716
C    6.0       19.9739505722       19.3115666650       22.3127734015
H    1.0       19.9613998095       20.3805273133       22.0621175760
H    1.0       20.9743130938       18.9427618555       22.0498959517
C    6.0       18.9090999397       18.5919897646       21.4493680143
H    1.0       17.9039467439       18.9144146929       21.7556031728
H    1.0       18.9582779490       17.5067177350       21.6095766382
C    6.0       19.1035255005       18.8828184567       19.9456051179
H    1.0       18.3432862442       18.3624841806       19.3486324571
H    1.0       20.0901092796       18.5449616195       19.6024352351
H    1.0       19.0181163570       19.9570310763       19.7358213564
 $end
$$$$
! Edit this basic GAMESS input file as needed.
! Conformer was generated by a VeraChem VCPack run 
! and contains     20 atoms.
!
 $contrl scftyp=rhf runtyp=optimize nzvar=0
  maxit=200 icharg=0 $end
 $system mwords=50 $end
 $basis gbasis=pm3 $end
 $statpt nstep=200 $end
 $guess guess=huckel $end
 $data
VM2 Rank=3      G=3.269             E=-19.760           -TS=23.029              
C1
N    7.0       20.2984144195       20.2325986275       24.2273053971
H    1.0       20.6865054857       20.2777046720       25.1733517913
H    1.0       19.6668983760       21.0309301020       24.1197625644
H    1.0       21.0731568661       20.3632238548       23.5729669891
C    6.0       19.5878520677       18.9286160465       23.9851905487
H    1.0       18.7946689903       18.8719885960       24.7373053855
C    6.0       20.5307478478       17.7340631078       24.2150426784
H    1.0       20.0095652617       16.7855324334       24.0357959802
H    1.0       20.8913229841       17.7239456973       25.2508845909
H    1.0       21.4064174542       17.7751501384       23.5565908614
C    6.0       18.9067657975       18.8734833232       22.5966187051
H    1.0       18.3347123445       17.9392590100       22.5210114258
H    1.0       18.1682759419       19.6839322552       22.5399484751
C    6.0       19.8731893540       18.9808412152       21.3887922132
H    1.0       20.5886485061       18.1477615507       21.3992172565
H    1.0       20.4605195503       19.9065553343       21.4540517074
C    6.0       19.1080305135       18.9643976798       20.0480504574
H    1.0       19.8047713709       19.0388604609       19.2030219014
H    1.0       18.4080049522       19.8074892647       19.9818452221
H    1.0       18.5356381837       18.0349296376       19.9310931157
 $end
$$$$
! Edit this basic GAMESS input file as needed.
! Conformer was generated by a VeraChem VCPack run 
! and contains     20 atoms.
!
 $contrl scftyp=rhf runtyp=optimize nzvar=0
  maxit=200 icharg=0 $end
 $system mwords=50 $end
 $basis gbasis=pm3 $end
 $statpt nstep=200 $end
 $guess guess=huckel $end
 $data
VM2 Rank=4      G=3.365             E=-19.710           -TS=23.075              
C1
N    7.0       20.0485033339       20.2198096451       23.9724591322
H    1.0       19.5920422257       20.5335694129       24.8331209786
H    1.0       19.7980269556       20.8827663597       23.2344700701
H    1.0       21.0584910912       20.2892792704       24.1191523939
C    6.0       19.6392958918       18.8178950686       23.6100243575
H    1.0       18.5536243047       18.8319422057       23.4749355222
C    6.0       19.9662468010       17.8438905657       24.7536736769
H    1.0       19.4769617687       18.1585549740       25.6836329277
H    1.0       21.0469193866       17.7934321223       24.9363067015
H    1.0       19.6121801328       16.8326932476       24.5175819835
C    6.0       20.2855052660       18.3357737680       22.2913293108
H    1.0       21.3763047961       18.2990198605       22.4123246584
H    1.0       19.9643683951       17.3046700214       22.0922702556
C    6.0       19.9414871035       19.2099560603       21.0587064219
H    1.0       20.4477695536       18.7915954743       20.1774832170
H    1.0       20.3463909213       20.2230382843       21.1863091110
C    6.0       18.4239616038       19.2866748924       20.7748071007
H    1.0       17.8841732637       19.7854600538       21.5895089817
H    1.0       17.9961026994       18.2842808161       20.6431974884
H    1.0       18.2330944521       19.8550276454       19.8552350714
 $end
$$$$
! Edit this basic GAMESS input file as needed.
! Conformer was generated by a VeraChem VCPack run 
! and contains     20 atoms.
!
 $contrl scftyp=rhf runtyp=optimize nzvar=0
  maxit=200 icharg=0 $end
 $system mwords=50 $end
 $basis gbasis=pm3 $end
 $statpt nstep=200 $end
 $guess guess=huckel $end
 $data
VM2 Rank=5      G=3.525             E=-19.636           -TS=23.161              
C1
N    7.0       20.3129111379       20.0923789381       24.6250810483
H    1.0       19.7915216525       20.0632001755       25.5053858656
H    1.0       20.3189232356       21.0661003431       24.3093906260
H    1.0       21.2797881236       19.8327152739       24.8358110947
C    6.0       19.7071567774       19.1784363666       23.5954463543
H    1.0       18.6822607710       19.5284392382       23.4399440100
C    6.0       19.6524382249       17.7346243237       24.1269691836
H    1.0       19.1505597710       17.7001119098       25.1016804101
H    1.0       20.6598497520       17.3175141065       24.2479230352
H    1.0       19.0895009751       17.0824227429       23.4492756655
C    6.0       20.4628164470       19.2734965673       22.2484614116
H    1.0       20.5390948736       20.3307641765       21.9622909684
H    1.0       21.4934730979       18.9198920771       22.3842705165
C    6.0       19.8115518785       18.4968114896       21.0755519290
H    1.0       19.8398357550       17.4163855878       21.2708791526
H    1.0       20.4157921606       18.6538795534       20.1710835738
C    6.0       18.3581255343       18.9382523148       20.7894900732
H    1.0       18.3042829299       20.0171078972       20.5937100360
H    1.0       17.6936235655       18.7083756152       21.6319017780
H    1.0       17.9647857632       18.4176923693       19.9066994383
 $end
$$$$
! Edit this basic GAMESS input file as needed.
! Conformer was generated by a VeraChem VCPack run 
! and contains     20 atoms.
!
 $contrl scftyp=rhf runtyp=optimize nzvar=0
  maxit=200 icharg=0 $end
 $system mwords=50 $end
 $basis gbasis=pm3 $end
 $statpt nstep=200 $end
 $guess guess=huckel $end
 $data
VM2 Rank=6      G=5.473             E=-17.432           -TS=22.905              
C1
N    7.0       20.4416399269       20.1738315880       23.6449119130
H    1.0       20.2929347008       20.7282235212       24.4923686509
H    1.0       20.1632554706       20.7487013206       22.8467840906
H    1.0       21.4469546727       20.0032941838       23.5634545287
C    6.0       19.6680551198       18.8841933454       23.6853691300
H    1.0       18.6138919544       19.1448987118       23.8214225391
C    6.0       20.1157679728       18.0452558000       24.8942924363
H    1.0       21.1661641466       17.7424226779       24.8003740988
H    1.0       19.5056379798       17.1383426755       24.9886014510
H    1.0       20.0061778319       18.6152839374       25.8250952205
C    6.0       19.8012677332       18.0636301603       22.3803152120
H    1.0       20.8560536380       18.0046021559       22.0811228336
H    1.0       19.4891375272       17.0304340101       22.5832041845
C    6.0       18.9384905416       18.5777035866       21.1979636841
H    1.0       17.8790325002       18.5892240206       21.4902844119
H    1.0       19.0173093323       17.8521546691       20.3761412124
C    6.0       19.3397787057       19.9693855197       20.6581476245
H    1.0       18.8254058008       20.1703334880       19.7092918845
H    1.0       20.4196506077       20.0285929052       20.4692333020
H    1.0       19.0545999523       20.7694725994       21.3509448943
 $end
$$$$
! Edit this basic GAMESS input file as needed.
! Conformer was generated by a VeraChem VCPack run 
! and contains     20 atoms.
!
 $contrl scftyp=rhf runtyp=optimize nzvar=0
  maxit=200 icharg=0 $end
 $system mwords=50 $end
 $basis gbasis=pm3 $end
 $statpt nstep=200 $end
 $guess guess=huckel $end
 $data
VM2 Rank=7      G=5.930             E=-17.088           -TS=23.018              
C1
N    7.0       20.3127158760       19.9500346990       24.7197523314
H    1.0       21.3009667566       19.7331002888       24.8719794934
H    1.0       19.8274275088       19.7973086295       25.6079553264
H    1.0       20.2465766665       20.9492509818       24.5071719168
C    6.0       19.7250760368       19.1083990826       23.6193396716
H    1.0       18.6774854897       19.4121995257       23.5297867723
C    6.0       19.7757194803       17.6196417534       24.0104886464
H    1.0       20.8100483724       17.2845399941       24.1572431543
H    1.0       19.3228595474       16.9852246473       23.2409286558
H    1.0       19.2280658287       17.4470012398       24.9450465018
C    6.0       20.4197055712       19.3673184937       22.2596784987
H    1.0       20.9760248892       20.3123978572       22.3145085108
H    1.0       21.1721772034       18.5928540467       22.0596634633
C    6.0       19.4387647436       19.4784205406       21.0650272525
H    1.0       20.0115552827       19.7386255165       20.1638408535
H    1.0       18.7442456252       20.3128984465       21.2364029753
C    6.0       18.6330182921       18.1901854307       20.7867135995
H    1.0       19.2985394272       17.3274942510       20.6530186464
H    1.0       18.0394263530       18.2999148006       19.8698440572
H    1.0       17.9351909703       17.9692901869       21.6039480545
 $end
$$$$
! Edit this basic GAMESS input file as needed.
! Conformer was generated by a VeraChem VCPack run 
! and contains     20 atoms.
!
 $contrl scftyp=rhf runtyp=optimize nzvar=0
  maxit=200 icharg=0 $end
 $system mwords=50 $end
 $basis gbasis=pm3 $end
 $statpt nstep=200 $end
 $guess guess=huckel $end
 $data
VM2 Rank=8      G=5.948             E=-17.185           -TS=23.133              
C1
N    7.0       20.6494634877       19.8404618236       24.7412873427
H    1.0       20.5502092497       19.4722514198       25.6911214656
H    1.0       20.4666626213       20.8466169620       24.7865457705
H    1.0       21.6280335383       19.7186956565       24.4687769987
C    6.0       19.7192099264       19.1489291938       23.7825601912
H    1.0       18.7061418532       19.3280351746       24.1559408381
C    6.0       19.9723027207       17.6316904422       23.7961581373
H    1.0       19.9765694750       17.2487488211       24.8240109758
H    1.0       20.9372148184       17.3847619650       23.3363493726
H    1.0       19.1816474918       17.0969844484       23.2576794580
C    6.0       19.8242257553       19.7636722889       22.3653794956
H    1.0       19.6663057195       20.8458683708       22.4633887941
H    1.0       20.8436829381       19.6452016046       21.9749948161
C    6.0       18.7909549771       19.2269330732       21.3397552017
H    1.0       18.4774364646       20.0571366075       20.6912289457
H    1.0       17.8813440778       18.8880629071       21.8552557475
C    6.0       19.3488431328       18.1023131783       20.4358596314
H    1.0       20.2136401889       18.4556273684       19.8593068564
H    1.0       18.5855730904       17.7709535910       19.7198965584
H    1.0       19.6643908236       17.2261400040       21.0131724089
 $end
