$$$$
! Edit this basic GAMESS input file as needed.
! Conformer was generated by a VeraChem VCPack run 
! and contains     23 atoms.
!
 $contrl scftyp=rhf runtyp=optimize nzvar=0
  maxit=200 icharg=0 $end
 $system mwords=50 $end
 $basis gbasis=pm3 $end
 $statpt nstep=200 $end
 $guess guess=huckel $end
 $data
VM2 Rank=1      G=37.916            E=10.396            -TS=27.520              
C1
N    7.0       19.7414520615       18.6610087485       26.4278196112
H    1.0       20.7321493877       18.4175183066       26.5283930231
H    1.0       19.2107951000       17.7844777523       26.4591274890
H    1.0       19.4803261790       19.1972582445       27.2622918729
C    6.0       19.4763126464       19.4375820742       25.1540329492
H    1.0       20.0476434762       20.3686273830       25.2012841673
H    1.0       18.4123885299       19.6882283720       25.1268478212
C    6.0       19.8579014016       18.6596092777       23.8821339939
H    1.0       20.9232444007       18.3957976296       23.9214784606
H    1.0       19.2937245269       17.7180246377       23.8471748634
C    6.0       19.5728508599       19.4846718637       22.6076930223
H    1.0       20.1349959087       20.4281195034       22.6489411622
H    1.0       18.5071562922       19.7511536011       22.5747619848
C    6.0       19.9524817259       18.7124939727       21.3237058708
H    1.0       21.0180441786       18.4460061745       21.3564621148
H    1.0       19.3903935892       17.7691752169       21.2822600632
C    6.0       19.6673340616       19.5379390213       20.0493078146
H    1.0       20.2293957934       20.4817570149       20.0848757594
H    1.0       18.6018897571       19.8049740180       20.0106603533
C    6.0       20.0476672431       18.7636950419       18.7693067380
H    1.0       21.1162351024       18.5119951511       18.7629798035
H    1.0       19.8381643705       19.3655904131       17.8755072211
H    1.0       19.4760116888       17.8299639125       18.6881534100
 $end
$$$$
! Edit this basic GAMESS input file as needed.
! Conformer was generated by a VeraChem VCPack run 
! and contains     23 atoms.
!
 $contrl scftyp=rhf runtyp=optimize nzvar=0
  maxit=200 icharg=0 $end
 $system mwords=50 $end
 $basis gbasis=pm3 $end
 $statpt nstep=200 $end
 $guess guess=huckel $end
 $data
VM2 Rank=2      G=38.223            E=10.600            -TS=27.622              
C1
N    7.0       18.7297906427       18.7423483970       25.7154642194
H    1.0       18.4302129578       19.0734151107       26.6388498918
H    1.0       18.7751555983       17.7195356268       25.7652462400
H    1.0       17.9833622544       18.9808701429       25.0555477065
C    6.0       20.0586540250       19.3464625113       25.3050888733
H    1.0       20.7923743842       19.0857146381       26.0727182770
H    1.0       19.9484184812       20.4342021409       25.2950384784
C    6.0       20.5632435177       18.8634770634       23.9314136004
H    1.0       21.5692457290       19.2723323186       23.7677702141
H    1.0       20.6676215338       17.7703368384       23.9429016444
C    6.0       19.6389764349       19.2961215882       22.7685337333
H    1.0       19.5165462872       20.3880995065       22.7854207929
H    1.0       18.6397336401       18.8611554994       22.9040182974
C    6.0       20.2011986181       18.8613178722       21.3960289365
H    1.0       21.1993724381       19.2977626007       21.2523270077
H    1.0       20.3265343666       17.7697476011       21.3794531479
C    6.0       19.2795347816       19.2914149459       20.2331128698
H    1.0       19.1526647594       20.3830854935       20.2443126667
H    1.0       18.2802568224       18.8548866826       20.3703504228
C    6.0       19.8446019800       18.8558576220       18.8643577673
H    1.0       19.1768805668       19.1698763014       18.0515959673
H    1.0       19.9508666414       17.7645224934       18.8103118559
H    1.0       20.8299677152       19.3046750567       18.6831261821
 $end
$$$$
! Edit this basic GAMESS input file as needed.
! Conformer was generated by a VeraChem VCPack run 
! and contains     23 atoms.
!
 $contrl scftyp=rhf runtyp=optimize nzvar=0
  maxit=200 icharg=0 $end
 $system mwords=50 $end
 $basis gbasis=pm3 $end
 $statpt nstep=200 $end
 $guess guess=huckel $end
 $data
VM2 Rank=3      G=38.379            E=10.761            -TS=27.618              
C1
N    7.0       19.5096796951       18.2598542779       26.0548431909
H    1.0       20.4067163091       17.7705937183       26.1372298969
H    1.0       18.7900506587       17.6263238639       26.4192707734
H    1.0       19.5460669357       19.0648573048       26.6884815292
C    6.0       19.2219746583       18.6768367957       24.6268647034
H    1.0       18.2432565032       19.1638423408       24.6080645788
H    1.0       19.1674616490       17.7709131227       24.0177488483
C    6.0       20.2860394221       19.6299360886       24.0504716103
H    1.0       20.3621261681       20.5150258645       24.6960521344
H    1.0       21.2692069360       19.1410731827       24.0702772230
C    6.0       19.9615187036       20.0868574781       22.6086172240
H    1.0       20.7076748882       20.8317067232       22.2989375034
H    1.0       18.9889153702       20.5982748813       22.5965481336
C    6.0       19.9519847721       18.9222291488       21.5892981882
H    1.0       20.9140338680       18.3926967845       21.6276733284
H    1.0       19.1763704813       18.1931171562       21.8592511422
C    6.0       19.6977216417       19.4218661039       20.1496862196
H    1.0       20.4735680999       20.1465889933       19.8654361970
H    1.0       18.7365652045       19.9531112544       20.1056977381
C    6.0       19.6870811071       18.2594201070       19.1342188636
H    1.0       20.6483777563       17.7292074191       19.1310300292
H    1.0       19.5056200278       18.6337928713       18.1183641011
H    1.0       18.8976140550       17.5345593034       19.3719991109
 $end
$$$$
! Edit this basic GAMESS input file as needed.
! Conformer was generated by a VeraChem VCPack run 
! and contains     23 atoms.
!
 $contrl scftyp=rhf runtyp=optimize nzvar=0
  maxit=200 icharg=0 $end
 $system mwords=50 $end
 $basis gbasis=pm3 $end
 $statpt nstep=200 $end
 $guess guess=huckel $end
 $data
VM2 Rank=4      G=38.445            E=10.827            -TS=27.618              
C1
N    7.0       20.2168210781       18.5539986597       26.0871114726
H    1.0       21.1422351399       18.6045819168       26.5265236327
H    1.0       19.9269139083       17.5711511549       26.1154496205
H    1.0       19.5723099155       19.0758807417       26.6896858139
C    6.0       20.2344597783       19.0978937585       24.6730235717
H    1.0       20.9612506231       18.5168651432       24.0995483336
H    1.0       20.5783316178       20.1349346835       24.7144673679
C    6.0       18.8574590185       19.0357862872       23.9853706854
H    1.0       18.5117159194       17.9942506506       23.9446307959
H    1.0       18.1274363457       19.5856334867       24.5942068222
C    6.0       18.8736812718       19.6344008941       22.5590355309
H    1.0       19.1953179682       20.6841621520       22.6059450837
H    1.0       17.8465994757       19.6416592086       22.1685218014
C    6.0       19.7839597071       18.8523652689       21.5816534774
H    1.0       20.8236962923       18.8785410071       21.9342449971
H    1.0       19.4806660302       17.7963998264       21.5625040124
C    6.0       19.7201683764       19.4311484195       20.1506704801
H    1.0       20.0219698472       20.4878942487       20.1641035062
H    1.0       18.6844893985       19.4020978643       19.7839505212
C    6.0       20.6294507697       18.6514067121       19.1771347819
H    1.0       20.5703156196       19.0765744491       18.1667976969
H    1.0       20.3305524624       17.5967790133       19.1167402762
H    1.0       21.6784042281       18.6916135172       19.4985381238
 $end
$$$$
! Edit this basic GAMESS input file as needed.
! Conformer was generated by a VeraChem VCPack run 
! and contains     23 atoms.
!
 $contrl scftyp=rhf runtyp=optimize nzvar=0
  maxit=200 icharg=0 $end
 $system mwords=50 $end
 $basis gbasis=pm3 $end
 $statpt nstep=200 $end
 $guess guess=huckel $end
 $data
VM2 Rank=5      G=38.523            E=10.893            -TS=27.630              
C1
N    7.0       19.5473768429       18.7521528462       26.3216462519
H    1.0       18.8411481197       18.9693972195       27.0330709103
H    1.0       20.4083584911       19.2339335673       26.5999852589
H    1.0       19.7317879112       17.7456139281       26.3828132829
C    6.0       19.0936072259       19.1607973368       24.9349265304
H    1.0       18.8875815208       20.2344927971       24.9499681328
H    1.0       18.1602825400       18.6347645422       24.7165600959
C    6.0       20.1322700823       18.8479122474       23.8431983056
H    1.0       21.0727996155       19.3649764996       24.0758022880
H    1.0       20.3479724942       17.7710797504       23.8422973345
C    6.0       19.6321940329       19.2790570324       22.4466361121
H    1.0       19.4159059676       20.3564252449       22.4517540313
H    1.0       18.6865318402       18.7647793699       22.2298843852
C    6.0       20.6694738042       18.9645641240       21.3417828442
H    1.0       21.6298030062       19.4269645090       21.6089132503
H    1.0       20.8494589394       17.8814430566       21.2995018288
C    6.0       20.2523568253       19.4738886068       19.9408274058
H    1.0       21.0844884478       19.3063687165       19.2427233643
H    1.0       20.0924385953       20.5607216108       19.9727636104
C    6.0       18.9887211867       18.7786278064       19.3849825500
H    1.0       19.1121624844       17.6879564255       19.3702853491
H    1.0       18.7903290691       19.1075856210       18.3566973709
H    1.0       18.1009123638       19.0165915222       19.9838042746
 $end
$$$$
! Edit this basic GAMESS input file as needed.
! Conformer was generated by a VeraChem VCPack run 
! and contains     23 atoms.
!
 $contrl scftyp=rhf runtyp=optimize nzvar=0
  maxit=200 icharg=0 $end
 $system mwords=50 $end
 $basis gbasis=pm3 $end
 $statpt nstep=200 $end
 $guess guess=huckel $end
 $data
VM2 Rank=6      G=38.559            E=10.928            -TS=27.630              
C1
N    7.0       19.8212889342       18.8659740685       26.3341454601
H    1.0       18.8542624541       18.5872544951       26.5292050591
H    1.0       20.1080270941       19.4962709029       27.0908392590
H    1.0       20.3997698028       18.0233707754       26.4132097748
C    6.0       19.9579614769       19.5203507876       24.9743657041
H    1.0       21.0024374611       19.8171970423       24.8461360573
H    1.0       19.3411442299       20.4231348608       24.9707490576
C    6.0       19.5351522330       18.5994947403       23.8159839962
H    1.0       20.1462526655       17.6871569581       23.8330694255
H    1.0       18.4908483672       18.2908104381       23.9581055087
C    6.0       19.6892414987       19.3028416488       22.4492664010
H    1.0       20.7339889219       19.6164409747       22.3231765623
H    1.0       19.0779947411       20.2159371821       22.4364808885
C    6.0       19.2692870029       18.3823648931       21.2779771986
H    1.0       19.9128678892       17.4920345523       21.2567954446
H    1.0       18.2470105875       18.0202771297       21.4547509039
C    6.0       19.3102851132       19.0822564123       19.8979230665
H    1.0       18.6509836867       19.9614820326       19.9072053191
H    1.0       18.8985304939       18.3976773905       19.1431608725
C    6.0       20.7327837411       19.5037174494       19.4643381734
H    1.0       21.1415162931       20.2805799712       20.1222438826
H    1.0       20.7189531196       19.9095319142       18.4445006679
H    1.0       21.4190589192       18.6470215118       19.4751306024
 $end
$$$$
! Edit this basic GAMESS input file as needed.
! Conformer was generated by a VeraChem VCPack run 
! and contains     23 atoms.
!
 $contrl scftyp=rhf runtyp=optimize nzvar=0
  maxit=200 icharg=0 $end
 $system mwords=50 $end
 $basis gbasis=pm3 $end
 $statpt nstep=200 $end
 $guess guess=huckel $end
 $data
VM2 Rank=7      G=38.645            E=11.025            -TS=27.619              
C1
N    7.0       19.3994183293       18.2117380207       26.0666478438
H    1.0       18.6478083004       17.5624608084       25.8129830448
H    1.0       19.1881493934       18.5585880207       27.0085296729
H    1.0       20.2616553039       17.6619496462       26.1383824070
C    6.0       19.5314207623       19.3428315682       25.0670531482
H    1.0       20.3260108705       20.0088138048       25.4142937886
H    1.0       18.5916476527       19.9016759191       25.0636242590
C    6.0       19.8495027400       18.8557602921       23.6422032845
H    1.0       20.7855564916       18.2816787929       23.6536712786
H    1.0       19.0552778132       18.1743190349       23.3124519220
C    6.0       19.9777342644       20.0417382129       22.6573224623
H    1.0       20.7192870295       20.7518556994       23.0491998965
H    1.0       19.0250827144       20.5872949159       22.6081591951
C    6.0       20.4084207782       19.6197553149       21.2308453072
H    1.0       20.5870372604       20.5278320130       20.6384618733
H    1.0       21.3694582522       19.0891699413       21.2778820594
C    6.0       19.3632319229       18.7422519059       20.5019625193
H    1.0       18.3885694538       19.2499815763       20.5002353735
H    1.0       19.2267750820       17.7922781259       21.0354837799
C    6.0       19.7862712029       18.4429246853       19.0479654348
H    1.0       19.0359962908       17.8176098047       18.5468589457
H    1.0       20.7447006319       17.9083701225       19.0180557873
H    1.0       19.8932686026       19.3693506731       18.4687379275
 $end
$$$$
! Edit this basic GAMESS input file as needed.
! Conformer was generated by a VeraChem VCPack run 
! and contains     23 atoms.
!
 $contrl scftyp=rhf runtyp=optimize nzvar=0
  maxit=200 icharg=0 $end
 $system mwords=50 $end
 $basis gbasis=pm3 $end
 $statpt nstep=200 $end
 $guess guess=huckel $end
 $data
VM2 Rank=8      G=38.653            E=11.034            -TS=27.619              
C1
N    7.0       20.3275434177       18.5978147070       26.1089056692
H    1.0       20.1571810991       18.9616242316       27.0526744998
H    1.0       21.3344778138       18.6802433329       25.9353667797
H    1.0       20.1061353055       17.5971426276       26.1312000426
C    6.0       19.5114800575       19.3344990846       25.0661582985
H    1.0       19.7755302962       20.3942694731       25.1176996949
H    1.0       18.4552908775       19.2303202333       25.3290129410
C    6.0       19.7437229615       18.8118151810       23.6373581255
H    1.0       20.8092446343       18.9042873142       23.3924002533
H    1.0       19.4924745023       17.7436648131       23.5946235033
C    6.0       18.8902855020       19.5893573254       22.6077704831
H    1.0       19.1763857270       20.6503415646       22.6150600375
H    1.0       17.8366142276       19.5524982690       22.9178556521
C    6.0       18.9974245306       19.0327617927       21.1665497456
H    1.0       18.6949647295       17.9764795732       21.1560188297
H    1.0       18.2750033546       19.5659437844       20.5331073508
C    6.0       20.4088629989       19.1773685284       20.5495988376
H    1.0       21.1359517180       18.5867877658       21.1225487583
H    1.0       20.7335002707       20.2257401426       20.6069368746
C    6.0       20.4366805319       18.7133833810       19.0776588405
H    1.0       20.1449220065       17.6585905707       18.9909359682
H    1.0       21.4448862531       18.8197457984       18.6566535635
H    1.0       19.7504528106       19.3096486843       18.4622113194
 $end
