$$$$
! Edit this basic GAMESS input file as needed.
! Conformer was generated by a VeraChem VCPack run 
! and contains     20 atoms.
!
 $contrl scftyp=rhf runtyp=optimize nzvar=0
  maxit=200 icharg=0 $end
 $system mwords=50 $end
 $basis gbasis=pm3 $end
 $statpt nstep=200 $end
 $guess guess=huckel $end
 $data
VM2 Rank=1      G=53.936            E=31.434            -TS=22.502              
C1
C    6.0       19.8543574484       19.1510185397       18.8169569981
H    1.0       20.0357327642       20.2331368594       18.7809044871
H    1.0       20.3379087815       18.6998890026       17.9407808695
H    1.0       18.7731778844       18.9828080251       18.7278940113
C    6.0       20.4072299439       18.5374278429       20.1215885742
H    1.0       21.4948075843       18.6911510183       20.1651267651
H    1.0       20.2421056000       17.4506874152       20.1125845741
C    6.0       19.7439622211       19.1542438491       21.3727362996
H    1.0       19.9122389340       20.2393928441       21.3827294518
H    1.0       18.6579189272       18.9971950257       21.3301829173
C    6.0       20.3005673155       18.5373696434       22.6693594490
H    1.0       21.3791616019       18.7056099160       22.7224495089
H    1.0       20.1208382600       17.4593231484       22.6696964802
N    7.0       19.6775135388       19.1132522701       23.9258884699
H    1.0       18.6546426280       18.9804603835       23.9098771669
H    1.0       19.8195970672       20.1344750781       23.9586244418
C    6.0       20.2823695323       18.4506878547       25.1564702092
H    1.0       20.0901692535       17.3762686939       25.1178745891
H    1.0       21.3590672697       18.6332280587       25.1709509117
H    1.0       19.8251272625       18.8744027046       26.0533563352
 $end
