$$$$
! Edit this basic GAMESS input file as needed.
! Conformer was generated by a VeraChem VCPack run 
! and contains     25 atoms.
!
 $contrl scftyp=rhf runtyp=optimize nzvar=0
  maxit=200 icharg=0 $end
 $system mwords=50 $end
 $basis gbasis=pm3 $end
 $statpt nstep=200 $end
 $guess guess=huckel $end
 $data
VM2 Rank=1      G=62.075            E=29.291            -TS=32.785              
C1
C    6.0       21.2649433196       19.5699778083       21.1383642917
H    1.0       21.7745622824       19.7414702229       20.1802598202
H    1.0       22.0469007778       19.7182729130       21.8915921411
C    6.0       20.7595122355       18.1038055183       21.1583117141
H    1.0       19.7152073704       18.0408702877       20.8265364059
H    1.0       21.3326570790       17.5468138940       20.4044706691
C    6.0       20.9529848179       17.3662017137       22.5093780978
H    1.0       22.0133632870       17.4005030821       22.7946982596
H    1.0       20.7266454607       16.3038595059       22.3451432352
C    6.0       20.0857902940       17.8547879686       23.7002812982
H    1.0       19.0202993242       17.7989421053       23.4478357798
H    1.0       20.2246187025       17.1309662368       24.5147378974
C    6.0       20.4544430580       19.2645916107       24.2301210547
H    1.0       21.4702667661       19.5138433722       23.9017361744
C    6.0       19.4857709978       20.3914067184       23.7945592293
H    1.0       18.5769074415       20.3181566583       24.4070270009
H    1.0       19.9397696833       21.3597994817       24.0411678754
C    6.0       19.0436502073       20.4095194302       22.3085476798
H    1.0       18.3090891265       21.2184787262       22.1958296893
H    1.0       18.4890456654       19.4966772762       22.0627335310
C    6.0       20.1645285535       20.6552615953       21.2675959942
H    1.0       20.6411349977       21.6243639708       21.4682347226
H    1.0       19.6822057384       20.7604187844       20.2861111285
O    8.0       20.4523765164       19.2274476366       25.6528406402
H    1.0       20.7315029583       20.1156557407       25.9588034569
 $end
