$$$$
! Edit this basic GAMESS input file as needed.
! Conformer was generated by a VeraChem VCPack run 
! and contains     29 atoms.
!
 $contrl scftyp=rhf runtyp=optimize nzvar=0
  maxit=200 icharg=0 $end
 $system mwords=50 $end
 $basis gbasis=pm3 $end
 $statpt nstep=200 $end
 $guess guess=huckel $end
 $data
VM2 Rank=1      G=58.146            E=20.962            -TS=37.184              
C1
C    6.0       19.9950096403       18.9913286162       18.8122297898
H    1.0       20.3035050264       17.9386675247       18.7676059196
H    1.0       19.4251513385       19.2145226885       17.9009121441
H    1.0       20.8995627774       19.6134121187       18.8050552621
C    6.0       19.1426207044       19.2665984666       20.0690085179
H    1.0       18.2297757624       18.6556977696       20.0314060609
H    1.0       18.8211546997       20.3175781688       20.0684996330
C    6.0       19.9220257347       18.9602900454       21.3669465808
H    1.0       20.2432134728       17.9094700764       21.3619338525
H    1.0       20.8346141484       19.5714896401       21.3990175066
C    6.0       19.0716615677       19.2347478659       22.6277296472
H    1.0       18.1591763060       18.6234087285       22.5948034692
H    1.0       18.7505732157       20.2856198439       22.6318348097
C    6.0       19.8517856889       18.9282622022       23.9259865680
H    1.0       20.1729020671       17.8773721274       23.9214508539
H    1.0       20.7643553207       19.5395453040       23.9584591645
C    6.0       19.0012829824       19.2028274267       25.1866968490
H    1.0       18.0885167684       18.5916002016       25.1546787679
H    1.0       18.6800478229       20.2538037860       25.1917569755
C    6.0       19.7802950826       18.8966406343       26.4846717707
H    1.0       20.0987486237       17.8455934920       26.4857918029
H    1.0       20.6907471420       19.5096011506       26.5230355905
C    6.0       18.9244558354       19.1731690015       27.7331605559
H    1.0       18.0244988183       18.5527780629       27.7075432193
H    1.0       18.6188418931       20.2228930388       27.7450559693
N    7.0       19.6548627637       18.8841357412       29.0285697209
H    1.0       19.0673249160       19.0747548130       29.8478539012
H    1.0       20.4995030745       19.4572647055       29.1268715331
H    1.0       19.9464920231       17.9030648882       29.0919051161
 $end
$$$$
! Edit this basic GAMESS input file as needed.
! Conformer was generated by a VeraChem VCPack run 
! and contains     29 atoms.
!
 $contrl scftyp=rhf runtyp=optimize nzvar=0
  maxit=200 icharg=0 $end
 $system mwords=50 $end
 $basis gbasis=pm3 $end
 $statpt nstep=200 $end
 $guess guess=huckel $end
 $data
VM2 Rank=2      G=58.388            E=21.100            -TS=37.288              
C1
C    6.0       19.8617439755       19.1639616538       18.8954565638
H    1.0       19.4178964874       19.7069593247       18.0509418827
H    1.0       20.9427088172       19.3556017985       18.8887766184
H    1.0       19.7036244440       18.0907486225       18.7267312974
C    6.0       19.2267390372       19.6153415049       20.2276967890
H    1.0       18.1419820350       19.4424329927       20.1915954723
H    1.0       19.3714176765       20.6976695817       20.3523098050
C    6.0       19.8344403544       18.8657028580       21.4337981262
H    1.0       19.6894020507       17.7842847565       21.3037698342
H    1.0       20.9189861117       19.0395622639       21.4644558692
C    6.0       19.2010855242       19.3150962336       22.7698036722
H    1.0       18.1165615447       19.1411473873       22.7383184156
H    1.0       19.3462532793       20.3966197169       22.8988651609
C    6.0       19.8093791845       18.5648652955       23.9761124826
H    1.0       19.6647247184       17.4833831416       23.8459345289
H    1.0       20.8938682409       18.7391982117       24.0075942104
C    6.0       19.1756398384       19.0138251354       25.3120875244
H    1.0       18.0915206415       18.8365873530       25.2817171396
H    1.0       19.3187389275       20.0957442520       25.4345763315
C    6.0       19.7866151710       18.2624376254       26.5183844877
H    1.0       19.6717957245       17.1805529227       26.3689948621
H    1.0       20.8656643708       18.4580708082       26.5765256903
C    6.0       19.1220277520       18.6431826519       27.8553007081
H    1.0       19.5349458942       18.0228386397       28.6554388346
H    1.0       18.0464355849       18.4553873719       27.7984472215
N    7.0       19.3263291629       20.0935870416       28.2463596461
H    1.0       20.3206404594       20.3263796005       28.3383941362
H    1.0       18.8826721333       20.3116604400       29.1453784460
H    1.0       18.9280085698       20.7332638133       27.5518004096
 $end
$$$$
! Edit this basic GAMESS input file as needed.
! Conformer was generated by a VeraChem VCPack run 
! and contains     29 atoms.
!
 $contrl scftyp=rhf runtyp=optimize nzvar=0
  maxit=200 icharg=0 $end
 $system mwords=50 $end
 $basis gbasis=pm3 $end
 $statpt nstep=200 $end
 $guess guess=huckel $end
 $data
VM2 Rank=3      G=58.421            E=21.133            -TS=37.288              
C1
C    6.0       19.7817009165       18.9385294200       18.8904408790
H    1.0       20.3389516826       19.8762965235       18.7666610529
H    1.0       20.4990496733       18.1079881945       18.8609757966
H    1.0       19.1067041689       18.8315989700       18.0313733577
C    6.0       18.9855029695       18.9369612225       20.2125242577
H    1.0       18.4128019862       18.0023101508       20.2921238529
H    1.0       18.2539085485       19.7570049334       20.1985183742
C    6.0       19.9128941243       19.0863632565       21.4387221030
H    1.0       20.6438184064       18.2659465430       21.4472336140
H    1.0       20.4848009284       20.0207598869       21.3536712710
C    6.0       19.1192207927       19.0851299471       22.7646508761
H    1.0       18.5473206748       18.1506322849       22.8487185756
H    1.0       18.3884220262       19.9056714798       22.7553362323
C    6.0       20.0474784007       19.2345515759       23.9910519307
H    1.0       20.7780265409       18.4137514929       24.0003325495
H    1.0       20.6197497427       20.1687473956       23.9058614021
C    6.0       19.2538125653       19.2338749004       25.3169922911
H    1.0       18.6802058703       18.3006047004       25.3945304549
H    1.0       18.5253387355       20.0566208879       25.3089202418
C    6.0       20.1849033947       19.3825702879       26.5433644793
H    1.0       20.8974981638       18.5477198358       26.5784760288
H    1.0       20.7807382925       20.2990724548       26.4385787564
C    6.0       19.4103918058       19.4540543161       27.8734065562
H    1.0       18.6954509494       20.2805463227       27.8392121971
H    1.0       20.1108920589       19.6424022222       28.6915583539
N    7.0       18.6480950305       18.1859650737       28.2038466270
H    1.0       19.2711110924       17.3745171963       28.2725525937
H    1.0       17.9452311180       17.9692414701       27.4902153531
H    1.0       18.1537600626       18.2613816612       29.0997086422
 $end
$$$$
! Edit this basic GAMESS input file as needed.
! Conformer was generated by a VeraChem VCPack run 
! and contains     29 atoms.
!
 $contrl scftyp=rhf runtyp=optimize nzvar=0
  maxit=200 icharg=0 $end
 $system mwords=50 $end
 $basis gbasis=pm3 $end
 $statpt nstep=200 $end
 $guess guess=huckel $end
 $data
VM2 Rank=4      G=58.653            E=21.369            -TS=37.284              
C1
C    6.0       20.2026036527       18.4714588052       19.1139213230
H    1.0       20.3372016126       17.3929930809       19.2689950374
H    1.0       19.7631132610       18.6166318191       18.1185188617
H    1.0       21.1936567899       18.9437506118       19.1170196367
C    6.0       19.2951346289       19.0794872555       20.2041680621
H    1.0       18.3018715769       18.6116694424       20.1544403999
H    1.0       19.1516719176       20.1505034589       20.0035621997
C    6.0       19.8913308773       18.8887064643       21.6162843333
H    1.0       20.0352360581       17.8169423302       21.8112525487
H    1.0       20.8848112955       19.3560859370       21.6605753270
C    6.0       18.9852223369       19.4961274683       22.7108589120
H    1.0       17.9920176963       19.0281509992       22.6661692685
H    1.0       18.8412098564       20.5676091552       22.5143404578
C    6.0       19.5822383816       19.3055349095       24.1233937450
H    1.0       19.7294400813       18.2334910609       24.3107897479
H    1.0       20.5741078046       19.7762768627       24.1681231572
C    6.0       18.6722505928       19.9132511971       25.2175766257
H    1.0       17.6897332919       19.4214228518       25.1981660879
H    1.0       18.4935288809       20.9734923356       24.9909597256
C    6.0       19.2752025436       19.8046604581       26.6377592354
H    1.0       20.2460550404       20.3171214114       26.6666855392
H    1.0       18.6201528626       20.3316935985       27.3442259547
C    6.0       19.4455188487       18.3460261977       27.1018165444
H    1.0       20.1312959529       17.8216685025       26.4314278555
H    1.0       18.4788666440       17.8359221484       27.0744501048
N    7.0       19.9944981374       18.2327472444       28.5092212191
H    1.0       20.1003426481       17.2543270305       28.7993556476
H    1.0       19.3804280762       18.6831273031       29.1959447983
H    1.0       20.9172242996       18.6716266804       28.5956119830
 $end
$$$$
! Edit this basic GAMESS input file as needed.
! Conformer was generated by a VeraChem VCPack run 
! and contains     29 atoms.
!
 $contrl scftyp=rhf runtyp=optimize nzvar=0
  maxit=200 icharg=0 $end
 $system mwords=50 $end
 $basis gbasis=pm3 $end
 $statpt nstep=200 $end
 $guess guess=huckel $end
 $data
VM2 Rank=5      G=58.662            E=21.378            -TS=37.284              
C1
C    6.0       20.4800203290       19.2505485313       19.1313243211
H    1.0       21.2637715286       19.9939520843       19.3271271389
H    1.0       20.9493253647       18.2585177810       19.1016131367
H    1.0       20.0617628973       19.4555022955       18.1372885795
C    6.0       19.3772573419       19.3102597639       20.2093697420
H    1.0       18.5919968547       18.5800237510       19.9684932214
H    1.0       18.9040567575       20.3020714271       20.1923471738
C    6.0       19.9398854089       19.0250221981       21.6193368520
H    1.0       20.4137303915       18.0336867936       21.6309258120
H    1.0       20.7259460275       19.7558686444       21.8546518974
C    6.0       18.8384545553       19.0839815495       22.7016745315
H    1.0       18.0525752127       18.3533961887       22.4648807399
H    1.0       18.3651239714       20.0755801315       22.6896413836
C    6.0       19.4016226915       18.7982361869       24.1120614946
H    1.0       19.8722465812       17.8053756928       24.1240328799
H    1.0       20.1904045231       19.5276551802       24.3397335360
C    6.0       18.2969984277       18.8593242064       25.1940494173
H    1.0       17.4918691139       18.1604056015       24.9281796808
H    1.0       17.8464827847       19.8615492883       25.2079901120
C    6.0       18.8129240599       18.5062492785       26.6087642798
H    1.0       17.9623311282       18.4840561565       27.3029883524
H    1.0       19.2412693643       17.4950595811       26.6036696465
C    6.0       19.8598465166       19.5095431753       27.1277311230
H    1.0       19.4332905351       20.5162120052       27.1341010988
H    1.0       20.7320972182       19.5087256854       26.4690660970
N    7.0       20.3369906691       19.1948351100       28.5306882386
H    1.0       19.5668320345       19.2070456301       29.2076072710
H    1.0       21.0330808915       19.8739355138       28.8577490954
H    1.0       20.7736110996       18.2687027640       28.5867389325
 $end
$$$$
! Edit this basic GAMESS input file as needed.
! Conformer was generated by a VeraChem VCPack run 
! and contains     29 atoms.
!
 $contrl scftyp=rhf runtyp=optimize nzvar=0
  maxit=200 icharg=0 $end
 $system mwords=50 $end
 $basis gbasis=pm3 $end
 $statpt nstep=200 $end
 $guess guess=huckel $end
 $data
VM2 Rank=6      G=58.792            E=21.497            -TS=37.295              
C1
C    6.0       18.9500682357       18.2473543552       19.5328281815
H    1.0       18.1066696885       17.9968509949       20.1881060378
H    1.0       18.5590666839       18.3346313230       18.5108518474
H    1.0       19.6603590953       17.4105675336       19.5503114401
C    6.0       19.6328581894       19.5648122289       19.9648042466
H    1.0       18.8953360446       20.3795378838       19.9681561563
H    1.0       20.3870030977       19.8357618063       19.2127317588
C    6.0       20.3210189259       19.4760978388       21.3482679964
H    1.0       21.0715305308       18.6737547535       21.3338331456
H    1.0       20.8710293702       20.4108228515       21.5245319935
C    6.0       19.3315880721       19.2444298398       22.5153155945
H    1.0       18.8250568266       18.2785189394       22.3895910110
H    1.0       18.5526954901       20.0190768673       22.4949930564
C    6.0       20.0459645496       19.2665581423       23.8854924657
H    1.0       20.8274780689       18.4942865604       23.9036756085
H    1.0       20.5506616576       20.2332015873       24.0209001809
C    6.0       19.0602050870       19.0314384078       25.0521952288
H    1.0       18.5556548771       18.0643863254       24.9180388393
H    1.0       18.2781081846       19.8032841423       25.0338076913
C    6.0       19.7733919952       19.0540138082       26.4219330849
H    1.0       20.5525243025       18.2803995629       26.4461158558
H    1.0       20.2745755019       20.0211057514       26.5621453293
C    6.0       18.7831170940       18.8189830697       27.5759510996
H    1.0       18.2937617142       17.8494299010       27.4496213434
H    1.0       18.0145264502       19.5965606244       27.5658225027
N    7.0       19.4457878511       18.8343123092       28.9382121020
H    1.0       18.7689105615       18.6759765284       29.6928814200
H    1.0       19.9029391008       19.7318711266       29.1304533912
H    1.0       20.1627728076       18.1060240028       29.0223743862
 $end
$$$$
! Edit this basic GAMESS input file as needed.
! Conformer was generated by a VeraChem VCPack run 
! and contains     29 atoms.
!
 $contrl scftyp=rhf runtyp=optimize nzvar=0
  maxit=200 icharg=0 $end
 $system mwords=50 $end
 $basis gbasis=pm3 $end
 $statpt nstep=200 $end
 $guess guess=huckel $end
 $data
VM2 Rank=7      G=58.803            E=21.508            -TS=37.295              
C1
C    6.0       19.6452732614       20.1989058794       19.5764760802
H    1.0       19.1407499841       20.8997652401       20.2530217304
H    1.0       20.7242143971       20.3970638407       19.6171061700
H    1.0       19.3015797851       20.4189701771       18.5574667516
C    6.0       19.3357477641       18.7305627899       19.9461615628
H    1.0       19.7595661143       18.0741186688       19.1733618041
H    1.0       18.2493514282       18.5658574290       19.9276036512
C    6.0       19.9055121706       18.3095115482       21.3222020088
H    1.0       19.7387261055       17.2314305346       21.4534028731
H    1.0       20.9942840590       18.4570245948       21.3290724487
C    6.0       19.2684920880       19.0676079519       22.5113764875
H    1.0       18.1757314383       18.9606455317       22.4713891453
H    1.0       19.4877640384       20.1403866967       22.4311913667
C    6.0       19.7889566048       18.5449442611       23.8693682068
H    1.0       19.5677583735       17.4723516725       23.9592133488
H    1.0       20.8822680972       18.6485975653       23.9071073281
C    6.0       19.1568627452       19.3033338953       25.0582755727
H    1.0       18.0633838697       19.2002208110       25.0204660990
H    1.0       19.3782392877       20.3761270231       24.9695890482
C    6.0       19.6763534438       18.7813161115       26.4158269100
H    1.0       19.4523673946       17.7103536367       26.5105830386
H    1.0       20.7685578418       18.8875571364       26.4595657835
C    6.0       19.0407664033       19.5428968593       27.5921202108
H    1.0       17.9540526313       19.4261775447       27.5622503336
H    1.0       19.2750862799       20.6077818072       27.5110375309
N    7.0       19.5260355188       19.0589207034       28.9431929606
H    1.0       19.3112650780       18.0675311882       29.0934477336
H    1.0       19.0906338209       19.5790591388       29.7130244875
H    1.0       20.5405913464       19.1671050090       29.0457959490
 $end
$$$$
! Edit this basic GAMESS input file as needed.
! Conformer was generated by a VeraChem VCPack run 
! and contains     29 atoms.
!
 $contrl scftyp=rhf runtyp=optimize nzvar=0
  maxit=200 icharg=0 $end
 $system mwords=50 $end
 $basis gbasis=pm3 $end
 $statpt nstep=200 $end
 $guess guess=huckel $end
 $data
VM2 Rank=8      G=58.821            E=21.537            -TS=37.284              
C1
C    6.0       20.2307104301       18.4039068398       19.2510154242
H    1.0       21.2151832311       18.8892290580       19.2280424185
H    1.0       20.3529294167       17.3758994039       18.8859057896
H    1.0       19.5716841670       18.9338362659       18.5509472632
C    6.0       19.6435768769       18.4090046551       20.6783375877
H    1.0       20.3082503807       17.8363437955       21.3385610039
H    1.0       18.6738778690       17.8919498605       20.6751033429
C    6.0       19.4662983904       19.8484981058       21.2163006293
H    1.0       20.4439357476       20.3470998809       21.2695856835
H    1.0       18.8649548992       20.4252937748       20.5000588183
C    6.0       18.7748018163       19.9125607265       22.6002698097
H    1.0       17.7907704707       19.4271836698       22.5423080088
H    1.0       18.5847841539       20.9667645000       22.8449371687
C    6.0       19.6066664606       19.2735008184       23.7380664635
H    1.0       19.7409534846       18.2007763301       23.5471877691
H    1.0       20.6090080304       19.7232146935       23.7567896699
C    6.0       18.9315590052       19.4604806760       25.1156004398
H    1.0       17.9273136269       19.0145228517       25.0960326616
H    1.0       18.7994936668       20.5324753735       25.3183858870
C    6.0       19.7570744930       18.8201197833       26.2530945708
H    1.0       19.8863828282       17.7471841069       26.0576675271
H    1.0       20.7601472306       19.2665522730       26.2786814886
C    6.0       19.0763785505       19.0127287037       27.6195425121
H    1.0       18.0834011124       18.5553279409       27.6040708143
H    1.0       18.9606315105       20.0801517021       27.8261152294
N    7.0       19.8569339771       18.3971996914       28.7627725628
H    1.0       19.3864728187       18.5367338770       29.6638565926
H    1.0       20.7938903805       18.8049732608       28.8487023077
H    1.0       19.9774675028       17.3860258357       28.6421657110
 $end
