$$$$
! Edit this basic GAMESS input file as needed.
! Conformer was generated by a VeraChem VCPack run 
! and contains     16 atoms.
!
 $contrl scftyp=rhf runtyp=optimize nzvar=0
  maxit=200 icharg=0 $end
 $system mwords=50 $end
 $basis gbasis=pm3 $end
 $statpt nstep=200 $end
 $guess guess=huckel $end
 $data
VM2 Rank=1      G=-35.660           E=-45.569           -TS=9.910               
C1
C    6.0       20.0717622250       19.4317932036       24.6566849839
O    8.0       20.4840971057       20.5080194374       25.0408199555
O    8.0       19.2403096692       18.7783947019       25.2546824193
C    6.0       20.6140152693       18.8794398997       23.3431212054
H    1.0       20.6286449622       17.7850520440       23.4134844817
H    1.0       21.6540145796       19.2111205932       23.2371037815
C    6.0       19.7839265945       19.3242434758       22.1138271607
H    1.0       18.7429712569       18.9957567467       22.2405505133
H    1.0       19.7683265603       20.4218978541       22.0641955574
C    6.0       20.3534419909       18.7521753446       20.7989309773
H    1.0       20.3685698040       17.6544909951       20.8479052275
H    1.0       21.3942098623       19.0809714361       20.6715223778
C    6.0       19.5224471454       19.1989339370       19.5799332978
H    1.0       19.5162178915       20.2930393553       19.4884707762
H    1.0       18.4829951874       18.8560423313       19.6661688878
H    1.0       19.9405628560       18.7837657849       18.6536697099
 $end
