$$$$
! Edit this basic GAMESS input file as needed.
! Conformer was generated by a VeraChem VCPack run 
! and contains     26 atoms.
!
 $contrl scftyp=rhf runtyp=optimize nzvar=0
  maxit=200 icharg=0 $end
 $system mwords=50 $end
 $basis gbasis=pm3 $end
 $statpt nstep=200 $end
 $guess guess=huckel $end
 $data
VM2 Rank=1      G=23.710            E=-8.843            -TS=32.552              
C1
C    6.0       20.2414652279       18.6563533305       18.8059593269
H    1.0       19.6044540451       19.4971264612       18.5017231684
H    1.0       21.0557776663       18.5688769185       18.0750076790
H    1.0       19.6426204496       17.7376522969       18.7548324338
C    6.0       20.8050656589       18.8729035270       20.2263782405
H    1.0       21.4263131757       19.7794679629       20.2376928856
H    1.0       21.4642774826       18.0335327196       20.4887055995
C    6.0       19.6784473261       18.9994148594       21.2756973280
H    1.0       19.0206803665       19.8375407902       21.0067154510
H    1.0       19.0592834568       18.0917421169       21.2594053841
C    6.0       20.2388859997       19.2172413481       22.6994371457
H    1.0       20.8549504522       20.1271530776       22.7150536778
H    1.0       20.8998956133       18.3792076279       22.9575778044
C    6.0       19.1075600648       19.3422228862       23.7488122771
H    1.0       18.4279091307       20.1489847357       23.4433275532
H    1.0       18.5118408351       18.4197978279       23.7646210161
C    6.0       19.6331275959       19.6455948117       25.1687499047
H    1.0       20.2418269287       20.5539079192       25.1221704873
C    6.0       18.4605379192       19.8996084552       26.1295944838
H    1.0       17.8446051073       20.7376453793       25.7802340005
H    1.0       18.8275784842       20.1521397322       27.1320344951
H    1.0       17.8173081082       19.0146985276       26.2138711488
N    7.0       20.5229102074       18.5546607820       25.6993712932
H    1.0       21.3337370894       18.4049966471       25.0931117996
H    1.0       20.8769592235       18.7815690395       26.6329587348
H    1.0       20.0217789640       17.6651559813       25.7697290608
 $end
$$$$
! Edit this basic GAMESS input file as needed.
! Conformer was generated by a VeraChem VCPack run 
! and contains     26 atoms.
!
 $contrl scftyp=rhf runtyp=optimize nzvar=0
  maxit=200 icharg=0 $end
 $system mwords=50 $end
 $basis gbasis=pm3 $end
 $statpt nstep=200 $end
 $guess guess=huckel $end
 $data
VM2 Rank=2      G=24.184            E=-8.383            -TS=32.567              
C1
C    6.0       20.2648265717       18.6437367121       18.8025515766
H    1.0       20.3175223740       19.2783108186       17.9083549121
H    1.0       21.1735185841       18.0284441422       18.8331121847
H    1.0       19.4021041235       17.9741615585       18.6902093434
C    6.0       20.1356497366       19.5061608009       20.0759960031
H    1.0       19.2370352801       20.1344769413       20.0009211176
H    1.0       20.9947751665       20.1883345409       20.1429101642
C    6.0       20.0595184318       18.6366016162       21.3505420583
H    1.0       19.2004683117       17.9552049310       21.2782097559
H    1.0       20.9585139641       18.0084031734       21.4186018475
C    6.0       19.9304474039       19.4968407614       22.6281513743
H    1.0       19.0345503157       20.1260255477       22.5455366209
H    1.0       20.7922712670       20.1745590380       22.7022397142
C    6.0       19.8498892109       18.6222061372       23.9035852933
H    1.0       18.9531501236       17.9896389171       23.8629580449
H    1.0       20.7108885439       17.9408249886       23.9147826673
C    6.0       19.8534679702       19.4354768068       25.2183120980
H    1.0       20.7325755014       20.0872903725       25.2160862354
C    6.0       18.5968317730       20.3129483310       25.3617508177
H    1.0       17.6825344540       19.7091542885       25.3053930030
H    1.0       18.5527306283       21.0781303502       24.5782459576
H    1.0       18.5994518487       20.8366397136       26.3256332988
N    7.0       19.9973689019       18.5340288343       26.4131107786
H    1.0       19.2077254191       17.8876799148       26.4919191187
H    1.0       20.8513488994       17.9713335956       26.3607676519
H    1.0       20.0403034804       19.0709816311       27.2839208393
 $end
$$$$
! Edit this basic GAMESS input file as needed.
! Conformer was generated by a VeraChem VCPack run 
! and contains     26 atoms.
!
 $contrl scftyp=rhf runtyp=optimize nzvar=0
  maxit=200 icharg=0 $end
 $system mwords=50 $end
 $basis gbasis=pm3 $end
 $statpt nstep=200 $end
 $guess guess=huckel $end
 $data
VM2 Rank=3      G=24.223            E=-8.474            -TS=32.697              
C1
C    6.0       20.3612928927       18.7664260443       18.8988711379
H    1.0       20.3290276240       17.9289049013       18.1899587726
H    1.0       19.6207918483       19.5098625569       18.5760744857
H    1.0       21.3567424666       19.2247825932       18.8338621142
C    6.0       20.0680700833       18.2779211965       20.3332667713
H    1.0       20.8039391568       17.5116831270       20.6148432692
H    1.0       19.0813515119       17.7945568305       20.3590276211
C    6.0       20.1073833986       19.4385016884       21.3520575635
H    1.0       21.0947094884       19.9197761897       21.3202441726
H    1.0       19.3719784505       20.2027414844       21.0646973561
C    6.0       19.8140924584       18.9534906562       22.7898913599
H    1.0       20.5512017567       18.1892018094       23.0693839127
H    1.0       18.8283599900       18.4703965000       22.8096725458
C    6.0       19.8521926829       20.1238713838       23.8069575319
H    1.0       20.8254243633       20.6277161439       23.7404707023
H    1.0       19.1034245818       20.8754008663       23.5235265044
C    6.0       19.6133245828       19.7156721152       25.2800206563
H    1.0       19.6966305736       20.6232229987       25.8860368394
C    6.0       18.2040117587       19.1382632065       25.4994504080
H    1.0       17.4375722709       19.8255456215       25.1202836954
H    1.0       18.0142883118       18.9864637292       26.5690949455
H    1.0       18.0784854948       18.1717997584       24.9971030371
N    7.0       20.6676321426       18.7738537091       25.7934845713
H    1.0       21.6065426539       19.1695322106       25.6917288409
H    1.0       20.5304483224       18.5640728847       26.7862542118
H    1.0       20.6509069245       17.8852543826       25.2871625665
 $end
$$$$
! Edit this basic GAMESS input file as needed.
! Conformer was generated by a VeraChem VCPack run 
! and contains     26 atoms.
!
 $contrl scftyp=rhf runtyp=optimize nzvar=0
  maxit=200 icharg=0 $end
 $system mwords=50 $end
 $basis gbasis=pm3 $end
 $statpt nstep=200 $end
 $guess guess=huckel $end
 $data
VM2 Rank=4      G=24.304            E=-8.361            -TS=32.665              
C1
C    6.0       21.0477196491       19.5376219149       19.5907685709
H    1.0       21.7403974732       19.8916960632       20.3642440107
H    1.0       21.6435931448       19.2916687355       18.7022999371
H    1.0       20.3755105693       20.3640273728       19.3257861580
C    6.0       20.2494760960       18.3021779345       20.0653791837
H    1.0       20.9446838711       17.5009911945       20.3526689905
H    1.0       19.6643340475       17.9128568662       19.2204880623
C    6.0       19.2862592640       18.6054107228       21.2383864116
H    1.0       18.5785647459       19.3902693809       20.9376246603
H    1.0       18.6854094232       17.7071565746       21.4371511343
C    6.0       20.0118208888       19.0259835107       22.5390406839
H    1.0       20.5565947602       19.9651711969       22.3752089954
H    1.0       20.7575571398       18.2626470145       22.7974836078
C    6.0       19.0190802075       19.2152960879       23.7118097902
H    1.0       18.2492103379       19.9384752058       23.4110946640
H    1.0       18.4987652520       18.2698283781       23.9150972125
C    6.0       19.6999901768       19.7209303501       25.0021978862
H    1.0       20.2299105969       20.6496174452       24.7688840589
C    6.0       18.6458840186       20.0245877049       26.0789199485
H    1.0       19.1198722730       20.4193484043       26.9860420155
H    1.0       18.0850292233       19.1217512749       26.3513852917
H    1.0       17.9306739914       20.7767387103       25.7232886022
N    7.0       20.7277696993       18.7559917742       25.5274975251
H    1.0       20.3057462178       17.8551253369       25.7675632584
H    1.0       21.4618952021       18.5786369643       24.8368420422
H    1.0       21.1822498585       19.1161029227       26.3714064288
 $end
$$$$
! Edit this basic GAMESS input file as needed.
! Conformer was generated by a VeraChem VCPack run 
! and contains     26 atoms.
!
 $contrl scftyp=rhf runtyp=optimize nzvar=0
  maxit=200 icharg=0 $end
 $system mwords=50 $end
 $basis gbasis=pm3 $end
 $statpt nstep=200 $end
 $guess guess=huckel $end
 $data
VM2 Rank=5      G=24.328            E=-8.331            -TS=32.658              
C1
C    6.0       21.0696647776       18.0175824765       19.8285090699
H    1.0       21.7713855110       17.9118529558       20.6650190054
H    1.0       20.4114777433       17.1391182007       19.8175580193
H    1.0       21.6580032515       18.0075863324       18.9018499164
C    6.0       20.2510733004       19.3242890986       19.9348976438
H    1.0       19.6583079496       19.4459656594       19.0174932253
H    1.0       20.9328292485       20.1852390721       19.9765640728
C    6.0       19.2943564160       19.3545459143       21.1512735003
H    1.0       18.6764653280       20.2607392934       21.0852882524
H    1.0       18.6016728273       18.5035151013       21.0942635051
C    6.0       20.0281866269       19.3400784989       22.5138015355
H    1.0       20.7543287707       20.1641209668       22.5471974637
H    1.0       20.5965029000       18.4070244281       22.6136368431
C    6.0       19.0395220098       19.4754923854       23.6975432831
H    1.0       18.4432577327       20.3873761772       23.5597465633
H    1.0       18.3329856298       18.6348228000       23.6891590913
C    6.0       19.7462752039       19.5467189844       25.0687004319
H    1.0       20.4615533378       20.3746277414       25.0430413322
C    6.0       18.7245372937       19.8265406221       26.1824669161
H    1.0       18.1919211673       20.7673761121       25.9957088005
H    1.0       19.2245007701       19.9150364742       27.1548746284
H    1.0       17.9821273393       19.0215893796       26.2516992136
N    7.0       20.5343843717       18.3027520198       25.3768076195
H    1.0       21.0103650402       18.3757771926       26.2804350602
H    1.0       19.9300048989       17.4777710633       25.4147964810
H    1.0       21.2508271823       18.1282991599       24.6671448917
 $end
$$$$
! Edit this basic GAMESS input file as needed.
! Conformer was generated by a VeraChem VCPack run 
! and contains     26 atoms.
!
 $contrl scftyp=rhf runtyp=optimize nzvar=0
  maxit=200 icharg=0 $end
 $system mwords=50 $end
 $basis gbasis=pm3 $end
 $statpt nstep=200 $end
 $guess guess=huckel $end
 $data
VM2 Rank=6      G=24.407            E=-8.262            -TS=32.669              
C1
C    6.0       19.9268010952       18.4374311113       19.0849233560
H    1.0       20.9095855827       18.6604186945       18.6494557303
H    1.0       19.5853240582       17.4792471348       18.6722334642
H    1.0       19.2237202018       19.2147961673       18.7583968692
C    6.0       20.0037807132       18.3710233928       20.6250206745
H    1.0       20.6909245668       17.5660050642       20.9207947669
H    1.0       19.0138993669       18.1064079794       21.0198423079
C    6.0       20.4793629824       19.7128841603       21.2303234958
H    1.0       21.4334835880       19.9963996601       20.7648496783
H    1.0       19.7647465821       20.5078075758       20.9759573676
C    6.0       20.6774445273       19.6635111688       22.7652442988
H    1.0       21.1155458631       20.6175443890       23.0900763566
H    1.0       21.4128770831       18.8851405927       23.0086993685
C    6.0       19.3622256694       19.4202528613       23.5488754517
H    1.0       18.6077970276       20.1426815557       23.2099824751
H    1.0       18.9663549568       18.4218322799       23.3240603592
C    6.0       19.5397043016       19.5652101613       25.0757738851
H    1.0       19.9495716295       20.5591090979       25.2804051393
C    6.0       18.1813832989       19.4481162479       25.7856544221
H    1.0       17.4847462403       20.2143346552       25.4232532692
H    1.0       18.2954651653       19.5876110702       26.8677336523
H    1.0       17.7268458717       18.4643674649       25.6138031649
N    7.0       20.5172974121       18.5695708964       25.6381844160
H    1.0       20.2019420008       17.6083660366       25.4837061210
H    1.0       21.4394517793       18.6653060035       25.2047096740
H    1.0       20.6391849443       18.6938144361       26.6472004478
 $end
$$$$
! Edit this basic GAMESS input file as needed.
! Conformer was generated by a VeraChem VCPack run 
! and contains     26 atoms.
!
 $contrl scftyp=rhf runtyp=optimize nzvar=0
  maxit=200 icharg=0 $end
 $system mwords=50 $end
 $basis gbasis=pm3 $end
 $statpt nstep=200 $end
 $guess guess=huckel $end
 $data
VM2 Rank=7      G=24.408            E=-8.337            -TS=32.745              
C1
C    6.0       20.8972741798       19.5641548266       19.3398292234
H    1.0       21.3064563658       19.0767334483       18.4453843487
H    1.0       20.0620096687       20.2024654599       19.0233928227
H    1.0       21.6801743295       20.2088500374       19.7601457614
C    6.0       20.4325569218       18.5122395718       20.3692149716
H    1.0       21.2809524597       17.8685701397       20.6408947953
H    1.0       19.6758034350       17.8616507575       19.9087929839
C    6.0       19.8508460635       19.1724841250       21.6387436297
H    1.0       20.6117801825       19.8276241890       22.0831459026
H    1.0       19.0021251288       19.8128425093       21.3611963189
C    6.0       19.3866986600       18.1185885429       22.6726475778
H    1.0       20.2364962530       17.4902175391       22.9709451383
H    1.0       18.6629907636       17.4429471788       22.1960595888
C    6.0       18.7224853562       18.7436064608       23.9262689279
H    1.0       17.8184403317       19.2834921411       23.6144887735
H    1.0       18.3839453629       17.9378888302       24.5911661596
C    6.0       19.6369491763       19.7072197464       24.7157221457
H    1.0       19.9486365968       20.5136774382       24.0454472637
C    6.0       18.8678500720       20.3322004132       25.8904742381
H    1.0       18.5348342498       19.5648764653       26.6005436423
H    1.0       17.9832381360       20.8737911871       25.5328979528
H    1.0       19.4996008065       21.0473751026       26.4315582812
N    7.0       20.8933395704       19.0375063133       25.2010992857
H    1.0       21.4331480653       18.6509829994       24.4220950565
H    1.0       21.4999478603       19.6946655545       25.6996276168
H    1.0       20.6821830771       18.2683004424       25.8421826683
 $end
$$$$
! Edit this basic GAMESS input file as needed.
! Conformer was generated by a VeraChem VCPack run 
! and contains     26 atoms.
!
 $contrl scftyp=rhf runtyp=optimize nzvar=0
  maxit=200 icharg=0 $end
 $system mwords=50 $end
 $basis gbasis=pm3 $end
 $statpt nstep=200 $end
 $guess guess=huckel $end
 $data
VM2 Rank=8      G=24.518            E=-8.104            -TS=32.622              
C1
C    6.0       19.8814575586       18.9330835639       18.9777532858
H    1.0       20.8781121276       18.6656048449       18.6031039368
H    1.0       19.2375373948       18.0473918012       18.8992472568
H    1.0       19.4706070017       19.7080586291       18.3177085804
C    6.0       19.9527724613       19.4393081683       20.4341131260
H    1.0       18.9458790072       19.7351792867       20.7566447844
H    1.0       20.5793121893       20.3412188345       20.4755285770
C    6.0       20.5250982280       18.3609992326       21.3846050396
H    1.0       19.8672484924       17.4809268469       21.3858370613
H    1.0       21.4936034328       18.0203141683       20.9930008346
C    6.0       20.7323043020       18.8570816006       22.8370390755
H    1.0       21.3920438603       19.7358473724       22.8342039186
H    1.0       21.2651340732       18.0724848502       23.3900308290
C    6.0       19.4089921631       19.1992878032       23.5692333191
H    1.0       18.8911967810       20.0002362356       23.0273658336
H    1.0       18.7410537235       18.3278100438       23.5567250703
C    6.0       19.6293527833       19.6629618323       25.0258807550
H    1.0       20.3251859050       20.5076020599       25.0152304388
C    6.0       18.3034502925       20.1384373738       25.6414656671
H    1.0       17.8752154755       20.9624228591       25.0571774939
H    1.0       18.4587155445       20.5024067687       26.6645984985
H    1.0       17.5674782036       19.3253661778       25.6758185609
N    7.0       20.2545722112       18.5968404251       25.8839097318
H    1.0       21.1620618498       18.3023326423       25.5137525775
H    1.0       20.4079085708       18.9286615311       26.8403511304
H    1.0       19.6597494886       17.7659630254       25.9397313724
 $end
