$$$$
! Edit this basic GAMESS input file as needed.
! Conformer was generated by a VeraChem VCPack run 
! and contains     17 atoms.
!
 $contrl scftyp=rhf runtyp=optimize nzvar=0
  maxit=200 icharg=0 $end
 $system mwords=50 $end
 $basis gbasis=pm3 $end
 $statpt nstep=200 $end
 $guess guess=huckel $end
 $data
VM2 Rank=1      G=-26.661           E=-36.827           -TS=10.165              
C1
C    6.0       20.1215813423       19.0267582910       25.0643153321
O    8.0       21.2292449492       19.3332844269       25.4594928481
O    8.0       19.0984112796       19.5456255070       25.4654924875
C    6.0       20.0077399517       17.9136225494       24.0271929626
H    1.0       19.0748030311       17.3708155605       24.2188405446
H    1.0       20.8162905389       17.1972919440       24.2138920496
C    6.0       20.0480182807       18.3594461309       22.5718587294
H    1.0       19.9641510597       17.5396200053       21.8612920770
C    6.0       20.1729894426       19.6232755286       22.1416454202
H    1.0       20.2563803880       20.4370817464       22.8608172327
C    6.0       20.2152187105       20.0871628499       20.6950073021
H    1.0       19.4084215357       20.8142407961       20.5308536788
H    1.0       21.1490319877       20.6402399991       20.5258666773
C    6.0       20.0997960433       18.9628247163       19.6419949180
H    1.0       20.1386670577       19.3805223940       18.6275730251
H    1.0       20.9238037878       18.2440624547       19.7409641395
H    1.0       19.1503623694       18.4213856894       19.7460282619
 $end
