$$$$
! Edit this basic GAMESS input file as needed.
! Conformer was generated by a VeraChem VCPack run 
! and contains     20 atoms.
!
 $contrl scftyp=rhf runtyp=optimize nzvar=0
  maxit=200 icharg=0 $end
 $system mwords=50 $end
 $basis gbasis=pm3 $end
 $statpt nstep=200 $end
 $guess guess=huckel $end
 $data
VM2 Rank=1      G=2.705             E=-20.181           -TS=22.887              
C1
N    7.0       20.3911806674       20.1731487412       24.1279726622
H    1.0       20.3064969285       20.4446183013       25.1112263172
H    1.0       20.0069674817       20.9379973365       23.5676416122
H    1.0       21.3895270825       20.1069866706       23.9147319414
C    6.0       19.6810954105       18.8752374741       23.8517926979
H    1.0       18.6271255039       19.0338573066       24.1005384039
C    6.0       20.2261379177       17.7582268489       24.7568826123
H    1.0       19.6673004161       16.8262575762       24.6059743489
H    1.0       20.1318736910       18.0342685290       25.8143226364
H    1.0       21.2848196057       17.5590804974       24.5487328014
C    6.0       19.7688472519       18.4547251728       22.3680095147
H    1.0       20.8204167238       18.3118138595       22.0857095157
H    1.0       19.2771900610       17.4802734521       22.2464117484
C    6.0       19.1035699720       19.4719445943       21.4097898098
H    1.0       19.6146400526       20.4422199302       21.4714311883
H    1.0       18.0612377734       19.6411716587       21.7149898570
C    6.0       19.1341687805       18.9807171688       19.9465527032
H    1.0       20.1656359645       18.8311806672       19.6016315049
H    1.0       18.6599690965       19.7140374060       19.2813757854
H    1.0       18.5959868886       18.0301510242       19.8369320330
 $end
