$$$$
! Edit this basic GAMESS input file as needed.
! Conformer was generated by a VeraChem VCPack run 
! and contains    146 atoms.
!
 $contrl scftyp=rhf runtyp=optimize nzvar=0
  maxit=200 icharg=0 $end
 $system mwords=50 $end
 $basis gbasis=pm3 $end
 $statpt nstep=200 $end
 $guess guess=huckel $end
 $data
FE Rank=1      G=504.305           E=314.576           -TS=189.728              
C1
C    6.0       16.2861723953       15.3682879428       20.2608503494
H    1.0       15.2991217782       15.2737054288       19.7904940671
O    8.0       16.4939431229       16.6983516245       20.7788395265
C    6.0       16.4784953406       14.3125379273       21.3828031585
H    1.0       16.4191465822       13.3285040026       20.8997901969
O    8.0       15.4509685653       14.3898621881       22.3820488972
H    1.0       15.5719767181       15.2552504582       22.8481559178
C    6.0       17.8828495575       14.4302172645       22.0277483596
H    1.0       17.9307881232       15.3693667350       22.5971494693
O    8.0       18.0781318489       13.3125924067       22.9009430354
H    1.0       17.3051597343       13.3149826077       23.5056407255
C    6.0       19.0065733629       14.4577588965       20.9577477284
H    1.0       19.1611368278       13.4326535418       20.5973410993
C    6.0       18.6787853626       15.3778512712       19.7461854311
H    1.0       18.7523587699       16.4198231129       20.0776740950
O    8.0       17.3263485947       15.1211235632       19.2882067725
C    6.0       19.6480049210       15.2316086950       18.5428134051
H    1.0       20.4588007886       15.9600325055       18.6594546177
H    1.0       19.1106849887       15.5072587916       17.6255906186
O    8.0       20.2032402926       13.9166418666       18.4105987058
H    1.0       20.8120820009       13.7779297562       19.1729882114
C    6.0       14.9069306456       20.2229242153       22.1209663240
H    1.0       14.3096314561       21.0619100095       22.5007877797
O    8.0       16.2163012707       20.6646976409       21.7047665302
C    6.0       15.0417623482       19.1395660660       23.2217731526
H    1.0       14.0318289777       18.7702712098       23.4410923939
O    8.0       15.6087285539       19.6911513159       24.4222472931
H    1.0       16.5267959068       19.3249696523       24.5140148443
C    6.0       15.8834960135       17.9523332110       22.7068758685
H    1.0       16.8935936011       18.3345592389       22.5396270456
O    8.0       15.9272875755       16.9075577524       23.6858800118
H    1.0       16.6361559074       17.1856856010       24.3236403491
C    6.0       15.3727889068       17.4032389694       21.3522472000
H    1.0       14.5072759019       16.7505637390       21.5251732519
C    6.0       15.0122764215       18.5319828750       20.3449858547
H    1.0       15.9604630744       18.9337194856       19.9713221057
O    8.0       14.2679676047       19.6074614674       20.9797342011
C    6.0       14.2138350152       18.0312542872       19.1179961746
H    1.0       14.8780987346       17.4129935801       18.4991822651
H    1.0       13.9174892602       18.8976855176       18.5116943974
O    8.0       13.0601180322       17.2727759921       19.4998989082
H    1.0       12.5630690881       17.0526740469       18.6819212121
C    6.0       18.4391682138       23.9435492676       20.5805322789
H    1.0       18.8608779871       24.8776973878       20.1880463139
O    8.0       19.4761474739       23.0154326264       20.9636905180
C    6.0       17.5019168654       24.2106994254       21.7857540803
H    1.0       16.6679470519       24.8185770163       21.4113301197
O    8.0       18.1653112189       24.9361391725       22.8315331461
H    1.0       18.8962331251       24.3555933174       23.1627773279
C    6.0       16.9119673762       22.8848854835       22.3280995627
H    1.0       17.7259414115       22.3101684045       22.7922435835
O    8.0       15.9134131511       23.1967725986       23.3049814258
H    1.0       16.3406871687       23.8308880631       23.9210826260
C    6.0       16.2897123294       22.0154208732       21.2004487736
H    1.0       15.2963966772       22.4198816059       20.9676097765
C    6.0       17.1456946433       21.9784665660       19.8984278064
H    1.0       18.0051301883       21.3280466610       20.0812965385
O    8.0       17.6228854426       23.3079723050       19.5734577354
C    6.0       16.4256193017       21.4019157946       18.6500923625
H    1.0       16.6748594711       20.3375561738       18.5643634772
H    1.0       16.8387310657       21.8860802322       17.7550326408
O    8.0       15.0018365698       21.5677545588       18.6800846304
H    1.0       14.6552658341       21.0169298433       19.4200423542
C    6.0       23.5150571269       22.6862982980       21.9095560657
H    1.0       24.5620475334       22.8715486698       22.1819026072
O    8.0       23.3008841610       21.3153021780       21.5244909030
C    6.0       22.5862260590       23.0182713704       23.1049311501
H    1.0       22.7254855726       24.0820454689       23.3376822595
O    8.0       22.9223134921       22.2379923279       24.2638614558
H    1.0       23.6122566693       21.5854694859       23.9877062358
C    6.0       21.1012431835       22.8049858338       22.7298620312
H    1.0       20.9450896711       21.7308275830       22.5681400308
O    8.0       20.2850111792       23.2538807518       23.8157044833
H    1.0       20.7024530689       22.8615881537       24.6155121124
C    6.0       20.7316644474       23.5565060307       21.4238862084
H    1.0       20.6609503259       24.6307419035       21.6399541072
C    6.0       21.7760849967       23.3093624041       20.2978585911
H    1.0       21.6772267979       22.2672279618       19.9672253990
O    8.0       23.1216529032       23.5224105281       20.8003730898
C    6.0       21.5670812795       24.2035724114       19.0529250330
H    1.0       20.6624755978       23.8641915199       18.5301888282
H    1.0       22.4136203956       24.0547717558       18.3693189529
O    8.0       21.4392253918       25.5892017281       19.3967587075
H    1.0       21.3884319076       26.1003418674       18.5598593097
C    6.0       25.1055363007       17.6357654161       21.1343890523
H    1.0       25.7450616562       16.7641663658       20.9443582920
O    8.0       23.7332567565       17.2532014888       21.3740669904
C    6.0       25.6181408398       18.4593853150       22.3436284857
H    1.0       26.6001156516       18.8645862483       22.0663158390
O    8.0       25.7706374207       17.6514031301       23.5191159153
H    1.0       24.8994660487       17.2110409494       23.6887064987
C    6.0       24.6711027768       19.6547085564       22.6109558198
H    1.0       23.6921923648       19.2581635520       22.9156423707
O    8.0       25.2124775584       20.4646660174       23.6590035930
H    1.0       25.5501479565       19.8246297264       24.3259050591
C    6.0       24.4755355566       20.5057628702       21.3285822006
H    1.0       25.3715770775       21.1194380300       21.1724361692
C    6.0       24.2208256484       19.6484856180       20.0544209869
H    1.0       23.1974218963       19.2591211709       20.0929980468
O    8.0       25.1352321188       18.5255388925       19.9981379477
C    6.0       24.3441522599       20.4588319371       18.7409810096
H    1.0       23.4945718083       21.1515391537       18.6790860165
H    1.0       24.2594188578       19.7639218092       17.8952577266
O    8.0       25.5712420639       21.1940307255       18.6521238064
H    1.0       25.4717690137       22.0008978886       19.2011002463
C    6.0       21.1929826204       14.0209204383       21.9481315266
H    1.0       20.7477641229       13.0341321001       22.1297035700
O    8.0       20.1877706214       14.9867945954       21.5921403885
C    6.0       21.9464490842       14.4945732339       23.2169996443
H    1.0       22.7517475086       13.7706940701       23.3966002237
O    8.0       21.0870040727       14.5172665407       24.3659431354
H    1.0       20.4286216803       15.2533982610       24.2261776002
C    6.0       22.5975090852       15.8780914736       22.9952942583
H    1.0       21.7990720657       16.6172806232       22.8614455098
O    8.0       23.3729469038       16.2145392442       24.1490070444
H    1.0       22.7734691726       16.0412373410       24.9096495964
C    6.0       23.4848454369       15.8761730436       21.7246258847
H    1.0       24.4128564436       15.3315199279       21.9435340376
C    6.0       22.7642007145       15.2341690947       20.5051811025
H    1.0       21.9841141331       15.9356513510       20.1862800978
O    8.0       22.1462855983       13.9673909550       20.8630099980
C    6.0       23.6985519291       15.0024802314       19.2938294398
H    1.0       23.9729149012       15.9801120160       18.8743659600
H    1.0       23.1425050040       14.4590466494       18.5181499994
O    8.0       24.8821920745       14.2812512091       19.6579648431
H    1.0       25.3936961040       14.1141747534       18.8365275283
C    6.0       21.2613167720       20.2207129168       17.3822052278
H    1.0       21.8014026578       19.2932829306       17.2005338256
H    1.0       21.4860727325       21.0669515603       16.7356950887
C    6.0       20.3544992431       20.3192543591       18.3567003274
H    1.0       19.8237070169       21.2566820047       18.5184071866
C    6.0       19.9892501047       19.1890704812       19.2928085474
H    1.0       20.5621806201       18.2857186245       19.0491211794
H    1.0       18.9279892552       18.9420737013       19.1580707025
C    6.0       20.2352218222       19.5705301830       20.7671962178
H    1.0       21.2998507989       19.7450019719       20.9443819527
H    1.0       19.7259498151       20.5096785497       20.9927317529
C    6.0       19.7226375653       18.4912913994       21.7337003470
H    1.0       20.2956640906       17.5696169723       21.5913861195
H    1.0       18.6846034470       18.2559083087       21.4827003430
C    6.0       19.8074402351       18.9438233481       23.2140362255
H    1.0       20.8548545187       19.0532830516       23.5179890953
H    1.0       19.3305836939       19.9245036820       23.3332900189
C    6.0       19.1303502191       17.9764264933       24.1818589660
O    8.0       19.5671302952       16.8455931072       24.2640519787
O    8.0       18.1217319443       18.3521935155       24.7527796325
 $end
