$$$$
! Edit this basic GAMESS input file as needed.
! Conformer was generated by a VeraChem VCPack run 
! and contains    143 atoms.
!
 $contrl scftyp=rhf runtyp=optimize nzvar=0
  maxit=200 icharg=0 $end
 $system mwords=50 $end
 $basis gbasis=pm3 $end
 $statpt nstep=200 $end
 $guess guess=huckel $end
 $data
VM2 Rank=1      G=490.294           E=304.907           -TS=185.387             
C1
C    6.0       16.3069159651       15.1881285289       20.9298233225
H    1.0       15.2565102221       14.9873081786       20.6839866172
O    8.0       16.5174432104       16.5694965037       21.2859820146
C    6.0       16.7650280267       14.3009599852       22.1150010713
H    1.0       16.6327529805       13.2547673472       21.8098398268
O    8.0       15.9812218072       14.5505748249       23.2897922451
H    1.0       16.4390886906       14.0494087209       24.0019095916
C    6.0       18.2647577936       14.5169394489       22.4310053583
H    1.0       18.3900373540       15.5438286830       22.8021994295
O    8.0       18.6572179016       13.5831163233       23.4442514236
H    1.0       19.4623925577       13.9706531659       23.8689219803
C    6.0       19.1365764974       14.3545325992       21.1529020547
H    1.0       19.1939064137       13.2951382270       20.8702259011
C    6.0       18.5558149520       15.1674584105       19.9643662936
H    1.0       18.6892941123       16.2346271512       20.1807778672
O    8.0       17.1472269934       14.8742633131       19.7998265467
C    6.0       19.2556811153       14.8665131148       18.6206534403
H    1.0       20.3232955614       15.1059229239       18.7095772377
H    1.0       18.8347167952       15.5255547268       17.8496740983
O    8.0       19.0854060236       13.4957401463       18.2483759848
H    1.0       18.1173532438       13.3263477027       18.2753818464
C    6.0       14.6335285840       20.2723784546       21.3291182772
H    1.0       13.9084907431       21.0954297716       21.3048756655
O    8.0       15.9918741235       20.7539446824       21.3507117851
C    6.0       14.4016071609       19.3990328763       22.5874495809
H    1.0       13.3804255529       19.0009017350       22.5259706713
O    8.0       14.5349721069       20.1683681555       23.7906435829
H    1.0       14.5455913476       19.4982683560       24.5108552596
C    6.0       15.3772905323       18.2001803049       22.6176164818
H    1.0       16.3923690898       18.5902838353       22.7605862122
O    8.0       15.0243346541       17.3287761967       23.6986792241
H    1.0       15.5066140696       16.4782954005       23.5478799760
C    6.0       15.3499688126       17.4147153119       21.2846663394
H    1.0       14.4193073449       16.8334880878       21.2434508047
C    6.0       15.4404454067       18.3499342958       20.0478902487
H    1.0       16.4544373154       18.7677022507       20.0060872248
O    8.0       14.4752512019       19.4244159535       20.1717076598
C    6.0       15.1645617444       17.6280337105       18.7104481711
H    1.0       15.9324979976       16.8604549272       18.5497307396
H    1.0       15.2543646282       18.3552013686       17.8924838429
O    8.0       13.8630703600       17.0338220408       18.7060680600
H    1.0       13.2303787246       17.7609918492       18.8993522211
C    6.0       18.4227241593       24.0456136965       20.9043937722
H    1.0       18.8822264383       25.0228064176       20.7078350718
O    8.0       19.4256208158       23.0220393498       21.0864227278
C    6.0       17.4878800896       24.1101427027       22.1435934044
H    1.0       16.6807757475       24.8130538580       21.9007958201
O    8.0       18.1863178980       24.5988941455       23.2987055512
H    1.0       18.7995989924       23.8763745841       23.5836198727
C    6.0       16.8418689277       22.7238010279       22.4051670704
H    1.0       17.6349562878       22.0281486805       22.7124611998
O    8.0       15.8470683960       22.8141238047       23.4329312147
H    1.0       15.4912475840       21.9007920499       23.5648428273
C    6.0       16.1751618532       22.1635797417       21.1224951223
H    1.0       15.2218269046       22.6853610469       20.9663252898
C    6.0       17.0501367558       22.3183139363       19.8484816878
H    1.0       17.8623318541       21.5829731334       19.8918284449
O    8.0       17.6050800684       23.6556645030       19.7817500259
C    6.0       16.2633782428       22.0717246558       18.5422533771
H    1.0       15.8625873858       21.0498064359       18.5512470876
H    1.0       16.9572436306       22.1444902994       17.6942059564
O    8.0       15.2002648553       23.0180017513       18.3956051301
H    1.0       15.6155894659       23.9065446285       18.4634877983
C    6.0       23.4344492270       22.5073018380       22.0586099393
H    1.0       24.4708936866       22.6346543927       22.3950762070
O    8.0       23.2592336915       21.2748150132       21.3281135524
C    6.0       22.4681643030       22.5143255661       23.2722061215
H    1.0       22.5655604565       23.4929311931       23.7595714317
O    8.0       22.8368776735       21.4921064140       24.2139408979
H    1.0       22.0140497707       20.9927809331       24.4616919758
C    6.0       20.9984240549       22.3717612225       22.7980516450
H    1.0       20.8733219408       21.3719345933       22.3616356801
O    8.0       20.1086085036       22.5360498779       23.9093404219
H    1.0       20.1432555560       21.6790223516       24.4100744526
C    6.0       20.6623258952       23.4250849223       21.7093554533
H    1.0       20.5749314420       24.4079679416       22.1906344440
C    6.0       21.7411636070       23.4890538801       20.5931074004
H    1.0       21.6763652998       22.5689573296       19.9970381890
O    8.0       23.0572946414       23.5961091303       21.1891478590
C    6.0       21.5635024766       24.6837132446       19.6293497119
H    1.0       20.6214796325       24.5619162732       19.0783999842
H    1.0       22.3770253939       24.6654716121       18.8917547977
O    8.0       21.5635180006       25.9266633422       20.3377963199
H    1.0       22.4130541419       25.9616650282       20.8313434938
C    6.0       25.1483206637       17.6601184747       20.6959397345
H    1.0       25.8021735384       16.8209211063       20.4261260584
O    8.0       23.8022703105       17.2128824616       20.9635497705
C    6.0       25.7115783000       18.4404100751       21.9135592841
H    1.0       26.6703182246       18.8736519762       21.6010703470
O    8.0       25.9490721856       17.5665138670       23.0277333720
H    1.0       25.0618345397       17.3475213867       23.4069297377
C    6.0       24.7658929244       19.6128286616       22.2890600765
H    1.0       23.8209152053       19.1861689913       22.6531559616
O    8.0       25.3641084981       20.4096025108       23.3181854681
H    1.0       24.6092841541       20.8189083372       23.8082511568
C    6.0       24.4463488289       20.5030302528       21.0516534290
H    1.0       25.3028354525       21.1563667490       20.8390134849
C    6.0       24.1189261492       19.6763945014       19.7769397915
H    1.0       23.1087798699       19.2601135707       19.8874733134
O    8.0       25.0758459255       18.6001198953       19.6048333947
C    6.0       24.1323318088       20.5293058294       18.4890320428
H    1.0       23.4019912317       21.3431140988       18.5905117685
H    1.0       23.8111284087       19.9012662095       17.6473952020
O    8.0       25.4358369469       21.0638931913       18.2394435135
H    1.0       26.0499028979       20.2959507011       18.2468004955
C    6.0       21.4111324824       14.0585592477       22.0670579369
H    1.0       20.9618868324       13.1165296604       22.4051698862
O    8.0       20.4492936486       14.9005067999       21.3957087699
C    6.0       22.0011708982       14.8418542778       23.2666615788
H    1.0       22.8002424668       14.2257839922       23.6986252383
O    8.0       20.9930752899       15.0622327517       24.2674021762
H    1.0       20.9800710991       16.0359469696       24.4677524156
C    6.0       22.6382976274       16.1702857634       22.7827095265
H    1.0       21.8399165517       16.8187264470       22.4053037896
O    8.0       23.2975956791       16.8221230349       23.8747655452
H    1.0       22.5748874354       17.2772736266       24.3835761818
C    6.0       23.6353136006       15.9384688310       21.6159247598
H    1.0       24.5790948793       15.5537248839       22.0236873566
C    6.0       23.0886151709       14.9628971766       20.5346416763
H    1.0       22.3239768428       15.4928337953       19.9515103679
O    8.0       22.4977452405       13.7946482439       21.1550492410
C    6.0       24.1700714404       14.4762499790       19.5446329799
H    1.0       24.5515367196       15.3371670438       18.9798622239
H    1.0       23.7044101360       13.7924064496       18.8222803323
O    8.0       25.2418972706       13.8208652247       20.2287183591
H    1.0       24.8337030392       13.0867505728       20.7397467424
C    6.0       20.2371524008       18.8464714309       24.3877172799
O    8.0       20.5538927354       19.9513099271       24.7870738194
O    8.0       20.8194006628       17.8247598525       24.7016621057
C    6.0       19.0739504004       18.7432627176       23.4069255083
H    1.0       18.5188014287       19.6886337043       23.4301521987
H    1.0       18.3997998608       17.9626370378       23.7762509524
C    6.0       19.5258741631       18.4183531463       21.9960007885
H    1.0       19.8622070063       17.3975243103       21.8466805067
C    6.0       19.5500120123       19.2897296963       20.9839678058
H    1.0       19.2162790077       20.3133388196       21.1356077551
C    6.0       20.0846030511       18.9731840340       19.6038196912
H    1.0       20.7687558504       19.7722738153       19.2894970425
H    1.0       20.6748169027       18.0467490549       19.6286191031
C    6.0       18.9574818929       18.8334428732       18.5619505018
H    1.0       19.3743352357       18.6213282071       17.5692098659
H    1.0       18.2798110657       18.0139988379       18.8254598643
H    1.0       18.3704033842       19.7566782611       18.4926420336
 $end
