$$$$
! Edit this basic GAMESS input file as needed.
! Conformer was generated by a VeraChem VCPack run 
! and contains    148 atoms.
!
 $contrl scftyp=rhf runtyp=optimize nzvar=0
  maxit=200 icharg=0 $end
 $system mwords=50 $end
 $basis gbasis=pm3 $end
 $statpt nstep=200 $end
 $guess guess=huckel $end
 $data
VM2 Rank=1      G=566.048           E=371.171           -TS=194.878             
C1
C    6.0       16.2194169174       15.1817804883       21.6062456645
H    1.0       15.1376322880       14.9965195367       21.5993069882
O    8.0       16.5226937394       16.5766482194       21.4103499029
C    6.0       16.8307192611       14.7250626835       22.9559440090
H    1.0       16.6448654386       13.6474497344       23.0519409810
O    8.0       16.2239896860       15.4049672906       24.0659581866
H    1.0       15.6914362402       16.1523945180       23.6968165339
C    6.0       18.3599074941       14.9467502458       22.9638975427
H    1.0       18.5390559782       16.0265026065       22.9247415385
O    8.0       18.9135019162       14.4017022701       24.1649413940
H    1.0       18.3133995365       14.7137122522       24.8788329888
C    6.0       19.0301686840       14.2974635626       21.7301491454
H    1.0       19.0156811101       13.2085320431       21.8698230469
C    6.0       18.2980228747       14.6615431243       20.4084343712
H    1.0       18.4873018685       15.7207084971       20.1877189492
O    8.0       16.8716102230       14.4351311324       20.5561011971
C    6.0       18.7746627892       13.8311367288       19.1961844715
H    1.0       19.8334975483       14.0476692115       19.0047071672
H    1.0       18.2110200511       14.1481910976       18.3085726394
O    8.0       18.5899982995       12.4310854939       19.4267344876
H    1.0       17.6353616954       12.3114181135       19.6286700323
C    6.0       14.7324349570       20.2678609272       20.6937640008
H    1.0       14.0575427722       21.0742872002       20.3807524044
O    8.0       15.9842462288       20.7789960708       21.1897990661
C    6.0       14.0804923756       19.4334324661       21.8244949789
H    1.0       13.1396369046       19.0262627303       21.4320074037
O    8.0       13.7981078846       20.2591502479       22.9660264435
H    1.0       14.5486965815       20.8984822050       23.0603542515
C    6.0       14.9820179315       18.2416853078       22.2301133644
H    1.0       15.8794995420       18.6466426239       22.7142964404
O    8.0       14.2727078014       17.4081702912       23.1508511158
H    1.0       13.8456544731       18.0322985988       23.7801290790
C    6.0       15.4288136917       17.4174817645       20.9946405544
H    1.0       14.5807432827       16.8294405885       20.6194694618
C    6.0       15.9574011885       18.3212895902       19.8492440264
H    1.0       16.9231347486       18.7464877824       20.1529966508
O    8.0       15.0071292590       19.3840705282       19.5875655627
C    6.0       16.1723167504       17.5533625835       18.5261974061
H    1.0       16.8951282659       16.7442375882       18.6928844744
H    1.0       16.6094342144       18.2390786129       17.7881027279
O    8.0       14.9389973079       17.0187553194       18.0363510356
H    1.0       14.3125791690       17.7754402623       17.9968031408
C    6.0       18.3949963240       24.1532757276       21.2779876236
H    1.0       18.8246985112       25.1605233310       21.2003893271
O    8.0       19.4010028422       23.1616841482       21.5623473643
C    6.0       17.3219909989       24.0885161309       22.3940520283
H    1.0       16.5267222922       24.7975249535       22.1298681441
O    8.0       17.8741001505       24.4517843016       23.6696593490
H    1.0       18.6837150344       23.8983942789       23.8126858130
C    6.0       16.7026962837       22.6720731834       22.4572705596
H    1.0       17.4901013554       21.9850673299       22.7878598193
O    8.0       15.6191040586       22.6576558134       23.3922781895
H    1.0       15.9546228550       23.1391811208       24.1808676386
C    6.0       16.2052872448       22.1978360704       21.0683760751
H    1.0       15.2827982040       22.7408924119       20.8239866784
C    6.0       17.2596659113       22.4309342142       19.9506197895
H    1.0       18.0827635417       21.7153954246       20.0816755104
O    8.0       17.7522215008       23.7919596000       20.0377994493
C    6.0       16.6801086577       22.2501431359       18.5318950609
H    1.0       15.8605988087       22.9652810257       18.3803162433
H    1.0       16.2673293769       21.2395273749       18.4297581155
O    8.0       17.7065327960       22.4502500099       17.5581462538
H    1.0       18.1321774305       23.3061681222       17.7884920533
C    6.0       23.4480760019       22.6490443783       22.1192951634
H    1.0       24.5238957031       22.7471658695       22.3109548034
O    8.0       23.1179583382       21.3546814767       21.5757244231
C    6.0       22.6498185436       22.8449240712       23.4317624293
H    1.0       22.8677670520       23.8567258057       23.7975871483
O    8.0       23.0483134134       21.8856966020       24.4252043679
H    1.0       23.9068997367       21.5018659625       24.1273800900
C    6.0       21.1289824061       22.7426790361       23.1642870328
H    1.0       20.9058465464       21.7057113775       22.8899675215
O    8.0       20.4114333372       23.0879619210       24.3529391270
H    1.0       20.8635325338       22.5888377441       25.0694181315
C    6.0       20.6834134177       23.6540395809       21.9931043561
H    1.0       20.6255702988       24.6874235310       22.3602593397
C    6.0       21.6333985507       23.5731381957       20.7643182125
H    1.0       21.4650429069       22.6101615230       20.2654948413
O    8.0       23.0146941412       23.6629244405       21.1893924616
C    6.0       21.3902197927       24.6864458682       19.7209855280
H    1.0       20.3893990115       24.5600558593       19.2878410672
H    1.0       22.1153215043       24.5687437638       18.9044487828
O    8.0       21.5122412307       25.9841945931       20.3106189654
H    1.0       22.4168456763       26.0287433307       20.6930870489
C    6.0       25.0028414513       17.7364208552       20.7645674548
H    1.0       25.6670909921       16.9404885253       20.4039729406
O    8.0       23.8124529909       17.2044123787       21.3731443207
C    6.0       25.7172557642       18.6002307780       21.8345079320
H    1.0       26.6200552105       19.0199124554       21.3721589336
O    8.0       26.0890937422       17.7900791120       22.9620670800
H    1.0       25.3224680123       17.1939400391       23.1539421554
C    6.0       24.8218825077       19.7781069459       22.2981915887
H    1.0       23.9897044779       19.3559492180       22.8693933924
O    8.0       25.5818538489       20.6388365031       23.1537251021
H    1.0       26.0956049725       20.0311740687       23.7326016103
C    6.0       24.2248400627       20.5659124418       21.0969999585
H    1.0       24.9998115122       21.1990768620       20.6450230638
C    6.0       23.6449297667       19.6230524773       20.0085402586
H    1.0       22.7284676264       19.1581844873       20.3974903314
O    8.0       24.6164743687       18.6021826109       19.6786743864
C    6.0       23.2814817100       20.3568105375       18.6986179413
H    1.0       22.5245852445       21.1217981045       18.9124676833
H    1.0       22.8307972073       19.6344148727       18.0051250461
O    8.0       24.4368501192       20.9574619014       18.1060856655
H    1.0       25.1033776433       20.2393442315       18.0247759492
C    6.0       21.4187847888       13.8288395192       21.4875134219
H    1.0       21.0132730692       12.8097320121       21.4513936617
O    8.0       20.3765120560       14.8155635147       21.6583141383
C    6.0       22.4172567951       13.9673942158       22.6636894095
H    1.0       23.2287687651       13.2478048029       22.4946436469
O    8.0       21.7825263134       13.6746601659       23.9190107901
H    1.0       20.8742388718       14.0697398384       23.8965812722
C    6.0       23.0352911090       15.3843927579       22.6856451203
H    1.0       22.2335995870       16.0918212875       22.9196012024
O    8.0       24.0538266382       15.4553694492       23.6898481338
H    1.0       23.6599758252       15.0264873300       24.4815556814
C    6.0       23.6272205411       15.7780591260       21.3114139907
H    1.0       24.5796424692       15.2474998992       21.1820961305
C    6.0       22.6662299995       15.4541612760       20.1300134147
H    1.0       21.8397607203       16.1748820285       20.1411193405
O    8.0       22.1397671456       14.1121429520       20.2704575939
C    6.0       23.3390549537       15.5307043830       18.7411551552
H    1.0       23.6411360849       16.5653434459       18.5396141418
H    1.0       22.5990658749       15.2566406341       17.9774459304
O    8.0       24.4719601240       14.6598372627       18.6667654063
H    1.0       24.1391817019       13.7596704402       18.8796131802
C    6.0       18.3741258708       18.6041226106       25.1165913297
H    1.0       17.7934795167       18.9825407055       25.9685147865
H    1.0       17.8444613421       17.7079955149       24.7664727684
C    6.0       19.7757327383       18.2162017923       25.6302251865
H    1.0       20.2455032567       19.0880492425       26.1053896880
H    1.0       19.6571343254       17.4652661838       26.4228424109
C    6.0       20.7217565905       17.6462042581       24.5526074360
H    1.0       20.2680780633       16.7830105944       24.0577760916
H    1.0       21.6146028735       17.2637386097       25.0655241686
C    6.0       21.1817186010       18.6974865006       23.5161079027
H    1.0       21.3740911441       19.6501988296       24.0244446286
H    1.0       22.1490463777       18.3788420087       23.1195213475
C    6.0       20.2481976084       18.9380839800       22.3081128960
H    1.0       20.5991216458       19.8540208173       21.8137541934
C    6.0       18.7451066080       19.1241844319       22.6148007321
H    1.0       18.3480641867       19.8049551708       21.8533665858
H    1.0       18.2171196511       18.1786104242       22.4646898672
C    6.0       18.3748202946       19.6817731507       24.0097833041
H    1.0       19.0217646378       20.5261578039       24.2818521583
H    1.0       17.3550061462       20.0833209591       23.9521957158
O    8.0       20.3905203498       17.8631466280       21.3885859638
H    1.0       20.2638909016       17.0371250589       21.8968135872
 $end
$$$$
! Edit this basic GAMESS input file as needed.
! Conformer was generated by a VeraChem VCPack run 
! and contains    148 atoms.
!
 $contrl scftyp=rhf runtyp=optimize nzvar=0
  maxit=200 icharg=0 $end
 $system mwords=50 $end
 $basis gbasis=pm3 $end
 $statpt nstep=200 $end
 $guess guess=huckel $end
 $data
VM2 Rank=2      G=566.198           E=370.734           -TS=195.464             
C1
C    6.0       16.2271624401       15.1576390968       21.6183633789
H    1.0       15.1428805193       14.9892790102       21.5917283807
O    8.0       16.5561385770       16.5452655505       21.4171639455
C    6.0       16.8035386355       14.7043900211       22.9839780606
H    1.0       16.6021319041       13.6301032550       23.0856552826
O    8.0       16.1799916384       15.4036084739       24.0725567430
H    1.0       15.6594094473       16.1485296343       23.6821478599
C    6.0       18.3346776108       14.9085256055       23.0220657061
H    1.0       18.5268651600       15.9862259904       22.9792061826
O    8.0       18.8596283122       14.3670692575       24.2376491014
H    1.0       18.2507118905       14.6919653372       24.9380945538
C    6.0       19.0235822738       14.2435246155       21.8069304330
H    1.0       19.0020177934       13.1558122062       21.9547624396
C    6.0       18.3223764411       14.6012245221       20.4665620428
H    1.0       18.5317291793       15.6551047084       20.2383113121
O    8.0       16.8892703471       14.3959191762       20.5856515578
C    6.0       18.8125292132       13.7511257230       19.2735554768
H    1.0       19.8789045128       13.9474360309       19.1043531935
H    1.0       18.2755033768       14.0691592078       18.3699988776
O    8.0       18.5979256802       12.3568658349       19.5129225135
H    1.0       17.6379711968       12.2561131629       19.6992244576
C    6.0       14.8108883974       20.2375831656       20.5905821238
H    1.0       14.1525429276       21.0388315233       20.2311489559
O    8.0       16.0350841571       20.7574153727       21.1434109707
C    6.0       14.1104181509       19.4170337728       21.7027190906
H    1.0       13.1854293303       19.0075523492       21.2764758183
O    8.0       13.7845113760       20.2542027973       22.8243635933
H    1.0       14.5525934247       20.8622196414       22.9713805434
C    6.0       14.9942988890       18.2285444510       22.1566337279
H    1.0       15.8705747002       18.6371480931       22.6758804512
O    8.0       14.2473082648       17.3991479562       23.0511614619
H    1.0       13.7947460940       18.0254804100       23.6600002799
C    6.0       15.4942351653       17.3963361638       20.9471983215
H    1.0       14.6603967816       16.8163069856       20.5296626451
C    6.0       16.0861050582       18.2893708241       19.8265977315
H    1.0       17.0378606932       18.7174079000       20.1681789222
O    8.0       15.1375185681       19.3371403257       19.5110718071
C    6.0       16.3433821948       17.4939951964       18.5296775095
H    1.0       15.3938364774       17.0822311497       18.1624438535
H    1.0       17.0100879969       16.6500799198       18.7476891805
O    8.0       16.9358324916       18.3416382990       17.5436735949
H    1.0       16.3396114828       19.1181679461       17.4625855552
C    6.0       18.3868359113       24.1606844512       21.2931547247
H    1.0       18.8106623896       25.1722062690       21.2446562794
O    8.0       19.4044021482       23.1630147862       21.5119338002
C    6.0       17.3394684122       24.0468621238       22.4300365092
H    1.0       16.5244481164       24.7452032730       22.1996838277
O    8.0       17.9080140861       24.3914057518       23.7032043462
H    1.0       18.7256168980       23.8443278608       23.8230765654
C    6.0       16.7504985691       22.6167772155       22.4670262812
H    1.0       17.5612335640       21.9336651891       22.7450983430
O    8.0       15.6998065917       22.5481328830       23.4369716958
H    1.0       16.0516226417       23.0121533018       24.2288269688
C    6.0       16.2128160770       22.1858151351       21.0800745977
H    1.0       15.2646940364       22.7102937504       20.9027456620
C    6.0       17.2129463038       22.4931556166       19.9290658311
H    1.0       18.0477553617       21.7823504860       19.9948110023
O    8.0       17.7140403383       23.8475766876       20.0554432890
C    6.0       16.5921928396       22.3628262150       18.5203453904
H    1.0       16.3030564109       21.3189404797       18.3490754588
H    1.0       17.3572767596       22.6140270021       17.7736515662
O    8.0       15.4564144744       23.2205416761       18.3741500560
H    1.0       15.7739555293       24.1310744483       18.5649973524
C    6.0       23.4524555868       22.6181710105       22.0369277306
H    1.0       24.5305125535       22.7077638564       22.2194328529
O    8.0       23.1089297383       21.3330248414       21.4791932853
C    6.0       22.6656879254       22.8030973555       23.3581392558
H    1.0       22.8906631826       23.8102559044       23.7324458191
O    8.0       23.0661037071       21.8329925586       24.3400082703
H    1.0       23.9320363885       21.4638490896       24.0443193378
C    6.0       21.1425193544       22.7099072384       23.1014634163
H    1.0       20.9132185835       21.6781070803       22.8141716933
O    8.0       20.4392274560       23.0378376981       24.3029754502
H    1.0       20.9025615043       22.5305204590       25.0066249085
C    6.0       20.6914090111       23.6408792991       21.9471184115
H    1.0       20.6414752248       24.6690785668       22.3296181881
C    6.0       21.6323081077       23.5744769851       20.7105016642
H    1.0       21.4549557253       22.6212317784       20.1959248026
O    8.0       23.0177179056       23.6481057020       21.1251977403
C    6.0       21.3857925832       24.7081146181       19.6900517030
H    1.0       20.3763845594       24.6008305489       19.2713568458
H    1.0       22.0964776592       24.5962843294       18.8601603723
O    8.0       21.5325934845       25.9939255616       20.2999914479
H    1.0       22.4422023494       26.0194116412       20.6722882596
C    6.0       24.9608852809       17.6786430005       20.7311596726
H    1.0       25.6178894196       16.8727476698       20.3795030973
O    8.0       23.7702434923       17.1644716713       21.3540453789
C    6.0       25.6860266693       18.5564230963       21.7819909477
H    1.0       26.5871402150       18.9645535699       21.3062026024
O    8.0       26.0639631384       17.7654326719       22.9211757861
H    1.0       25.2935519762       17.1821589939       23.1379826910
C    6.0       24.7985329762       19.7459599622       22.2303643760
H    1.0       23.9620284442       19.3376377160       22.8053603820
O    8.0       25.5679165483       20.6099188845       23.0742481525
H    1.0       26.0839069460       20.0036010101       23.6528349278
C    6.0       24.2072327926       20.5209880195       21.0178328837
H    1.0       24.9885110814       21.1362245123       20.5522650914
C    6.0       23.6134399229       19.5633482983       19.9497501693
H    1.0       22.6957345275       19.1130261912       20.3528508947
O    8.0       24.5738472563       18.5277808555       19.6320163163
C    6.0       23.2471021188       20.2779510173       18.6300837857
H    1.0       22.4997583477       21.0544774360       18.8371336779
H    1.0       22.7835961793       19.5483660289       17.9527370652
O    8.0       24.4038664559       20.8564842625       18.0184843070
H    1.0       25.0624907512       20.1302613152       17.9447960384
C    6.0       21.4197525701       13.7712862840       21.6339922786
H    1.0       21.0219164645       12.7486703825       21.6486132704
O    8.0       20.3717489369       14.7576281094       21.7618292383
C    6.0       22.4162018810       13.9750223860       22.8021196478
H    1.0       23.2337845003       13.2546547994       22.6696697207
O    8.0       21.7798382275       13.7395833351       24.0688962978
H    1.0       20.8592140753       14.1010348833       24.0143862892
C    6.0       23.0218855938       15.3970084730       22.7563949493
H    1.0       22.2143253603       16.1064057214       22.9604402496
O    8.0       24.0424141091       15.5235416731       23.7529545318
H    1.0       23.6535189624       15.1304634394       24.5654033438
C    6.0       23.6050147950       15.7344223861       21.3636720537
H    1.0       24.5638388039       15.2106600439       21.2555697052
C    6.0       22.6457322554       15.3453769256       20.2013838621
H    1.0       21.8097333803       16.0553152148       20.1829985873
O    8.0       22.1376643240       14.0041104790       20.4042009487
C    6.0       23.3152128276       15.3726269751       18.8091972996
H    1.0       23.6068846309       16.4019624686       18.5671531996
H    1.0       22.5768374503       15.0610742440       18.0584129198
O    8.0       24.4568933332       14.5110996216       18.7677433276
H    1.0       24.1341154623       13.6173757376       19.0196599371
C    6.0       18.3213204114       18.5562897503       25.1276362036
H    1.0       17.7089875395       18.9309612538       25.9587752969
H    1.0       17.8056184480       17.6615210388       24.7546375986
C    6.0       19.7029472436       18.1671525242       25.6922414672
H    1.0       20.1534298968       19.0375757842       26.1881798942
H    1.0       19.5556099188       17.4128356566       26.4767853081
C    6.0       20.6896763606       17.6030567954       24.6486664269
H    1.0       20.2583413644       16.7365114606       24.1392984523
H    1.0       21.5670085826       17.2263582844       25.1916886062
C    6.0       21.1770018934       18.6575677441       23.6276028402
H    1.0       21.3362910865       19.6154794249       24.1380165337
H    1.0       22.1643308579       18.3515923035       23.2712671066
C    6.0       20.2852734331       18.8797093555       22.3847800669
H    1.0       20.6606639634       19.7809758666       21.8825120266
C    6.0       18.7746535846       19.0864618083       22.6402165986
H    1.0       18.4134906305       19.7784149973       21.8704838879
H    1.0       18.2387562649       18.1498034308       22.4643038206
C    6.0       18.3621313567       19.6385477738       24.0258745852
H    1.0       19.0025954816       20.4797443075       24.3223854743
H    1.0       17.3463086795       20.0444142931       23.9372131620
O    8.0       20.4470013928       17.7865382847       21.4909374861
H    1.0       20.2785403105       16.9717979415       22.0044162959
 $end
$$$$
! Edit this basic GAMESS input file as needed.
! Conformer was generated by a VeraChem VCPack run 
! and contains    148 atoms.
!
 $contrl scftyp=rhf runtyp=optimize nzvar=0
  maxit=200 icharg=0 $end
 $system mwords=50 $end
 $basis gbasis=pm3 $end
 $statpt nstep=200 $end
 $guess guess=huckel $end
 $data
VM2 Rank=3      G=566.200           E=371.451           -TS=194.749             
C1
C    6.0       16.1724714054       15.0553902617       21.2743501390
H    1.0       15.0930403132       14.8671111637       21.2099791108
O    8.0       16.4611839026       16.4424864338       21.5342949640
C    6.0       16.8134786064       14.2123418368       22.4066990389
H    1.0       16.6440784965       13.1550132373       22.1651809950
O    8.0       16.2098280987       14.5065960937       23.6764932983
H    1.0       16.1495228204       15.4926528965       23.7570364026
C    6.0       18.3428196273       14.4485534442       22.4654367174
H    1.0       18.5144200966       15.4820239930       22.7864128202
O    8.0       18.9336026176       13.5484916968       23.4086922904
H    1.0       18.3572574800       13.5978106974       24.2034959944
C    6.0       19.0002725955       14.2566157997       21.0765346368
H    1.0       19.0395322566       13.1801423728       20.8639834540
C    6.0       18.2290680917       14.9896038880       19.9428388770
H    1.0       18.3865720327       16.0707218204       20.0563868772
O    8.0       16.8152019981       14.6873357817       20.0361440766
C    6.0       18.6909131440       14.5916375745       18.5232633303
H    1.0       19.7310309987       14.9089532745       18.3808349719
H    1.0       18.0823024990       15.1363825022       17.7891823670
O    8.0       18.5717336123       13.1808615400       18.3169422859
H    1.0       17.6295554711       12.9577433311       18.4867571488
C    6.0       14.7889464258       20.2058088090       21.8326011619
H    1.0       14.1426255167       21.0867883806       21.9373784352
O    8.0       16.1459511798       20.5813523624       21.5151568555
C    6.0       14.7734797590       19.3811832313       23.1443199465
H    1.0       13.7468120099       19.0214428245       23.2904244825
O    8.0       15.1490948107       20.1789478119       24.2754632052
H    1.0       16.0966959678       20.4346519473       24.1439565559
C    6.0       15.6976634017       18.1513479293       23.0138653217
H    1.0       16.7213492890       18.5168539765       22.8778825111
O    8.0       15.6134822935       17.3555961388       24.2005099898
H    1.0       15.6133309348       18.0040788170       24.9392818046
C    6.0       15.3314536647       17.3036085652       21.7743331644
H    1.0       14.4165049585       16.7378563489       21.9945353309
C    6.0       15.1354400792       18.1718918224       20.4992097045
H    1.0       16.1292519505       18.4966211128       20.1672580200
O    8.0       14.3112441275       19.3354526267       20.7822344747
C    6.0       14.4767605178       17.4029887998       19.3326258088
H    1.0       15.1338209547       16.5774430955       19.0290688725
H    1.0       14.3829626341       18.0787911319       18.4720844464
O    8.0       13.1924363339       16.8983450727       19.7099439367
H    1.0       12.6660403799       17.6762182278       20.0005439649
C    6.0       18.5003534798       23.8183485431       20.4860245411
H    1.0       18.9248019762       24.7380897293       20.0629290030
O    8.0       19.5011290489       23.0329509419       21.1643926126
C    6.0       17.3770341450       24.1555984737       21.4955720127
H    1.0       16.6237327522       24.7439493879       20.9557844505
O    8.0       17.8913620014       24.9372161599       22.5866926434
H    1.0       18.7237829012       24.4994803034       22.8979823481
C    6.0       16.6844583578       22.8756062468       22.0276230933
H    1.0       17.3816356581       22.3719807864       22.7084211084
O    8.0       15.5051739857       23.2588647803       22.7410852733
H    1.0       15.8018755125       23.9313975226       23.3921266477
C    6.0       16.3163494732       21.8743644626       20.8971410760
H    1.0       15.3968672004       22.2075923225       20.3973385902
C    6.0       17.4306592835       21.7185414974       19.8272585132
H    1.0       18.2458526101       21.1108866196       20.2407002450
O    8.0       17.9198267419       23.0219511354       19.4367261420
C    6.0       16.9081559340       21.0417790617       18.5427917110
H    1.0       16.1637986462       21.6949515612       18.0678479705
H    1.0       16.4056905303       20.1031571767       18.7994202853
O    8.0       17.9914558217       20.7846631716       17.6477785605
H    1.0       18.4526215206       21.6436062231       17.5259345515
C    6.0       23.6222808769       22.9074388453       21.6921325084
H    1.0       24.6969401376       23.1211447031       21.7569123307
O    8.0       23.3438991665       21.4984182854       21.8067516883
C    6.0       22.8405772261       23.6404447677       22.8121636419
H    1.0       22.9831903056       24.7187543980       22.6639882112
O    8.0       23.3268257578       23.2773908929       24.1140364521
H    1.0       23.4378778400       22.2929899588       24.1312275358
C    6.0       21.3279081085       23.3371076331       22.6931472199
H    1.0       21.1864108498       22.2677410012       22.8853508287
O    8.0       20.6022856636       24.1095333827       23.6553228194
H    1.0       21.1191674859       24.0301848998       24.4876044065
C    6.0       20.8030804404       23.6439438588       21.2700821074
H    1.0       20.7509782091       24.7351219999       21.1578648062
C    6.0       21.7108352110       23.0405962754       20.1598811343
H    1.0       21.5792270256       21.9501492968       20.1579156462
O    8.0       23.0982934887       23.3650548390       20.4273133781
C    6.0       21.3828207447       23.5568978536       18.7408390704
H    1.0       20.3794137226       23.2160950850       18.4562673391
H    1.0       22.0905688523       23.1091239224       18.0304460964
O    8.0       21.4554575556       24.9844799548       18.6799270770
H    1.0       22.3669250484       25.2255477644       18.9582249291
C    6.0       24.9866353861       17.7408018232       22.0483424298
H    1.0       25.6137671470       16.8457732086       22.1509809472
O    8.0       23.6668803839       17.4157278922       21.5649633151
C    6.0       24.8575686209       18.4624956092       23.4121306393
H    1.0       25.8652952547       18.7814791580       23.7085427686
O    8.0       24.3256644136       17.5917747799       24.4230783440
H    1.0       24.2061591963       16.7027251185       24.0086579333
C    6.0       23.9764181211       19.7237436218       23.2733374636
H    1.0       22.9537621369       19.3980051250       23.0448339686
O    8.0       23.9934947056       20.4440276125       24.5086136878
H    1.0       23.8652820760       19.7533725787       25.1972568879
C    6.0       24.4553215060       20.6383714064       22.1195095259
H    1.0       25.3334187868       21.2018145694       22.4618681145
C    6.0       24.7957819683       19.8531288371       20.8207107499
H    1.0       23.8516102083       19.5495849317       20.3500315050
O    8.0       25.5854024096       18.6746341704       21.1249196324
C    6.0       25.5820986977       20.6947058452       19.7912157981
H    1.0       24.9632808386       21.5446985257       19.4744560026
H    1.0       25.7713723188       20.0787387329       18.9019437035
O    8.0       26.8164252494       21.1620726429       20.3432307070
H    1.0       27.3050396907       20.3620782726       20.6398175964
C    6.0       21.3930958740       14.0570042924       20.6094977653
H    1.0       21.0413194817       13.0952014283       20.2147525225
O    8.0       20.3158176611       14.8372394747       21.1638655705
C    6.0       22.4358526174       13.8346505170       21.7329709946
H    1.0       23.2677156589       13.2634510536       21.3008043009
O    8.0       21.8656857207       13.0883848576       22.8205159186
H    1.0       20.9492132932       13.4345663830       22.9685454672
C    6.0       22.9978496925       15.1852773184       22.2416961791
H    1.0       22.1866529001       15.7181488379       22.7527900650
O    8.0       24.0645895850       14.9290899625       23.1607727218
H    1.0       23.7441945773       14.1828821431       23.7169476318
C    6.0       23.4869093384       16.0759998778       21.0680706501
H    1.0       24.4215045992       15.6701878892       20.6580674587
C    6.0       22.4419998072       16.1613018464       19.9258576716
H    1.0       21.5828038820       16.7550512714       20.2660934840
O    8.0       22.0266514595       14.8226325623       19.5637865518