$$$$
! Edit this basic GAMESS input file as needed.
! Conformer was generated by a VeraChem VCPack run 
! and contains    149 atoms.
!
 $contrl scftyp=rhf runtyp=optimize nzvar=0
  maxit=200 icharg=0 $end
 $system mwords=50 $end
 $basis gbasis=pm3 $end
 $statpt nstep=200 $end
 $guess guess=huckel $end
 $data
VM2 Rank=1      G=557.147           E=360.382           -TS=196.765             
C1
C    6.0       16.2713644109       15.0727593324       20.5628372674
H    1.0       15.2125877032       14.9902497003       20.2849797183
O    8.0       16.6509795580       16.4476404997       20.7950859464
C    6.0       16.5934805842       14.2077034880       21.8105533292
H    1.0       16.4194902628       13.1611652424       21.5280262189
O    8.0       15.7509739726       14.5285301059       22.9268690699
H    1.0       15.9773653741       15.4537486731       23.1982783574
C    6.0       18.0839302000       14.3527530531       22.1984056972
H    1.0       18.2445570384       15.3838417380       22.5433772610
O    8.0       18.3843848184       13.4365601409       23.2558741397
H    1.0       17.6065541061       13.4763073457       23.8576491106
C    6.0       19.0232188641       14.0991423432       20.9883574676
H    1.0       19.1377960030       13.0188241544       20.8278929087
C    6.0       18.5256946423       14.7555059686       19.6706812566
H    1.0       18.7441997677       15.8276237397       19.7233306204
O    8.0       17.0995969741       14.5657704410       19.4970146725
C    6.0       19.2354508715       14.1952319637       18.4184836427
H    1.0       20.3176866948       14.3527588189       18.5191743814
H    1.0       18.8990032119       14.7597959527       17.5388790480
O    8.0       18.9543208194       12.8031669255       18.2491554172
H    1.0       17.9745036858       12.7208158324       18.2458227735
C    6.0       15.0850900212       20.1844415060       21.7531350195
H    1.0       14.4336612138       21.0099840058       22.0662272036
O    8.0       16.2993537100       20.6684512618       21.1450179600
C    6.0       15.4507402924       19.2928087224       22.9695995738
H    1.0       14.5077676710       18.9166091414       23.3873189775
O    8.0       16.1516744588       20.0329808285       23.9821836504
H    1.0       15.9124371968       20.9832948624       23.8637326518
C    6.0       16.3019850617       18.0792726636       22.5316054270
H    1.0       17.2732685382       18.4548341927       22.1896965609
O    8.0       16.4861080753       17.2171825706       23.6578595580
H    1.0       16.7286907195       17.8248346135       24.3928110962
C    6.0       15.6437377162       17.3126846320       21.3575326112
H    1.0       14.7843132351       16.7474460683       21.7417567542
C    6.0       15.1787746770       18.2701420933       20.2256868810
H    1.0       16.0693781741       18.6727127068       19.7248691171
O    8.0       14.4016054769       19.3568030215       20.7872655913
C    6.0       14.3115308809       17.5747927253       19.1525604157
H    1.0       14.9197843726       16.8214741438       18.6344110262
H    1.0       14.0088763357       18.3202622040       18.4050282889
O    8.0       13.1591017394       16.9602578155       19.7363223770
H    1.0       12.6711335493       17.6756393710       20.2017907540
C    6.0       18.4634273530       24.1990431302       20.9474408914
H    1.0       18.8471299589       25.2111233587       20.7642277562
O    8.0       19.5077398734       23.2926438366       21.3496938263
C    6.0       17.3740309784       24.2001345966       22.0483415939
H    1.0       16.5440823006       24.8190789481       21.6831831848
O    8.0       17.8660931246       24.7576576506       23.2771831972
H    1.0       18.6878824380       24.2615052957       23.5226714240
C    6.0       16.8339265989       22.7671043690       22.2819584747
H    1.0       17.6437714137       22.1662763636       22.7189579615
O    8.0       15.7375852123       22.8407210640       23.2001457994
H    1.0       16.0105525493       23.5128803955       23.8659705190
C    6.0       16.4001408863       22.0941474760       20.9456760592
H    1.0       15.4435485976       22.5168852928       20.6106754703
C    6.0       17.4506054406       22.2832955648       19.8186186094
H    1.0       18.3183026632       21.6506450491       20.0390995496
O    8.0       17.8557782615       23.6718806621       19.7495645713
C    6.0       16.9026692565       21.8768458529       18.4345358620
H    1.0       16.1322935344       22.5945726499       18.1223173511
H    1.0       16.4280148859       20.8893702153       18.5083831322
O    8.0       17.9672530507       21.8297063362       17.4820083280
H    1.0       18.3953513754       22.7133672908       17.5034524543
C    6.0       23.4721097185       22.8332750312       22.1258154740
H    1.0       24.5443149321       22.8865407322       22.3551006659
O    8.0       23.0944971801       21.5299866572       21.6324526774
C    6.0       22.6403842206       23.1567121605       23.3915847506
H    1.0       22.8772681466       24.1879991471       23.6840082356
O    8.0       22.9695180037       22.2711356007       24.4736773650
H    1.0       23.6380890126       21.6281268505       24.1307547369
C    6.0       21.1285300311       23.0793625946       23.0846362589
H    1.0       20.8846619461       22.0252909420       22.9194232043
O    8.0       20.3865717472       23.5591688058       24.2094136165
H    1.0       20.8042027330       23.1255682586       24.9873380682
C    6.0       20.7374319022       23.8776066284       21.8132318460
H    1.0       20.6156029990       24.9341560333       22.0870942120
C    6.0       21.7529513478       23.7379834661       20.6419113401
H    1.0       21.5853800223       22.7629546471       20.1666350087
O    8.0       23.1175392161       23.8094441373       21.1256349581
C    6.0       21.5811362835       24.8162086538       19.5491818390
H    1.0       20.5939606148       24.7001634619       19.0826820313
H    1.0       22.3330899400       24.6488157287       18.7664054236
O    8.0       21.7172804591       26.1312471441       20.0950415237
H    1.0       22.6046105782       26.1643222897       20.5172366373
C    6.0       24.7933426256       17.8099923791       20.8197008652
H    1.0       25.4559028394       16.9971078518       20.4957717288
O    8.0       23.4722872769       17.3202381983       21.1237982938
C    6.0       25.3818882745       18.5503488753       22.0531401835
H    1.0       26.3550431630       18.9557796148       21.7469940261
O    8.0       25.5804326107       17.6695126775       23.1692216504
H    1.0       24.6887617033       17.3239672505       23.4281414104
C    6.0       24.4828831002       19.7407941283       22.4651201760
H    1.0       23.5307887516       19.3358065875       22.8348228937
O    8.0       25.1312795606       20.4827004638       23.5033441568
H    1.0       25.5139122686       19.8022495001       24.1025333873
C    6.0       24.1786010607       20.6608004156       21.2539634742
H    1.0       25.0781006859       21.2297244845       20.9827252941
C    6.0       23.7115872840       19.8545653631       20.0142211520
H    1.0       22.7101738145       19.4531110201       20.2101240465
O    8.0       24.6533065308       18.7814306282       19.7618668952
C    6.0       23.6454478782       20.7189150253       18.7383428940
H    1.0       24.6581525040       21.0475680049       18.4692069582
H    1.0       23.0460750738       21.6159969557       18.9349850658
O    8.0       23.0600034439       19.9680686442       17.6728080165
H    1.0       23.5860832081       19.1418813388       17.6032200775
C    6.0       21.2959144014       13.9037290910       21.8911579322
H    1.0       20.9134671260       12.9060024461       22.1425985698
O    8.0       20.2818467557       14.7315912038       21.2870956538
C    6.0       21.8383965119       14.6141186516       23.1580646958
H    1.0       22.6777897195       14.0148397802       23.5342476913
O    8.0       20.8399642251       14.7201624935       24.1852634332
H    1.0       20.0187626925       14.2877697845       23.8453203348
C    6.0       22.3727859980       16.0180068213       22.8001637437
H    1.0       21.5147104335       16.6270631959       22.4913856477
O    8.0       22.9884370126       16.5962840661       23.9553087295
H    1.0       22.3590153383       16.4103642584       24.6882903097
C    6.0       23.3792387496       15.9716108600       21.6236512922
H    1.0       24.3428021417       15.6047246956       22.0012236360
C    6.0       22.8947364487       15.0716957170       20.4497103642
H    1.0       22.0905135217       15.6003811133       19.9212400284
O    8.0       22.3932727217       13.8085114939       20.9578124358
C    6.0       23.9976013046       14.7584810709       19.4142473300
H    1.0       24.2977781964       15.6905368993       18.9176044057
H    1.0       23.5796760101       14.0984817683       18.6422294231
O    8.0       25.1304482534       14.1425482110       20.0331607989
H    1.0       24.7973027570       13.3275372705       20.4705307428
N    7.0       20.1511818050       17.9354558915       15.5719117927
H    1.0       21.0775484539       17.4997118679       15.6164624356
H    1.0       20.0976470135       18.4299056374       14.6752608126
H    1.0       19.4574199972       17.1823973424       15.5409621042
C    6.0       19.9184365700       18.8737320142       16.7383094563
H    1.0       18.9345660983       19.3358863712       16.6151279415
H    1.0       20.6748077583       19.6629017556       16.6919644749
C    6.0       19.9954566186       18.1720037485       18.1050273313
H    1.0       19.2517584781       17.3676711900       18.1468944558
H    1.0       20.9872724243       17.7159130872       18.2255712845
C    6.0       19.7423866222       19.1771061576       19.2458696411
H    1.0       18.7216192335       19.5716284677       19.1592759267
H    1.0       20.4240561397       20.0311990314       19.1245923962
C    6.0       19.9385573225       18.5575360819       20.6473418000
H    1.0       19.1820556163       17.7829598323       20.8283797436
H    1.0       20.9172367771       18.0644127403       20.6993608415
C    6.0       19.8497437248       19.6410979261       21.7419226613
H    1.0       18.8545461916       20.1027972015       21.7291029791
H    1.0       20.5684841223       20.4373185308       21.5132862138
C    6.0       20.1328405399       19.0856110872       23.1523522502
H    1.0       19.4822823235       18.2319022281       23.3836547335
H    1.0       19.9578764217       19.8577605453       23.9127723044
H    1.0       21.1762935998       18.7610169280       23.2441464440
 $end
$$$$
! Edit this basic GAMESS input file as needed.
! Conformer was generated by a VeraChem VCPack run 
! and contains    149 atoms.
!
 $contrl scftyp=rhf runtyp=optimize nzvar=0
  maxit=200 icharg=0 $end
 $system mwords=50 $end
 $basis gbasis=pm3 $end
 $statpt nstep=200 $end
 $guess guess=huckel $end
 $data
VM2 Rank=2      G=557.152           E=359.287           -TS=197.866             
C1
C    6.0       16.2044719404       15.0171519502       20.5496966324
H    1.0       15.1492270061       14.9069845154       20.2681717855
O    8.0       16.5370603557       16.3920892730       20.8389328127
C    6.0       16.5628096170       14.1196994019       21.7631414939
H    1.0       16.4236752572       13.0788614935       21.4428016263
O    8.0       15.7142769392       14.3702624398       22.8928808982
H    1.0       15.8975767022       15.2972823759       23.1898108403
C    6.0       18.0499398802       14.3019781858       22.1515978291
H    1.0       18.1740427016       15.3199663688       22.5472313688
O    8.0       18.3849926962       13.3444612446       23.1618353082
H    1.0       17.6060043514       13.3250515049       23.7633344386
C    6.0       18.9926756389       14.1443184250       20.9254216917
H    1.0       19.1327178952       13.0784204805       20.7007867677
C    6.0       18.4670879593       14.8538105815       19.6475937559
H    1.0       18.6273851688       15.9322151924       19.7598873743
O    8.0       17.0547758880       14.5844970704       19.4673327033
C    6.0       19.2096891100       14.3807380240       18.3787106343
H    1.0       18.9741422927       13.3240296982       18.1941946798
H    1.0       20.2925896192       14.4555305374       18.5460346755
O    8.0       18.8341053706       15.1827539185       17.2555946411
H    1.0       17.8523324478       15.1404221696       17.2124756520
C    6.0       15.0026899094       20.0959069545       21.8386858221
H    1.0       14.3791872731       20.9429054954       22.1508640840
O    8.0       16.2392360330       20.5361836040       21.2415957822
C    6.0       15.3309905155       19.1879699233       23.0525239016
H    1.0       14.3742546421       18.8354118731       23.4593867814
O    8.0       16.0423362246       19.9065224483       24.0737012494
H    1.0       15.8412567875       20.8644760099       23.9459770478
C    6.0       16.1540705588       17.9542014976       22.6149228362
H    1.0       17.1444779669       18.3026904324       22.2995387676
O    8.0       16.2915784885       17.0712327083       23.7316790991
H    1.0       16.5448664893       17.6592213109       24.4787776890
C    6.0       15.5069398710       17.2170485858       21.4151963464
H    1.0       14.6558234190       16.6247445960       21.7764386589
C    6.0       15.0421490537       18.1924470659       20.2976718353
H    1.0       15.9337207483       18.5805896415       19.7875399332
O    8.0       14.2943874909       19.2930570997       20.8707056016
C    6.0       14.1508070224       17.5196763992       19.2300680909
H    1.0       14.7391566420       16.7578861924       18.7015319880
H    1.0       13.8548699844       18.2749558721       18.4897211673
O    8.0       12.9927608757       16.9243825031       19.8224734292
H    1.0       12.5243336318       17.6462050570       20.2980577377
C    6.0       18.4529633611       24.0620141650       21.0032431054
H    1.0       18.8094102229       25.0790075293       20.7941316149
O    8.0       19.5136320094       23.2039082019       21.4641320341
C    6.0       17.3568628862       24.0734080698       22.0970039512
H    1.0       16.5278739696       24.6885184134       21.7233877958
O    8.0       17.8528258400       24.6442134444       23.3189695605
H    1.0       18.7394643589       24.2402767608       23.4987182015
C    6.0       16.8148681533       22.6438626589       22.3507384730
H    1.0       17.6218500008       22.0495568875       22.8011322104
O    8.0       15.7150803996       22.7327142075       23.2631674407
H    1.0       15.9906621258       23.4090685089       23.9236876402
C    6.0       16.3906855866       21.9537636077       21.0205077455
H    1.0       15.4578106332       22.3987840752       20.6495432669
C    6.0       17.4825581311       22.0927364964       19.9269619119
H    1.0       18.3432217397       21.4753627812       20.2087374144
O    8.0       17.8808304308       23.4793140417       19.8133378337
C    6.0       16.9928684562       21.6245335633       18.5408415511
H    1.0       16.2224979972       22.3155546219       18.1733005022
H    1.0       16.5332637763       20.6319462562       18.6343364098
O    8.0       18.0934098129       21.5616160452       17.6311258893
H    1.0       18.4893149312       22.4597916145       17.6162270567
C    6.0       23.5828622904       22.9246834697       21.9134553480
H    1.0       24.6654017256       23.0636107674       22.0289190281
O    8.0       23.2364559260       21.5381058424       21.7139121022
C    6.0       22.8470573041       23.4398905857       23.1746389771
H    1.0       23.0502000998       24.5153196849       23.2602639979
O    8.0       23.3231479257       22.7733069607       24.3545072109
H    1.0       23.7367150508       21.9225428282       24.0632474392
C    6.0       21.3201987634       23.2519962798       23.0276325423
H    1.0       21.1192176940       22.1757358715       23.0554601332
O    8.0       20.6482266313       23.8855099596       24.1204311764
H    1.0       21.1493033664       23.6084759042       24.9199453713
C    6.0       20.7927041997       23.8247711908       21.6863936035
H    1.0       20.7086935225       24.9149423170       21.7883615522
C    6.0       21.6896498986       23.4714364054       20.4649152940
H    1.0       21.5214532030       22.4164757011       20.2109675474
O    8.0       23.0885143429       23.6764186413       20.7865469964
C    6.0       21.3724687304       24.3074883424       19.2051386599
H    1.0       20.3516775252       24.0819931712       18.8707979257
H    1.0       22.0532901149       24.0033592293       18.3987740495
O    8.0       21.5076137797       25.7071386860       19.4673333680
H    1.0       22.4280868742       25.8401562015       19.7859826006
C    6.0       24.8883653593       17.7930232243       20.9696267587
H    1.0       25.5438633301       16.9599268392       20.6848233852
O    8.0       23.5364176155       17.3432612729       21.1939798201
C    6.0       25.4239199878       18.5167925747       22.2365118577
H    1.0       26.4186337508       18.9075057329       21.9855168129
O    8.0       25.5483571053       17.6286098551       23.3571068907
H    1.0       24.6373152958       17.3052565150       23.5730608948
C    6.0       24.5207083117       19.7196128647       22.5989437579
H    1.0       23.5369338119       19.3310632611       22.8970150414
O    8.0       25.1036770420       20.4488391655       23.6833966914
H    1.0       25.4121983972       19.7633633502       24.3176777284
C    6.0       24.3240318296       20.6552281878       21.3805048382
H    1.0       25.2565415900       21.2022639909       21.1874574820
C    6.0       23.9278312021       19.8768726822       20.0985595501
H    1.0       22.9013490440       19.5117293569       20.2111067277
O    8.0       24.8451046940       18.7696480511       19.9066434919
C    6.0       23.9896225095       20.7548520769       18.8317107954
H    1.0       25.0301015010       21.0530446663       18.6459550838
H    1.0       23.4053417184       21.6689635072       18.9920237988
O    8.0       23.4643453689       20.0356563333       17.7142969119
H    1.0       23.9804221904       19.2018631490       17.6604951306
C    6.0       21.2391275060       13.9703804998       21.8945679674
H    1.0       20.8491823932       12.9744089125       22.1412418560
O    8.0       20.2424541955       14.7870647816       21.2466227581
C    6.0       21.7395738023       14.6873846574       23.1765989476
H    1.0       22.5454115588       14.0721033027       23.5976536550
O    8.0       20.6973275110       14.8306774029       24.1547794433
H    1.0       19.9420631720       14.2631578758       23.8659265326
C    6.0       22.3224046372       16.0760659844       22.8350917381
H    1.0       21.4891642605       16.7029092671       22.5003711208
O    8.0       22.9048545868       16.6422018929       24.0126041831
H    1.0       22.2401331811       16.4757769239       24.7186858716
C    6.0       23.3708239862       16.0010174258       21.6953314022
H    1.0       24.3060562570       15.5980792279       22.1060470473
C    6.0       22.8963959181       15.1190153184       20.5051282509
H    1.0       22.1131097725       15.6650331671       19.9630694229
O    8.0       22.3634686548       13.8622053055       20.9954892264
C    6.0       24.0175153084       14.7935179165       19.4932807046
H    1.0       24.3485590997       15.7243698452       19.0141479947
H    1.0       23.6055630973       14.1499767559       18.7044019421
O    8.0       25.1223565695       14.1488523565       20.1333268441
H    1.0       24.7619407105       13.3380378436       20.5565914520
N    7.0       20.4576288746       17.4038156152       16.1453979295
H    1.0       20.1805019888       17.6502888277       15.1903009867
H    1.0       19.9414600536       16.5445803737       16.4002560399
H    1.0       21.4534520542       17.1667427915       16.1242986819
C    6.0       20.1620525960       18.5191328364       17.1260493649
H    1.0       19.0935914344       18.7432798197       17.0613724746
H    1.0       20.7214021287       19.4098293557       16.8256721214
C    6.0       20.5204571701       18.1357597542       18.5701699696
H    1.0       20.1452616595       17.1298367735       18.7790126055
H    1.0       21.6118227615       18.0941281633       18.6820219063
C    6.0       19.9176423649       19.1259864773       19.5864193050
H    1.0       18.8380634217       19.2280813213       19.4082054689
H    1.0       20.3639115678       20.1185748417       19.4326104487
C    6.0       20.1525981746       18.6539688876       21.0364932948
H    1.0       19.6158808887       17.7114726425       21.2145927297
H    1.0       21.2177856939       18.4473348074       21.1783118573
C    6.0       19.7145486543       19.7073422662       22.0696930765
H    1.0       18.6442107325       19.9146175035       21.9653141723
H    1.0       20.2381747930       20.6463907750       21.8623167050
C    6.0       20.0100247466       19.2538919355       23.5138787830
H    1.0       19.4885800153       18.3159918687       23.7472476361
H    1.0       19.6749747439       20.0129954207       24.2326382196
H    1.0       21.0856020876       19.0949570994       23.6661832016
 $end
$$$$
! Edit this basic GAMESS input file as needed.
! Conformer was generated by a VeraChem VCPack run 
! and contains    149 atoms.
!
 $contrl scftyp=rhf runtyp=optimize nzvar=0
  maxit=200 icharg=0 $end
 $system mwords=50 $end
 $basis gbasis=pm3 $end
 $statpt nstep=200 $end
 $guess guess=huckel $end
 $data
VM2 Rank=3      G=557.378           E=358.532           -TS=198.846             
C1
C    6.0       16.1645599707       14.9332992678       20.6481503682
H    1.0       15.0975831135       14.8368388138       20.4088269653
O    8.0       16.5375234010       16.3102534341       20.8799115639
C    6.0       16.5516532441       14.0655489669       21.8728435163
H    1.0       16.3950747949       13.0177279555       21.5848625405
O    8.0       15.7384804100       14.3530420672       23.0192888251
H    1.0       15.9335794273       15.2877989058       23.2824546746
C    6.0       18.0517594079       14.2464037924       22.2089310553
H    1.0       18.1918442991       15.2736160046       22.5742993423
O    8.0       18.4103188405       13.3137233275       23.2346325411
H    1.0       17.6445024761       13.3085563646       23.8532768253
C    6.0       18.9605111627       14.0532476776       20.9599483640
H    1.0       19.1222932944       12.9821571702       20.7794250309
C    6.0       18.3860793800       14.6962023977       19.6682277030
H    1.0       18.5639544552       15.7738325327       19.7273964134
O    8.0       16.9644127400       14.4412714355       19.5540136820
C    6.0       19.0731133365       14.1635015367       18.3918745787
H    1.0       18.8896111772       13.0841497763       18.3059922639
H    1.0       20.1579623939       14.3119100746       18.4789066107
O    8.0       18.5751926135       14.8487505925       17.2385858447
H    1.0       17.5969038023       14.7509272327       17.2769490340
C    6.0       15.0836967345       20.0741271673       21.8252092022
H    1.0       14.4660356125       20.9285464209       22.1289947809
O    8.0       16.3293386421       20.5019235493       21.2361500502
C    6.0       15.3927161392       19.1736914607       23.0485102012
H    1.0       14.4294469765       18.8328461833       23.4499168816
O    8.0       16.0995785570       19.8958110715       24.0702540091
H    1.0       15.9238318235       20.8557799882       23.9202378457
C    6.0       16.2063226964       17.9294516931       22.6239580457
H    1.0       17.1944812678       18.2679413962       22.2906526422
O    8.0       16.3486117796       17.0653194191       23.7542696126
H    1.0       16.6079683022       17.6651500746       24.4899403616
C    6.0       15.5383601232       17.1816624253       21.4425688560
H    1.0       14.6686656974       16.6253138360       21.8167661153
C    6.0       15.1054417407       18.1504071427       20.3067730454
H    1.0       16.0098484534       18.5148247874       19.8017404837
O    8.0       14.3732293670       19.2730520769       20.8568054205
C    6.0       14.2121448304       17.4791695080       19.2398980694
H    1.0       14.7896866310       16.6954389213       18.7317644503
H    1.0       13.9412870779       18.2277950830       18.4833828858
O    8.0       13.0348014063       16.9194211669       19.8289516263
H    1.0       12.5772920451       17.6592725312       20.2870936068
C    6.0       18.5064208042       24.0372747229       20.8821722003
H    1.0       18.8621135466       25.0494200628       20.6494417882
O    8.0       19.5795376010       23.1779281859       21.3109115749
C    6.0       17.4285853633       24.0631211112       21.9954184617
H    1.0       16.5857531715       24.6560179667       21.6168666400
O    8.0       17.9249789017       24.6740909872       23.1967200642
H    1.0       18.7607904123       24.2044465361       23.4472346115
C    6.0       16.9106591511       22.6328354251       22.2887752413
H    1.0       17.7359000096       22.0574077128       22.7292835791
O    8.0       15.8306309703       22.7224812382       23.2247032654
H    1.0       16.1095852710       23.4156702275       23.8658846926
C    6.0       16.4629413355       21.9157806422       20.9812637414
H    1.0       15.5151809914       22.3452861882       20.6300296454
C    6.0       17.5174541309       22.0527286109       19.8509135849
H    1.0       18.3916348239       21.4399036227       20.1031273282
O    8.0       17.9031472672       23.4423599981       19.7142325336
C    6.0       16.9737337330       21.5796441375       18.4870525230
H    1.0       16.1581873310       22.2436104018       18.1707119329
H    1.0       16.5594884415       20.5683977894       18.5921960833
O    8.0       18.0239928173       21.5750416558       17.5185959635
H    1.0       18.4209114300       22.4732063635       17.5418058900
C    6.0       23.5811053933       22.9188742849       22.0548843026
H    1.0       24.6525781347       23.0274779036       22.2670048271
O    8.0       23.2469437571       21.5786935434       21.6379971715
C    6.0       22.7466039931       23.2730223346       23.3103676091
H    1.0       22.9263068512       24.3319384084       23.5375470059
O    8.0       23.1359164758       22.4762753555       24.4400772894
H    1.0       23.6993183174       21.7383418093       24.0983839611
C    6.0       21.2391291972       23.0942090113       23.0241552497
H    1.0       21.0539173598       22.0219440218       22.9009040466
O    8.0       20.4813951490       23.5781052913       24.1366244315
H    1.0       20.9349749414       23.2090722430       24.9276032835
C    6.0       20.7984841529       23.8202366595       21.7262591077
H    1.0       20.6465854762       24.8831957931       21.9568985908
C    6.0       21.8045605615       23.6646209770       20.5476157285
H    1.0       21.6770830836       22.6597896750       20.1235891549
O    8.0       23.1708901300       23.8229497434       21.0085598636
C    6.0       21.5715609890       24.6768527421       19.4042733719
H    1.0       20.5857535595       24.4925481776       18.9572905675
H    1.0       22.3217341520       24.5038738092       18.6209922945
O    8.0       21.6531971910       26.0228521400       19.8812497781
H    1.0       22.5430671999       26.1178500128       20.2883796384
C    6.0       24.8664194697       17.8351427434       20.8919738308
H    1.0       25.5088244195       16.9914472529       20.6088554327
O    8.0       23.4993114720       17.4094384547       21.0800349721
C    6.0       25.4035893627       18.5367641873       22.1724102197
H    1.0       26.4132827633       18.8973245280       21.9364571938
O    8.0       25.4852851262       17.6434900500       23.2928179809
H    1.0       24.5565470714       17.3803910563       23.5152872797
C    6.0       24.5373399830       19.7655366735       22.5361839536
H    1.0       23.5474079597       19.4021606532       22.8445756836
O    8.0       25.1504278703       20.4750111543       23.6167256340
H    1.0       25.4545140202       19.7784642043       24.2415378939
C    6.0       24.3491227072       20.7092123770       21.3213220704
H    1.0       25.2756186585       21.2686660399       21.1347457266
C    6.0       23.9601595957       19.9403773456       20.0326474535
H    1.0       22.9302061111       19.5849823620       20.1386858701
O    8.0       24.8641605084       18.8237910466       19.8404911977
C    6.0       24.0318566728       20.8242286647       18.7712633150
H    1.0       25.0786467995       21.0891694907       18.5709141897
H    1.0       23.4799025114       21.7562962383       18.9468867743
O    8.0       23.4649326034       20.1264497103       17.6603065499
H    1.0       23.9468992360       19.2725863114       17.5990708451
C    6.0       21.2182809439       14.0254580140       21.9301564629
H    1.0       20.8666775009       13.0333437314       22.2413300783
O    8.0       20.2030419319       14.7438564233       21.2026181324
C    6.0       21.6582708494       14.8595993138       23.1645919891
H    1.0       22.4708940591       14.3062021896       23.6530859880
O    8.0       20.5881487194       15.0459842138       24.1044632926
H    1.0       19.9031297793       14.3620969410       23.9100607670
C    6.0       22.2079158731       16.2364854480       22.7307268010
H    1.0       21.3727603366       16.8085362325       22.3079492570
O    8.0       22.7321986490       16.9120627161       23.8782456843
H    1.0       22.0399881844       16.7952206090       24.5674898912
C    6.0       23.3008255657       16.0961299114       21.6434605437
H    1.0       24.2143498475       15.7083277760       22.1125774101
C    6.0       22.8639479225       15.1420201005       20.4969003472