$$$$
! Edit this basic GAMESS input file as needed.
! Conformer was generated by a VeraChem VCPack run 
! and contains    155 atoms.
!
 $contrl scftyp=rhf runtyp=optimize nzvar=0
  maxit=200 icharg=0 $end
 $system mwords=50 $end
 $basis gbasis=pm3 $end
 $statpt nstep=200 $end
 $guess guess=huckel $end
 $data
VM2 Rank=1      G=551.298           E=342.585           -TS=208.713             
C1
C    6.0       16.2261635486       15.3162911129       21.7193879411
H    1.0       15.1584569242       15.1565647349       21.9169665844
O    8.0       16.4621574678       16.5883742339       21.0828438072
C    6.0       17.0352261004       15.2488249918       23.0414237170
H    1.0       16.8651173535       14.2551602883       23.4752463382
O    8.0       16.5912790233       16.2493649084       23.9713384547
H    1.0       15.6841844601       16.5226007442       23.6960868067
C    6.0       18.5517983826       15.4010611663       22.7726120873
H    1.0       18.7273498670       16.4306143702       22.4380544907
O    8.0       19.2883774397       15.1344763449       23.9747868057
H    1.0       20.1361196411       14.7117962393       23.6977780991
C    6.0       19.0509352352       14.4638350889       21.6459432396
H    1.0       19.1535914207       13.4488072505       22.0531131122
C    6.0       18.1047067194       14.4507518893       20.4115790759
H    1.0       18.2144724539       15.4069890360       19.8827548520
O    8.0       16.7306910397       14.2866319563       20.8427699419
C    6.0       18.4164515780       13.3247199635       19.4005260158
H    1.0       19.4042884630       13.5047283283       18.9564752276
H    1.0       17.6815205196       13.3693006088       18.5856350863
O    8.0       18.3837393931       12.0396795689       20.0280311777
H    1.0       17.4877728253       11.9478780210       20.4221219023
C    6.0       14.6826438766       20.2390048757       20.4871570386
H    1.0       14.0780383826       21.1137211120       20.2146322832
O    8.0       16.0146073169       20.6166131054       20.8917888850
C    6.0       14.0116993788       19.4198077926       21.6183564697
H    1.0       13.0585612884       19.0464626985       21.2216069626
O    8.0       13.7468311396       20.2205907171       22.7797830383
H    1.0       14.6226871406       20.5280184493       23.1260275186
C    6.0       14.8825260062       18.1967902037       21.9933159457
H    1.0       15.7976672959       18.5689467651       22.4753638816
O    8.0       14.1453781877       17.3802592818       22.9101250023
H    1.0       13.7050044468       18.0157834396       23.5192478348
C    6.0       15.2991036327       17.3696439259       20.7424601347
H    1.0       14.4638763857       16.7288354377       20.4297698688
C    6.0       15.7280262406       18.2473149917       19.5349049130
H    1.0       16.7382169576       18.6310815443       19.7192644171
O    8.0       14.8029455555       19.3486453139       19.3591153158
C    6.0       15.7597008324       17.4411973609       18.2204568075
H    1.0       14.7416392909       17.1140329421       17.9702186654
H    1.0       16.3751185101       16.5425975772       18.3625421644
O    8.0       16.3032088987       18.2425233616       17.1698815783
H    1.0       15.7933336497       19.0829870930       17.1766005582
C    6.0       18.4055294645       23.7583939176       22.0528730609
H    1.0       18.8338427280       24.7085587810       22.3963204226
O    8.0       19.4163488120       22.8831494394       21.5111985499
C    6.0       17.6974109153       23.0359378853       23.2258568650
H    1.0       16.8948962232       23.6977130013       23.5767762655
O    8.0       18.6068103036       22.7822508266       24.3088389170
H    1.0       19.3990049813       23.3528626877       24.1607161115
C    6.0       17.0577783348       21.7122313923       22.7471280674
H    1.0       17.8671465808       21.0248024192       22.4780966827
O    8.0       16.2908078866       21.1511840515       23.8164203602
H    1.0       16.8652447950       21.2533742281       24.6070808335
C    6.0       16.1736891737       21.9159207360       21.4905719048
H    1.0       15.2133971272       22.3504578456       21.7986202729
C    6.0       16.8491058750       22.8155235556       20.4165779056
H    1.0       17.6465433638       22.2333273907       19.9368468643
O    8.0       17.4173059086       23.9988089494       21.0295883759
C    6.0       15.8804007562       23.2778816569       19.3054825924
H    1.0       15.5327456615       22.3997074515       18.7454383436
H    1.0       16.4297586450       23.9169092408       18.6012094171
O    8.0       14.7650765542       23.9867718710       19.8529281863
H    1.0       15.1396008043       24.7425799272       20.3579410357
C    6.0       23.5685993790       22.7738133686       21.1744361784
H    1.0       24.6212711110       22.9943335479       20.9554809635
O    8.0       23.3788720973       21.3982764035       21.5563629512
C    6.0       23.0402107403       23.6705007394       22.3258912268
H    1.0       23.1388858419       24.7151760390       22.0024963632
O    8.0       23.7922778103       23.4708128513       23.5358631558
H    1.0       24.6802304460       23.8648548403       23.4001655213
C    6.0       21.5396792613       23.3915710712       22.5885505016
H    1.0       21.4546947100       22.3710199598       22.9830275766
O    8.0       21.0584864094       24.3235574776       23.5630917637
H    1.0       21.7659764609       24.3547650981       24.2466215285
C    6.0       20.7090595093       23.4751166173       21.2769626416
H    1.0       20.6162419562       24.5229334725       20.9613959279
C    6.0       21.3597956794       22.6655045691       20.1251451599
H    1.0       21.2599962758       21.5944732433       20.3408287355
O    8.0       22.7563566566       23.0325195354       20.0106294421
C    6.0       20.6918843053       22.9480003145       18.7639393737
H    1.0       20.8412131173       24.0029236871       18.4976653449
H    1.0       19.6114964581       22.7737947402       18.8461018178
O    8.0       21.2466252065       22.0929481247       17.7628928129
H    1.0       22.2194606937       22.2219931144       17.8040941460
C    6.0       25.2010980966       17.7246246973       21.7844005433
H    1.0       25.8724969323       16.8590036884       21.8473672077
O    8.0       23.8283272908       17.3281427073       21.5821798936
C    6.0       25.2947742483       18.5645451908       23.0815450671
H    1.0       26.3245038935       18.9365769594       23.1619772163
O    8.0       24.9843916591       17.7774772755       24.2389772494
H    1.0       24.8977709818       18.4332020005       24.9672657229
C    6.0       24.3502756789       19.7831477495       23.0051036463
H    1.0       23.3219315409       19.4049265997       23.0018333248
O    8.0       24.5555643862       20.6284628261       24.1435611998
H    1.0       24.0657643758       21.4682333267       23.9675846557
C    6.0       24.5651618317       20.5971328585       21.7060358140
H    1.0       25.4668743411       21.2120240646       21.8267404253
C    6.0       24.6909929294       19.7053457752       20.4363819619
H    1.0       23.6918638338       19.3298728999       20.1784158348
O    8.0       25.5789639163       18.5857428126       20.6891743624
C    6.0       25.2326738608       20.4656472955       19.2057282807
H    1.0       24.5181101029       21.2501855694       18.9250911636
H    1.0       25.2988909863       19.7678003280       18.3602540572
O    8.0       26.5142679794       21.0402954262       19.4772635144
H    1.0       27.0984559385       20.2962125249       19.7448397200
C    6.0       21.3651367883       14.0475922653       20.9489451499
H    1.0       20.9521967844       13.0662363994       20.6825115709
O    8.0       20.3184753501       15.0033394253       21.2172635298
C    6.0       22.3008002602       13.9366988411       22.1830715870
H    1.0       23.1081319978       13.2427347830       21.9150038429
O    8.0       21.6136381163       13.4302911333       23.3342710772
H    1.0       22.2715750865       13.4883179249       24.0634981466
C    6.0       22.9443363947       15.3024237464       22.5199079560
H    1.0       22.1512329353       15.9755232189       22.8741239398
O    8.0       23.9265745746       15.1234837369       23.5470267633
H    1.0       24.2425619149       16.0269527938       23.7991613547
C    6.0       23.5992488806       15.9420361376       21.2693045674
H    1.0       24.5305716360       15.4117467440       21.0294112937
C    6.0       22.6703529100       15.9047152330       20.0292376863
H    1.0       21.8498298408       16.6150790995       20.1819492627
O    8.0       22.1547923881       14.5616025724       19.8552521883
C    6.0       23.4115571133       16.2926186787       18.7334530817
H    1.0       24.1803011523       15.5393674281       18.5150455627
H    1.0       23.9188292035       17.2551711725       18.8777562446
O    8.0       22.4822873138       16.3915561061       17.6530974944
H    1.0       21.9790945908       15.5474539076       17.6474950643
C    6.0       19.7327804352       18.5662128094       19.3884900042
H    1.0       18.9086680264       18.7593807195       18.6895835833
H    1.0       20.6406212460       19.0170636238       18.9659244420
H    1.0       19.8780802942       17.4799226582       19.4389977916
C    6.0       19.4161333361       19.1485386185       20.7818647601
H    1.0       18.5244048238       18.6506728996       21.1833330157
H    1.0       19.1660844617       20.2127116968       20.6780471891
C    6.0       20.6042762432       18.9869193576       21.7587176733
H    1.0       20.8652657146       17.9247504070       21.8553317341
H    1.0       21.4856622765       19.4808393556       21.3318943729
C    6.0       20.3273570027       19.5783162741       23.1626573163
H    1.0       19.9863827661       20.6163814507       23.0732298222
H    1.0       21.2658310945       19.6125274538       23.7294382535
C    6.0       19.3025867715       18.7463240228       23.9626560339
H    1.0       18.3294048052       18.7412470158       23.4539372261
H    1.0       19.6602437752       17.7126475747       23.9962911904
C    6.0       19.1215967323       19.2523978186       25.4096953081
H    1.0       18.8544394207       20.3162477526       25.3907214206
H    1.0       20.0759252475       19.1772591338       25.9472574251
C    6.0       18.0302222035       18.4702903656       26.1722463008
H    1.0       17.0817852154       18.5991213234       25.6407759674
C    6.0       17.8681152940       19.0345879099       27.5920331658
H    1.0       17.0596248615       18.5182392816       28.1237636393
H    1.0       18.7911902046       18.9161368540       28.1729574119
H    1.0       17.6180532204       20.1023576750       27.5597742023
N    7.0       18.2930430535       16.9877660350       26.2131089844
H    1.0       18.2154784332       16.5690014440       25.2672933430
H    1.0       17.6029558052       16.5017692228       26.7901475626
H    1.0       19.2248814403       16.7670353945       26.5706405081
 $end
$$$$
! Edit this basic GAMESS input file as needed.
! Conformer was generated by a VeraChem VCPack run 
! and contains    155 atoms.
!
 $contrl scftyp=rhf runtyp=optimize nzvar=0
  maxit=200 icharg=0 $end
 $system mwords=50 $end
 $basis gbasis=pm3 $end
 $statpt nstep=200 $end
 $guess guess=huckel $end
 $data
VM2 Rank=2      G=551.512           E=342.683           -TS=208.829             
C1
C    6.0       16.2440381499       15.3423428721       21.6548339571
H    1.0       15.1744491930       15.1829026450       21.8422789000
O    8.0       16.4863068551       16.6170298016       21.0248064111
C    6.0       17.0405737535       15.2689568593       22.9842090341
H    1.0       16.8638674330       14.2743011070       23.4130916245
O    8.0       16.5907491041       16.2673553696       23.9135805760
H    1.0       15.6866217556       16.5434705741       23.6313213427
C    6.0       18.5600553606       15.4178763008       22.7304556145
H    1.0       18.7415611185       16.4486972977       22.4030103740
O    8.0       19.2845596068       15.1427277507       23.9380824964
H    1.0       20.1344878979       14.7208669766       23.6666090669
C    6.0       19.0678968442       14.4850177442       21.6040199247
H    1.0       19.1669747298       13.4683478007       22.0079579374
C    6.0       18.1320970922       14.4768992801       20.3618190540
H    1.0       18.2467761161       15.4346018137       19.8369994538
O    8.0       16.7551057503       14.3131770167       20.7815828034
C    6.0       18.4500680316       13.3535960603       19.3496599991
H    1.0       19.4408092549       13.5344671360       18.9125245481
H    1.0       17.7202747000       13.4008806508       18.5302591652
O    8.0       18.4128136135       12.0667160028       19.9731386573
H    1.0       17.5138270754       11.9738185796       20.3600515157
C    6.0       14.7241928361       20.2732656108       20.4317390835
H    1.0       14.1271263191       21.1540823838       20.1622161842
O    8.0       16.0548854954       20.6402200121       20.8502458080
C    6.0       14.0379262682       19.4489643806       21.5501191331
H    1.0       13.0881530977       19.0806735925       21.1407415135
O    8.0       13.7631716709       20.2441383288       22.7132361016
H    1.0       14.6363771043       20.5450532622       23.0716759196
C    6.0       14.9007888912       18.2215212946       21.9278617344
H    1.0       15.8145958861       18.5891643859       22.4157656125
O    8.0       14.1556108402       17.4071825547       22.8403520699
H    1.0       13.7112301152       18.0443267366       23.4448248193
C    6.0       15.3216846042       17.3948291360       20.6783865200
H    1.0       14.4889302180       16.7499719499       20.3678104826
C    6.0       15.7510238141       18.2743566370       19.4701073386
H    1.0       16.7634312395       18.6499223763       19.6598035778
O    8.0       14.8484830283       19.3947389652       19.2955913692
C    6.0       15.7915517620       17.4869315392       18.1420269143
H    1.0       16.4857301272       16.6423688334       18.2476636208
H    1.0       16.1866599185       18.1427789489       17.3548110400
O    8.0       14.4893944287       17.0139400193       17.7852272929
H    1.0       13.9028518733       17.8031272010       17.7890237925
C    6.0       18.4380869944       23.7718473967       22.0591775132
H    1.0       18.8638547360       24.7191359556       22.4135604583
O    8.0       19.4534160055       22.8987795512       21.5226713918
C    6.0       17.7167711744       23.0422532933       23.2195728773
H    1.0       16.9109425415       23.7022942829       23.5661427520
O    8.0       18.6145047183       22.7811675001       24.3104862028
H    1.0       19.4090367039       23.3513463363       24.1737439252
C    6.0       17.0814706331       21.7220918279       22.7251647269
H    1.0       17.8931343715       21.0356533729       22.4609626535
O    8.0       16.3018297268       21.1549702654       23.7819941321
H    1.0       16.8676830958       21.2504231526       24.5796432453
C    6.0       16.2115133364       21.9350822392       21.4602946767
H    1.0       15.2491772458       22.3698421579       21.7616337718
C    6.0       16.8988220394       22.8415971002       20.3997609249
H    1.0       17.7007860749       22.2621344109       19.9244563274
O    8.0       17.4612684504       24.0201457575       21.0269379486
C    6.0       15.9422248979       23.3127237358       19.2818239081
H    1.0       15.5998231455       22.4389317482       18.7117186937
H    1.0       16.4994362770       23.9564290719       18.5880560008
O    8.0       14.8217077430       24.0185450232       19.8225840698
H    1.0       15.1914050534       24.7706825102       20.3365659467
C    6.0       23.6078439456       22.7876325818       21.2219745400
H    1.0       24.6626820411       23.0080273862       21.0135576759
O    8.0       23.4130760562       21.4104477778       21.5950511537
C    6.0       23.0701301391       23.6787051671       22.3735426790
H    1.0       23.1726091207       24.7250412788       22.0567753273
O    8.0       23.8112063264       23.4715358170       23.5890471814
H    1.0       24.7006379277       23.8656123181       23.4635288700
C    6.0       21.5671070101       23.3995819809       22.6213351226
H    1.0       21.4779179821       22.3768350629       23.0091300683
O    8.0       21.0775460929       24.3260678139       23.5969516288
H    1.0       21.7786461363       24.3526641367       24.2872122234
C    6.0       20.7483893726       23.4911124312       21.3028735458
H    1.0       20.6591952771       24.5406322388       20.9919476506
C    6.0       21.4084121818       22.6865910320       20.1528360238
H    1.0       21.3059176393       21.6146878055       20.3628604039
O    8.0       22.8061914991       23.0528348611       20.0522447303
C    6.0       20.7523463362       22.9757086566       18.7872400580
H    1.0       20.9131559792       24.0293085972       18.5223840847
H    1.0       19.6698990991       22.8116651573       18.8620410352
O    8.0       21.3053215529       22.1155848294       17.7895228907
H    1.0       22.2787972343       22.2385848084       17.8335388392
C    6.0       25.2240049897       17.7325142137       21.8183179632
H    1.0       25.8917010748       16.8641288023       21.8826740937
O    8.0       23.8521596372       17.3422237776       21.5983802705
C    6.0       25.3066594617       18.5635546777       23.1219321020
H    1.0       26.3365841508       18.9319693049       23.2154687466
O    8.0       24.9820162015       17.7698552249       24.2708788792
H    1.0       24.8900761995       18.4209747627       25.0026360074
C    6.0       24.3666073991       19.7854571831       23.0437716192
H    1.0       23.3371962615       19.4103907849       23.0279470328
O    8.0       24.5627950444       20.6230431310       24.1895289634
H    1.0       24.0771090725       21.4652689242       24.0138973623
C    6.0       24.5968037359       20.6071413557       21.7521732171
H    1.0       25.4978269986       21.2202165902       21.8865088378
C    6.0       24.7348839352       19.7236259013       20.4780031133
H    1.0       23.7376762511       19.3529091380       20.2060942656
O    8.0       25.6166318650       18.5996552684       20.7331187249
C    6.0       25.2927005347       20.4907218486       19.2588178024
H    1.0       24.5835073546       21.2790829316       18.9752783724
H    1.0       25.3667988163       19.7983978248       18.4094679103
O    8.0       26.5725971505       21.0600465416       19.5489051483
H    1.0       27.1518002057       20.3125846121       19.8179056761
C    6.0       21.3867948562       14.0710966060       20.9218728047
H    1.0       20.9750014578       13.0922034988       20.6448480288
O    8.0       20.3390054904       15.0260743857       21.1882674929
C    6.0       22.3120932154       13.9498912775       22.1629184789
H    1.0       23.1198104441       13.2555852778       21.8969063262
O    8.0       21.6141811134       13.4378136860       23.3051504933
H    1.0       22.2663852684       13.4888769703       24.0400132541
C    6.0       22.9564487915       15.3115490875       22.5144038465
H    1.0       22.1623055568       15.9838167806       22.8678605927
O    8.0       23.9306334951       15.1225471456       23.5473608636
H    1.0       24.2451342816       16.0234648532       23.8102403971
C    6.0       23.6218767797       15.9591008102       21.2734362665
H    1.0       24.5534992940       15.4284123323       21.0355902191
C    6.0       22.7010862664       15.9336183134       20.0271448215
H    1.0       21.8803413114       16.6433848651       20.1811474919
O    8.0       22.1855415930       14.5925339875       19.8383812917
C    6.0       23.4499569250       16.3324149817       18.7391442829
H    1.0       24.2188034942       15.5801026462       18.5178705694
H    1.0       23.9577918829       17.2928362887       18.8951299842
O    8.0       22.5263574851       16.4427304192       17.6549217346
H    1.0       22.0248853067       15.5977924918       17.6365636343
C    6.0       19.7860813993       18.6092056390       19.3822656441
H    1.0       18.9760023621       18.8206169889       18.6734013623
H    1.0       20.7058976716       19.0540114280       18.9792986044
H    1.0       19.9191485866       17.5208575328       19.4242781378
C    6.0       19.4545602497       19.1807174533       20.7764867436
H    1.0       18.5540824952       18.6858966136       21.1624213186
H    1.0       19.2137954388       20.2475871851       20.6792574441
C    6.0       20.6297654229       19.0027115870       21.7660767097
H    1.0       20.8823470544       17.9380279395       21.8573170498
H    1.0       21.5196021647       19.4938485042       21.3536889382
C    6.0       20.3410022995       19.5850865489       23.1713180725
H    1.0       20.0062636878       20.6255567113       23.0863061435
H    1.0       21.2737567267       19.6100203374       23.7480565868
C    6.0       19.3038218053       18.7523047946       23.9541984488
H    1.0       18.3361791617       18.7550138856       23.4349879529
H    1.0       19.6565641027       17.7169132358       23.9842695878
C    6.0       19.1098603277       19.2487564378       25.4029225354
H    1.0       18.8463247374       20.3135768617       25.3889055207
H    1.0       20.0585047079       19.1666880198       25.9494554492
C    6.0       18.0085475581       18.4647762155       26.1490692314
H    1.0       17.0657778027       18.6005499636       25.6093066835
C    6.0       17.8343928204       19.0192536578       27.5712977993
H    1.0       18.7513462707       18.8935047613       28.1603272272
H    1.0       17.5881343648       20.0880551189       27.5444100791
H    1.0       17.0190635404       18.5017332715       28.0913161701
N    7.0       18.2662713362       16.9811654606       26.1816031993
H    1.0       18.1963993636       16.5698934019       25.2318992148
H    1.0       17.5692147500       16.4931561081       26.7484682402
H    1.0       19.1940097870       16.7548209175       26.5462212688
 $end
$$$$
! Edit this basic GAMESS input file as needed.
! Conformer was generated by a VeraChem VCPack run 
! and contains    155 atoms.
!
 $contrl scftyp=rhf runtyp=optimize nzvar=0
  maxit=200 icharg=0 $end
 $system mwords=50 $end
 $basis gbasis=pm3 $end
 $statpt nstep=200 $end
 $guess guess=huckel $end
 $data
VM2 Rank=3      G=551.655           E=343.195           -TS=208.461             
C1
C    6.0       16.2198322865       15.3138724218       21.7150090016
H    1.0       15.1509228701       15.1558313042       21.9073451536
O    8.0       16.4609931004       16.5844924201       21.0775709064
C    6.0       17.0221354913       15.2479671504       23.0411803402
H    1.0       16.8494906077       14.2550147386       23.4756289764
O    8.0       16.5739946351       16.2501980682       23.9673472905
H    1.0       15.6682639940       16.5231106948       23.6874120878
C    6.0       18.5400317744       15.3992933615       22.7793795269
H    1.0       18.7176055640       16.4285669126       22.4449376456
O    8.0       19.2709893074       15.1331948954       23.9850375135
H    1.0       20.1222909817       14.7150821872       23.7117736370
C    6.0       19.0444666164       14.4609342523       21.6560225970
H    1.0       19.1468760911       13.4467273346       22.0653120697
C    6.0       18.1036653227       14.4445511108       20.4175364375
H    1.0       18.2161197265       15.3992493206       19.8864722342
O    8.0       16.7276723568       14.2820255574       20.8429402999
C    6.0       18.4196402440       13.3156003786       19.4110545900
H    1.0       19.4095165021       13.4940610412       18.9709470040
H    1.0       17.6884064198       13.3581117634       18.5927348297
O    8.0       18.3836951487       12.0323316222       20.0420023685
H    1.0       17.4859111566       11.9418854639       20.4322582416
C    6.0       14.6914635415       20.2367108017       20.4699675985
H    1.0       14.0911136374       21.1130588323       20.1932787028
O    8.0       16.0210302042       20.6108430882       20.8859971210
C    6.0       14.0093575602       19.4177276586       21.5946008221
H    1.0       13.0596453499       19.0451794019       21.1889847346
O    8.0       13.7342911310       20.2182915390       22.7537477625
H    1.0       14.6071943917       20.5245394787       23.1083630677
C    6.0       14.8761494117       18.1940219559       21.9765652041
H    1.0       15.7880794289       18.5654441787       22.4652340074
O    8.0       14.1318437344       17.3782519706       22.8882673581
H    1.0       13.6869959626       18.0142834973       23.4935964572
C    6.0       15.3010808806       17.3664990157       20.7287418174
H    1.0       14.4676874735       16.7262690580       20.4100325493
C    6.0       15.7399438789       18.2435815706       19.5242549773
H    1.0       16.7496131885       18.6251701414       19.7156854966
O    8.0       14.8186859402       19.3470558875       19.3421686906
C    6.0       15.7790393539       17.4376713524       18.2098803409
H    1.0       14.7621164230       17.1122884482       17.9527865744
H    1.0       16.3919631433       16.5380026690       18.3559013202
O    8.0       16.3308954991       18.2382656201       17.1631033602
H    1.0       15.8223167297       19.0795270059       17.1665123740
C    6.0       18.4027400049       23.7526792978       22.0760398425
H    1.0       18.8248910662       24.7032717104       22.4260976473
O    8.0       19.4235271347       22.8784875860       21.5519097536
C    6.0       17.6785435664       23.0299438066       23.2389019330
H    1.0       16.8705705512       23.6909038140       23.5786960596
O    8.0       18.5744788024       22.7789389390       24.3331447926
H    1.0       19.3721710676       23.3391633184       24.1822635884
C    6.0       17.0473009524       21.7051730833       22.7525746568
H    1.0       17.8607728795       21.0188537556       22.4929258567
O    8.0       16.2686541305       21.1431142374       23.8127983146
H    1.0       16.8336394440       21.2456021481       24.6102252878
C    6.0       16.1780186943       21.9098256194       21.4859827714
H    1.0       15.2157928718       22.3481905712       21.7823945553
C    6.0       16.8695347763       22.8060864967       20.4195892675
H    1.0       17.6729655059       22.2214100510       19.9533275378
O    8.0       17.4301828817       23.9907098476       21.0372924923
C    6.0       15.9172992932       23.2661920424       19.2934541036
H    1.0       15.5764611870       22.3867071756       18.7312569544
H    1.0       16.4773435536       23.9024092633       18.5950773925
O    8.0       14.7952592827       23.9780413606       19.8230337422
H    1.0       15.1635572336       24.7349830952       20.3309100147
C    6.0       23.5681694857       22.7819491870       21.1771810754
H    1.0       24.6194784042       23.0054594214       20.9548036103
O    8.0       23.3803486138       21.4006765659       21.5410456365
C    6.0       23.0511804327       23.6672675559       22.3413013700
H    1.0       23.1483908153       24.7125480703       22.0196586071
O    8.0       23.8348299506       23.4581433362       23.5280076821
H    1.0       23.7840762526       24.2828403171       24.0556549188
C    6.0       21.5524644373       23.3812227232       22.6182839336
H    1.0       21.4733320717       22.3535561906       22.9954224013
O    8.0       21.0587941947       24.2942850368       23.6075017148
H    1.0       21.6221157525       24.1676196143       24.4003008363
C    6.0       20.7117621666       23.4786768163       21.3130703601
H    1.0       20.6126639682       24.5303317383       21.0124202543
C    6.0       21.3530574781       22.6873709270       20.1431010032
H    1.0       21.2548258856       21.6128890753       20.3422198076
O    8.0       22.7482353380       23.0560887120       20.0224799548
C    6.0       20.6750849942       22.9924531723       18.7917434150
H    1.0       20.8257161256       24.0508321651       18.5403098197
H    1.0       19.5949597092       22.8206673000       18.8795701423
O    8.0       21.2190532362       22.1510887177       17.7733611911
H    1.0       22.1926375594       22.2765228828       17.8087516302
C    6.0       25.2007256343       17.7280997010       21.7656177310
H    1.0       25.8720950638       16.8621317066       21.8236928979
O    8.0       23.8249470195       17.3315991986       21.5856732621
C    6.0       25.3144337824       18.5734833070       23.0572859637
H    1.0       26.3472144700       18.9399932886       23.1226021485
O    8.0       25.0154618714       17.7925065993       24.2219331049
H    1.0       24.9432842448       18.4515543023       24.9488056986
C    6.0       24.3765554206       19.7979545356       22.9897794306
H    1.0       23.3450806566       19.4282305733       23.0109244857
O    8.0       24.6134962435       20.6482988487       24.1181141603
H    1.0       24.1914462217       21.5194570399       23.9138829466
C    6.0       24.5698586161       20.6022424176       21.6809409055
H    1.0       25.4728700595       21.2190895590       21.7816813648
C    6.0       24.6749532454       19.7023126617       20.4154321770
H    1.0       23.6713588174       19.3271676665       20.1750584777
O    8.0       25.5645328422       18.5826147046       20.6607827676
C    6.0       25.1982751832       20.4549400137       19.1722778047
H    1.0       24.4859010831       21.2463301710       18.9053330040
H    1.0       25.2399353210       19.7548802100       18.3270759124
O    8.0       26.4910365652       21.0167302011       19.4161008136
H    1.0       27.0706959615       20.2680223842       19.6806661145
C    6.0       21.3612925835       14.0465266268       20.9680105511
H    1.0       20.9502476672       13.0630485244       20.7064951841