$$$$
! Edit this basic GAMESS input file as needed.
! Conformer was generated by a VeraChem VCPack run 
! and contains    146 atoms.
!
 $contrl scftyp=rhf runtyp=optimize nzvar=0
  maxit=200 icharg=0 $end
 $system mwords=50 $end
 $basis gbasis=pm3 $end
 $statpt nstep=200 $end
 $guess guess=huckel $end
 $data
VM2 Rank=1      G=577.469           E=384.272           -TS=193.198             
C1
C    6.0       16.1135699786       14.9879407453       20.5708518663
H    1.0       15.0563433143       14.8691383179       20.3009344166
O    8.0       16.4307584172       16.3606052188       20.8870206840
C    6.0       16.5076570280       14.0684368305       21.7565238972
H    1.0       16.4082019317       13.0306841695       21.4110862991
O    8.0       15.6626727839       14.2614795759       22.9013931741
H    1.0       14.7869186434       13.8712979912       22.6925181766
C    6.0       17.9907970703       14.2976545555       22.1354181611
H    1.0       18.0889757742       15.3187001694       22.5284977895
O    8.0       18.3555052280       13.3547159555       23.1490000310
H    1.0       17.5827416828       13.3319092930       23.7585579004
C    6.0       18.9251927275       14.1665282133       20.8984267383
H    1.0       19.0845210579       13.1042205180       20.6698167378
C    6.0       18.3683340726       14.8684097083       19.6272957602
H    1.0       18.5266865277       15.9498123611       19.7200818884
O    8.0       16.9540440288       14.5879947177       19.4690611300
C    6.0       19.0887477583       14.3911095455       18.3496979155
H    1.0       18.8740969622       13.3261810026       18.1881919091
H    1.0       20.1735659938       14.4969341906       18.4856106569
O    8.0       18.6599759318       15.1660860009       17.2285995988
H    1.0       17.6769780326       15.1358710621       17.2360209092
C    6.0       15.0253641478       20.0619362955       21.9568283622
H    1.0       14.4494562643       20.9346247221       22.2888382763
O    8.0       16.2626904268       20.4521541891       21.3242833321
C    6.0       15.3547710359       19.1515056164       23.1658707344
H    1.0       14.4000191430       18.8605272629       23.6224392948
O    8.0       16.1468472970       19.8635025694       24.1352048528
H    1.0       15.9337459227       20.8215540136       24.0309113887
C    6.0       16.0830332693       17.8619293130       22.7108125023
H    1.0       17.0911151572       18.1441453882       22.3893574347
O    8.0       16.1622611651       16.9507775743       23.8122622463
H    1.0       16.1562048104       16.0356553593       23.4442933989
C    6.0       15.4056451049       17.1681023857       21.5007989244
H    1.0       14.5590140695       16.5669124125       21.8576402480
C    6.0       14.9322533052       18.1686005767       20.4103653527
H    1.0       15.8163975368       18.5281610110       19.8679822595
O    8.0       14.2493173992       19.2915548148       21.0158077295
C    6.0       13.9784563863       17.5340100935       19.3738727836
H    1.0       14.5205279670       16.7572818821       18.8183343438
H    1.0       13.6794901204       18.3042750114       18.6503533695
O    8.0       12.8249532295       16.9722271901       20.0065796145
H    1.0       12.3992049454       17.7052199443       20.5047834131
C    6.0       18.4745507431       23.9469833507       20.7982376891
H    1.0       18.8287840603       24.9486671853       20.5219472113
O    8.0       19.5591050093       23.0932639369       21.2124994040
C    6.0       17.4312755391       24.0178160263       21.9433468923
H    1.0       16.5818537926       24.6056235311       21.5716459516
O    8.0       17.9672601510       24.6628245443       23.1089734148
H    1.0       18.7974204339       24.1836440728       23.3599203320
C    6.0       16.9112054752       22.6023328397       22.2966099313
H    1.0       17.7487283497       22.0344817239       22.7209834214
O    8.0       15.8704002404       22.7233136732       23.2725843841
H    1.0       16.1798219190       23.4284429915       23.8858207518
C    6.0       16.4081994805       21.8559383701       21.0258010460
H    1.0       15.4554639279       22.2904873559       20.6946991159
C    6.0       17.4258986573       21.9442285938       19.8579392671
H    1.0       18.2960729018       21.3189534978       20.0965558700
O    8.0       17.8292325688       23.3230582571       19.6690363935
C    6.0       16.8256985657       21.4506042045       18.5254223480
H    1.0       16.0025138604       22.1147660433       18.2296948245
H    1.0       16.4095355687       20.4444814041       18.6640778402
O    8.0       17.8373159493       21.4231096742       17.5169602418
H    1.0       18.2445896711       22.3178049320       17.5155360373
C    6.0       23.5864199081       22.8968785551       21.9160160173
H    1.0       24.6579053131       23.0330002999       22.1113000915
O    8.0       23.2714297866       21.5361439326       21.5480040017
C    6.0       22.7569299801       23.2777112887       23.1672081965
H    1.0       22.9096167960       24.3487830653       23.3536238747
O    8.0       23.1705043222       22.5343907873       24.3242381698
H    1.0       23.7347105395       21.7854603033       24.0082006264
C    6.0       21.2552121614       23.0468958956       22.8947798017
H    1.0       21.1130373942       21.9700545092       22.7680356795
O    8.0       20.4892318433       23.5027958853       24.0130554627
H    1.0       20.9866695855       23.1864268510       24.8008793192
C    6.0       20.7838241445       23.7478173007       21.5959288721
H    1.0       20.6322188263       24.8141325727       21.8108459289
C    6.0       21.7770713526       23.5733209606       20.4087847683
H    1.0       21.6608390402       22.5553986480       20.0140650533
O    8.0       23.1465483684       23.7627749803       20.8484419933
C    6.0       21.5157213339       24.5521428307       19.2427095867
H    1.0       20.5279744835       24.3411194638       18.8120514936
H    1.0       22.2602413816       24.3710468347       18.4558276314
O    8.0       21.5808653984       25.9110678739       19.6843374408
H    1.0       22.4757527592       26.0319590381       20.0732588232
C    6.0       24.9048144244       17.7779269764       20.9540827608
H    1.0       25.5405063170       16.9161688129       20.7129739350
O    8.0       23.5297470529       17.3793396384       21.1382517882
C    6.0       25.4233563959       18.5143555722       22.2202928530
H    1.0       26.4366017176       18.8692695967       21.9909315829
O    8.0       25.4857311870       17.6491449117       23.3639966436
H    1.0       24.5560127685       17.3751545580       23.5683119291
C    6.0       24.5483723493       19.7508215866       22.5334532917
H    1.0       23.5522552450       19.3946520088       22.8292502149
O    8.0       25.1386260105       20.4846701780       23.6099967934
H    1.0       25.4342666975       19.8019092625       24.2539499559
C    6.0       24.3891256767       20.6648631976       21.2912239811
H    1.0       25.3181378329       21.2274599996       21.1288719013
C    6.0       24.0515744319       19.8685079840       20.0011578072
H    1.0       23.0109624932       19.5242815902       20.0640438208
O    8.0       24.9379311097       18.7285430413       19.8693541847
C    6.0       24.1909859891       20.7202421404       18.7197101457
H    1.0       23.5182724916       21.5851957685       18.7874696389
H    1.0       23.8693971529       20.1186059433       17.8591369283
O    8.0       25.5401884518       21.1604497963       18.5396330565
H    1.0       26.0964111682       20.3499898972       18.5646483394
C    6.0       21.1547457211       14.0595798814       21.9173243932
H    1.0       20.7645864910       13.0754600534       22.2068463452
O    8.0       20.1699112630       14.8304390223       21.1992486361
C    6.0       21.6109520432       14.8507671637       23.1722883082
H    1.0       22.3923125844       14.2553928689       23.6623907061
O    8.0       20.5322002760       15.0642702396       24.0959939737
H    1.0       19.8492126489       14.3767280884       23.9083037590
C    6.0       22.2193826499       16.2124741284       22.7732516735
H    1.0       21.4123861923       16.8242042433       22.3568489446
O    8.0       22.7536060940       16.8422707148       23.9415195776
H    1.0       22.0996214252       16.6390492548       24.6478115682
C    6.0       23.3112917317       16.0630213244       21.6871245031
H    1.0       24.2176518050       15.6557938062       22.1542892206
C    6.0       22.8595098538       15.1359654861       20.5233850487
H    1.0       22.0945356824       15.6632319569       19.9378172205
O    8.0       22.3045501505       13.9068136707       21.0570515602
C    6.0       24.0046824417       14.7552875251       19.5585198454
H    1.0       24.3570964939       15.6606129162       19.0467265618
H    1.0       23.6081459817       14.0797650236       18.7887159047
O    8.0       25.0859659249       14.1315703734       20.2572484603
H    1.0       24.7066181439       13.3431465833       20.7056252568
C    6.0       19.6497672541       18.4694443378       20.7007989972
H    1.0       18.6418266023       18.8050411036       20.4227091586
H    1.0       20.2466167372       18.4014003904       19.7821508491
H    1.0       19.5650234768       17.4599340802       21.1179774523
C    6.0       20.3037935899       19.4442411502       21.7056769980
H    1.0       20.3888481860       20.4311365631       21.2313467259
H    1.0       21.3294181511       19.1224333886       21.9315168794
C    6.0       19.4945096067       19.5753177651       23.0167370482
H    1.0       19.9162597494       20.3739463715       23.6383354161
H    1.0       18.4717114801       19.8819096056       22.7743683202
C    6.0       19.4689301168       18.2769080761       23.8456065249
H    1.0       20.4755180169       18.0540633655       24.2072066832
H    1.0       19.1347139307       17.4393064201       23.2284970677
N    7.0       18.5448851356       18.3519849655       25.0440288507
H    1.0       17.5582947977       18.4718252494       24.7239331960
H    1.0       18.7500041515       19.1851661210       25.6130240994
C    6.0       18.6751106001       17.0816252958       25.8711615392
H    1.0       18.4016609134       16.2255861646       25.2498989495
H    1.0       19.7074914861       16.9747249036       26.2101430781
H    1.0       18.0035979876       17.1424164401       26.7299014490
 $end
$$$$
! Edit this basic GAMESS input file as needed.
! Conformer was generated by a VeraChem VCPack run 
! and contains    146 atoms.
!
 $contrl scftyp=rhf runtyp=optimize nzvar=0
  maxit=200 icharg=0 $end
 $system mwords=50 $end
 $basis gbasis=pm3 $end
 $statpt nstep=200 $end
 $guess guess=huckel $end
 $data
VM2 Rank=2      G=577.624           E=384.390           -TS=193.234             
C1
C    6.0       16.1485162326       15.0576106656       20.4673005360
H    1.0       15.0924268919       14.9502665335       20.1882424450
O    8.0       16.4705934917       16.4224340951       20.8109464305
C    6.0       16.5279655275       14.1135321603       21.6385381052
H    1.0       16.4285750459       13.0828709636       21.2724245695
O    8.0       15.6721228020       14.2887271376       22.7783849799
H    1.0       14.7973970524       13.9049294899       22.5539689931
C    6.0       18.0076063114       14.3300620800       22.0371793729
H    1.0       18.1055943645       15.3451777267       22.4452521179
O    8.0       18.3563718481       13.3727832329       23.0431245960
H    1.0       17.5748453969       13.3433677737       23.6410962262
C    6.0       18.9559230790       14.2124236895       20.8097409613
H    1.0       19.1221254879       13.1523514209       20.5762912563
C    6.0       18.4101371613       14.9261472476       19.5383246732
H    1.0       18.5745533107       16.0050055129       19.6483182439
O    8.0       16.9921678985       14.6748362711       19.3626276477
C    6.0       19.1321796434       14.4780490252       18.2485138356
H    1.0       20.2071896637       14.6779413492       18.3521267377
H    1.0       18.7631524795       15.0822502950       17.4090076857
O    8.0       18.9113938081       13.0878584201       17.9926859667
H    1.0       17.9359893287       12.9635082383       17.9872161597
C    6.0       15.0557797865       20.1060148606       21.9344348404
H    1.0       14.4764065573       20.9722521039       22.2771473426
O    8.0       16.2987954701       20.5081048990       21.3209578356
C    6.0       15.3745802819       19.1738899371       23.1296313874
H    1.0       14.4158544605       18.8743442085       23.5721165543
O    8.0       16.1571913118       19.8689971466       24.1187263065
H    1.0       15.9459224483       20.8288439651       24.0281436323
C    6.0       16.1076617070       17.8929831201       22.6578455020
H    1.0       17.1186372429       18.1810352220       22.3510348167
O    8.0       16.1763567153       16.9613028057       23.7427374091
H    1.0       16.1700229886       16.0531321776       23.3579220367
C    6.0       15.4413775864       17.2216069083       21.4293080306
H    1.0       14.5904788427       16.6159737165       21.7680720819
C    6.0       14.9784725060       18.2416213503       20.3526115232
H    1.0       15.8677771825       18.6111597137       19.8256975328
O    8.0       14.2891528177       19.3529819364       20.9719470706
C    6.0       14.0349058401       17.6261079690       19.2954006691
H    1.0       14.5827232172       16.8603264188       18.7303433770
H    1.0       13.7421032766       18.4097109776       18.5837777198
O    8.0       12.8759600705       17.0517727242       19.9065272134
H    1.0       12.4445330581       17.7751347339       20.4138421987
C    6.0       18.5076253732       24.0133323744       20.8648197577
H    1.0       18.8637861132       25.0191924573       20.6068155683
O    8.0       19.5887045041       23.1538067683       21.2761416689
C    6.0       17.4535063867       24.0661154942       22.0009730683
H    1.0       16.6056458352       24.6560041056       21.6290006559
O    8.0       17.9759722532       24.6976534792       23.1799455349
H    1.0       18.8049660764       24.2176360326       23.4330547366
C    6.0       16.9350234335       22.6442087649       22.3299026976
H    1.0       17.7709730648       22.0719341514       22.7515891517
O    8.0       15.8868465897       22.7472441637       23.3000340448
H    1.0       16.1895115639       23.4441013993       23.9259477405
C    6.0       16.4431651376       21.9163343336       21.0442407617
H    1.0       15.4917819679       22.3537573401       20.7130018504
C    6.0       17.4686424564       22.0241986879       19.8847855947
H    1.0       18.3376317053       21.3954412394       20.1188357196
O    8.0       17.8727368938       23.4060516277       19.7206201261
C    6.0       16.8760719951       21.5521086910       18.5410093935
H    1.0       16.0595008959       22.2254583938       18.2477207466
H    1.0       16.4521652380       20.5471142852       18.6630037313
O    8.0       17.8949602344       21.5307666238       17.5398804262
H    1.0       18.3099165726       22.4218070490       17.5539347229
C    6.0       23.6049347520       22.9359629158       22.0238909519
H    1.0       24.6747622600       23.0628258326       22.2340089088
O    8.0       23.2859377982       21.5824874022       21.6357967357
C    6.0       22.7633901240       23.3049173571       23.2700218144
H    1.0       22.9195576935       24.3724932692       23.4728772598
O    8.0       23.1613908086       22.5424980423       24.4201897376
H    1.0       23.7272879239       21.7971678864       24.0988530809
C    6.0       21.2637566854       23.0849984121       22.9779937460
H    1.0       21.1171046273       22.0103358426       22.8383056749
O    8.0       20.4881584039       23.5326549121       24.0928495768
H    1.0       20.9741731377       23.2033431069       24.8824887826
C    6.0       20.8100761583       23.8016003655       21.6812049118
H    1.0       20.6583434909       24.8659387924       21.9056203304
C    6.0       21.8162334995       23.6371229089       20.5032587072
H    1.0       21.6989103082       22.6246929893       20.0944417447
O    8.0       23.1826609189       23.8145331861       20.9596120338
C    6.0       21.5712212758       24.6309494267       19.3464304303
H    1.0       20.5855807575       24.4316442374       18.9054409721
H    1.0       22.3206037842       24.4537021039       18.5633400083
O    8.0       21.6420014317       25.9841617708       19.8044324380
H    1.0       22.5334684740       26.0939871249       20.2042961954
C    6.0       24.9239175452       17.8344162128       20.9843098298
H    1.0       25.5650204735       16.9810679083       20.7281385408
O    8.0       23.5502167704       17.4260515041       21.1551328720
C    6.0       25.4333329492       18.5484682209       22.2670967798
H    1.0       26.4483177886       18.9067092783       22.0510826161
O    8.0       25.4873947802       17.6642246969       23.3964830859
H    1.0       24.5565483339       17.3848618062       23.5880689775
C    6.0       24.5564915223       19.7799042485       22.5951754014
H    1.0       23.5606308304       19.4186877359       22.8857947905
O    8.0       25.1446198604       20.5025626495       23.6803830673
H    1.0       25.4362901361       19.8135547887       24.3194532906
C    6.0       24.3969513768       20.7090078377       21.3641706226
H    1.0       25.3281639531       21.2678020642       21.2003140063
C    6.0       24.0492182782       19.9307915790       20.0679883442
H    1.0       23.0100607471       19.5813366294       20.1277637090
O    8.0       24.9547884010       18.8084738939       19.9198957114
C    6.0       24.1927857814       20.8131552181       18.8107735517
H    1.0       25.2464622634       21.0960324033       18.6844052563
H    1.0       23.6139501377       21.7361455247       18.9452580996
O    8.0       23.7211784274       20.1059227128       17.6626710175
H    1.0       24.1899264566       19.2414737148       17.6629985431
C    6.0       21.1726463170       14.0934257172       21.8492894126
H    1.0       20.7792601888       13.1043284666       22.1167038370
O    8.0       20.1950745110       14.8772419040       21.1343640594
C    6.0       21.6152882172       14.8610918831       23.1236346308
H    1.0       22.3908131764       14.2561020045       23.6112130512
O    8.0       20.5269676393       15.0589457697       24.0395810860
H    1.0       19.8442895697       14.3771936662       23.8305377158
C    6.0       22.2292512337       16.2291444895       22.7563207627
H    1.0       21.4268413786       16.8491525046       22.3432097005
O    8.0       22.7522226227       16.8370404962       23.9412530369
H    1.0       22.0913315020       16.6210477508       24.6372338924
C    6.0       23.3320646189       16.0998983567       21.6786434317
H    1.0       24.2353715009       15.6877395440       22.1473305292
C    6.0       22.8938055168       15.1924039185       20.4946080560
H    1.0       22.1349353454       15.7288275120       19.9095992793
O    8.0       22.3335854557       13.9550054910       21.0017202579
C    6.0       24.0493339041       14.8278590430       19.5359335199
H    1.0       24.4053474877       15.7412041145       19.0412754765
H    1.0       23.6614883151       14.1632307165       18.7522841444
O    8.0       25.1246352605       14.1954087664       20.2360424117
H    1.0       24.7421883709       13.3992698242       20.6678481994
C    6.0       19.6914341478       18.5361124878       20.6937472118
H    1.0       19.6000630718       17.5182242288       21.0890102715
H    1.0       18.6874870777       18.8806874605       20.4123276398
H    1.0       20.2986417201       18.4870081466       19.7805661119
C    6.0       20.3375629319       19.4888063379       21.7245644211
H    1.0       20.4319450101       20.4841455573       21.2698154554
H    1.0       21.3592506534       19.1583360549       21.9551522150
C    6.0       19.5153647116       19.5983506229       23.0294586074
H    1.0       19.9337874699       20.3838232187       23.6697914838
H    1.0       18.4959531307       19.9129663532       22.7828484791
C    6.0       19.4783340627       18.2849702191       23.8339260101
H    1.0       20.4809961671       18.0523596270       24.2002206571
H    1.0       19.1470869582       17.4599412511       23.1985188398
N    7.0       18.5441187800       18.3409453717       25.0254348747
H    1.0       17.5606963694       18.4684744372       24.6986660027
H    1.0       18.7458884536       19.1635211001       25.6108013849
C    6.0       18.6644804324       17.0559145101       25.8311280210
H    1.0       18.3950384954       16.2115441031       25.1923763231
H    1.0       19.6935404362       16.9409125685       26.1774540266
H    1.0       17.9853482286       17.1028865668       26.6847236546
 $end
$$$$
! Edit this basic GAMESS input file as needed.
! Conformer was generated by a VeraChem VCPack run 
! and contains    146 atoms.
!
 $contrl scftyp=rhf runtyp=optimize nzvar=0
  maxit=200 icharg=0 $end
 $system mwords=50 $end
 $basis gbasis=pm3 $end
 $statpt nstep=200 $end
 $guess guess=huckel $end
 $data
VM2 Rank=3      G=577.635           E=384.625           -TS=193.010             
C1
C    6.0       16.1594728914       15.0047082318       20.5256591847
H    1.0       15.1055167691       14.8866047361       20.2429487098
O    8.0       16.4721651295       16.3761127719       20.8515867113
C    6.0       16.5403494477       14.0797814727       21.7114857055
H    1.0       16.4453270586       13.0436445800       21.3600037092
O    8.0       15.6821385241       14.2669771827       22.8474497912
H    1.0       14.8090745481       13.8773257159       22.6266619485
C    6.0       18.0189626917       14.3076597252       22.1084999036
H    1.0       18.1123170231       15.3268130449       22.5076144289
O    8.0       18.3726543280       13.3599126688       23.1214894130
H    1.0       17.5933226904       13.3341981594       23.7224983904
C    6.0       18.9674723598       14.1828460378       20.8817501028
H    1.0       19.1296761491       13.1217200638       20.6496948296
C    6.0       18.4251246223       14.8908826737       19.6077706401
H    1.0       18.5819069817       15.9719249776       19.7076862988
O    8.0       17.0128969640       14.6103930169       19.4318446043
C    6.0       19.1603619484       14.4199047977       18.3362822438
H    1.0       18.9506914362       13.3548521634       18.1691764912
H    1.0       20.2433670412       14.5286492761       18.4838591635
O    8.0       18.7407735929       15.1969815206       17.2131895267
H    1.0       17.7577976414       15.1652523924       17.2115857122
C    6.0       15.0507033646       20.0706753999       21.9269731304
H    1.0       14.4693499756       20.9399565192       22.2584388981
O    8.0       16.2930741229       20.4678173270       21.3088957779
C    6.0       15.3707644957       19.1542937461       23.1340177703
H    1.0       14.4124297950       18.8595355292       23.5805442779
O    8.0       16.1531777295       19.8623394633       24.1140501256
H    1.0       15.9391239754       20.8205554121       24.0132640189
C    6.0       16.1050806181       17.8681845748       22.6789617600
H    1.0       17.1158113605       18.1534307963       22.3685653276
O    8.0       16.1747846468       16.9513050947       23.7762883266
H    1.0       16.1709088605       16.0381004744       23.4035628737
C    6.0       15.4403338019       17.1799118473       21.4589073198
H    1.0       14.5905183221       16.5764657965       21.8041756631
C    6.0       14.9772873451       18.1858272388       20.3690920938
H    1.0       15.8666910582       18.5499739644       19.8384588013
O    8.0       14.2858840890       19.3040056261       20.9737702165
C    6.0       14.0358036072       17.5556935916       19.3187125975
H    1.0       14.5851689911       16.7830883116       18.7645901032
H    1.0       13.7433584443       18.3296473670       18.5964656600
O    8.0       12.8764984788       16.9883438432       19.9356628902
H    1.0       12.4441787910       17.7177216989       20.4335095631
C    6.0       18.4999108181       23.9709071149       20.8230794318
H    1.0       18.8552508943       24.9746886822       20.5559970240
O    8.0       19.5813673154       23.1166544167       21.2443710061
C    6.0       17.4444708797       24.0334569353       21.9573656123
H    1.0       16.5967469677       24.6194779878       21.5790188347
O    8.0       17.9653943247       24.6760787492       23.1310407092
H    1.0       18.7961242027       24.2008876517       23.3875850081
C    6.0       16.9262270475       22.6144298511       22.2989050439
H    1.0       17.7616662910       22.0467490589       22.7277409914
O    8.0       15.8762217608       22.7268495980       23.2660123675
H    1.0       16.1774892249       23.4302237923       23.8853029556
C    6.0       16.4369841390       21.8736587842       21.0195268840
H    1.0       15.4857302139       22.3071736162       20.6828430796
C    6.0       17.4639244128       21.9716611521       19.8604324081
H    1.0       18.3332595283       21.3458498509       20.1010827694
O    8.0       17.8669005071       23.3523290540       19.6839648029
C    6.0       16.8731855188       21.4869595698       18.5203600856
H    1.0       16.0507533802       22.1519710568       18.2244577585
H    1.0       16.4577711803       20.4791688672       18.6488729367
O    8.0       17.8906988657       21.4686318984       17.5178134905
H    1.0       18.3005124208       22.3620862323       17.5291244786
C    6.0       23.6005926497       22.9159510577       21.9896824230
H    1.0       24.6702111487       23.0491550078       22.1969036755
O    8.0       23.2855788928       21.5562172818       21.6208599898
C    6.0       22.7592505810       23.2990361975       23.2316784381
H    1.0       22.9126519452       24.3696218998       23.4202816669
O    8.0       23.1607810440       22.5529202112       24.3912816772
H    1.0       23.7257663737       21.8031375192       24.0787849555
C    6.0       21.2598787686       23.0711625445       22.9441858285
H    1.0       21.1159763941       21.9943921801       22.8184573560
O    8.0       20.4841720618       23.5312264021       24.0539134713
H    1.0       20.9716637724       23.2133265699       24.8473018454
C    6.0       20.8032517573       23.7700769300       21.6388417426
H    1.0       20.6514462357       24.8372070292       21.8495285153
C    6.0       21.8078759695       23.5907619659       20.4618037409
H    1.0       21.6924602645       22.5722008022       20.0679381289
O    8.0       23.1744346930       23.7782766014       20.9137046041
C    6.0       21.5588492579       24.5671413090       19.2910523334
H    1.0       20.5731157651       24.3590653670       18.8543443369
H    1.0       22.3076115812       24.3804167498       18.5095719320
O    8.0       21.6268971455       25.9270077426       19.7293483382
H    1.0       22.5186279570       26.0447688453       20.1263473337
C    6.0       24.9325472573       17.8056721864       21.0116455150
H    1.0       25.5749516546       16.9504233657       20.7652504219
O    8.0       23.5594804328       17.3972379060       21.1874822959
C    6.0       25.4408078902       18.5353291455       22.2860091494
H    1.0       26.4546889674       18.8939237789       22.0654522259
O    8.0       25.4979151815       17.6638489157       23.4250998465
H    1.0       24.5678912326       17.3843944377       23.6204837164
C    6.0       24.5605598255       19.7679195526       22.6003765770
H    1.0       23.5655400386       19.4072908996       22.8945835816
O    8.0       25.1461928629       20.5042204893       23.6777366038
H    1.0       25.4392713742       19.8232130835       24.3246710474
C    6.0       24.3991308141       20.6829572541       21.3591423780
H    1.0       25.3289537502       21.2424708575       21.1899392360
C    6.0       24.0544270410       19.8899836493       20.0710648203
H    1.0       23.0157892330       19.5393458767       20.1331443472
O    8.0       24.9620640070       18.7676356230       19.9362217990
C    6.0       24.1984193566       20.7592571473       18.8047885982
H    1.0       25.2517610775       21.0428604596       18.6772677543
H    1.0       23.6175485874       21.6824783711       18.9285225018
O    8.0       23.7302763842       20.0391808345       17.6633291026
H    1.0       24.1991981006       19.1749025637       17.6745039860
C    6.0       21.1866662786       14.0693189323       21.9220000905
H    1.0       20.7940684278       13.0830328444       22.2006797397
O    8.0       20.2082377835       14.8454421713       21.2008295162
C    6.0       21.6312578128       14.8511262719       23.1868969059
H    1.0       22.4087311337       14.2526053825       23.6793342823
O    8.0       20.5441588751       15.0568638598       24.1025573912
H    1.0       19.8611106900       14.3734899790       23.9003039120
C    6.0       22.2420948301       16.2161942931       22.8034833213
H    1.0       21.4381171534       16.8306431338       22.3850085009
O    8.0       22.7659608828       16.8378003837       23.9808424403
H    1.0       22.1056017009       16.6299937729       24.6798269754
C    6.0       23.3430930910       16.0764906067       21.7252291419
H    1.0       24.2475760759       15.6698038549       22.1964466470
C    6.0       22.9030551759       15.1566881571       20.5512306131
H    1.0       22.1429425781       15.6872550024       19.9622651870
O    8.0       22.3443836964       13.9233373481       21.0712279378
C    6.0       24.0572487795       14.7840236495       19.5940722057
H    1.0       24.4125995139       15.6931713815       19.0912463654
H    1.0       23.6685504705       14.1128967495       18.8164660244
O    8.0       25.1334085311       14.1575184028       20.2981694859