$$$$
! Edit this basic GAMESS input file as needed.
! Conformer was generated by a VeraChem VCPack run 
! and contains    151 atoms.
!
 $contrl scftyp=rhf runtyp=optimize nzvar=0
  maxit=200 icharg=0 $end
 $system mwords=50 $end
 $basis gbasis=pm3 $end
 $statpt nstep=200 $end
 $guess guess=huckel $end
 $data
VM2 Rank=1      G=504.823           E=307.722           -TS=197.101             
C1
C    6.0       16.2137229867       15.0525783598       21.2535810337
H    1.0       15.1303764818       14.8973853714       21.1754557688
O    8.0       16.5518356474       16.4531615903       21.2968890043
C    6.0       16.7532824918       14.3668301572       22.5336710854
H    1.0       16.5383011475       13.2940336853       22.4440720893
O    8.0       16.1130415579       14.8768170822       23.7111906092
H    1.0       16.6430316259       14.5145303657       24.4565746900
C    6.0       18.2853173570       14.5337655257       22.6509202364
H    1.0       18.5016891867       15.5930116230       22.8410945437
O    8.0       18.7687137599       13.7354155808       23.7380665463
H    1.0       19.7561531940       13.7383182365       23.6761402692
C    6.0       19.0026787443       14.1159736984       21.3436413624
H    1.0       19.0209367208       13.0193151213       21.2925860800
C    6.0       18.3240943371       14.6881833788       20.0681186088
H    1.0       18.5304800064       15.7654134839       20.0194705389
O    8.0       16.8927735751       14.4641471093       20.1243493126
C    6.0       18.8441297453       14.0503443693       18.7609288675
H    1.0       19.9139236923       14.2711626403       18.6527096682
H    1.0       18.3268954615       14.5161845700       17.9115160124
O    8.0       18.6282136709       12.6360055529       18.7574822088
H    1.0       17.6648052420       12.5070118799       18.9050249002
C    6.0       14.9246389346       20.2623115255       20.8783481141
H    1.0       14.2747961305       21.1145345916       20.6412677400
O    8.0       16.2343270511       20.6959905194       21.2910390778
C    6.0       14.3038096032       19.3932376248       22.0044623527
H    1.0       13.3229460763       19.0519905367       21.6487137886
O    8.0       14.1312157978       20.1410648979       23.2156603546
H    1.0       13.8424277070       19.4753214278       23.8798361196
C    6.0       15.1677937388       18.1413604741       22.2874791516
H    1.0       16.1165737366       18.4725358507       22.7324782703
O    8.0       14.4744317168       17.2816295686       23.2002682030
H    1.0       15.0779888149       16.5190442109       23.3851153873
C    6.0       15.4899652275       17.3729052404       20.9821666235
H    1.0       14.5859129544       16.8576004154       20.6317150039
C    6.0       16.0006457956       18.3132335231       19.8593510981
H    1.0       16.9974599566       18.6780520438       20.1355986057
O    8.0       15.0883559559       19.4294500640       19.7111425752
C    6.0       16.1131937923       17.6156772201       18.4858888066
H    1.0       16.8118018085       16.7730945210       18.5657064592
H    1.0       16.5371172998       18.3264106866       17.7638888100
O    8.0       14.8347987636       17.1554476173       18.0380490242
H    1.0       14.2393488832       17.9369723623       18.0696862978
C    6.0       18.5042588221       24.0854343479       21.8585568442
H    1.0       18.9119448370       25.0872376806       22.0443615173
O    8.0       19.5176017825       23.1705100819       21.3991489037
C    6.0       17.8713199599       23.5150885979       23.1503911382
H    1.0       17.0392573921       24.1751699230       23.4280006651
O    8.0       18.8187865326       23.4760477054       24.2264300647
H    1.0       18.3906417930       22.9138997406       24.9107903284
C    6.0       17.2937711691       22.1043758419       22.8960448095
H    1.0       18.1306011995       21.4220864167       22.6964049265
O    8.0       16.5685270868       21.6737980271       24.0536500401
H    1.0       15.9243410592       20.9923177156       23.7440879542
C    6.0       16.3572804662       22.0814829354       21.6632685003
H    1.0       15.3902786801       22.5145101109       21.9530616665
C    6.0       16.9426326356       22.8458781558       20.4402586952
H    1.0       17.7521765871       22.2385161311       20.0141472873
O    8.0       17.4658111138       24.1329360618       20.8570917403
C    6.0       15.9148209170       23.1015837462       19.3154328637
H    1.0       15.6031366285       22.1396898774       18.8876185590
H    1.0       16.4047462257       23.6698918803       18.5133969561
O    8.0       14.7770982738       23.8165287262       19.8062364238
H    1.0       15.1224815464       24.6529685202       20.1903856670
C    6.0       23.5379977477       22.7791702496       20.6711220839
H    1.0       24.5903216260       22.8588941025       20.3694571143
O    8.0       23.1967222048       21.4256496044       21.0428286156
C    6.0       23.2146533460       23.7508213266       21.8386489863
H    1.0       23.3547590375       24.7708920379       21.4588350920
O    8.0       24.1095516261       23.5477837618       22.9424163597
H    1.0       23.8784902000       22.6711778168       23.3386305002
C    6.0       21.7273415162       23.6040375145       22.2592495827
H    1.0       21.5927114478       22.5979568000       22.6801931842
O    8.0       21.3748846056       24.5857186773       23.2415229261
H    1.0       20.5425130841       24.2614500429       23.6653624088
C    6.0       20.7835241478       23.7462409810       21.0327029339
H    1.0       20.6866001889       24.8054550738       20.7595840026
C    6.0       21.2657600011       22.9503244777       19.7916310419
H    1.0       21.0657919580       21.8900621636       19.9792964229
O    8.0       22.6837095633       23.1536223422       19.5721023023
C    6.0       20.5258509916       23.3418960677       18.4938596283
H    1.0       19.4492871630       23.1764363506       18.6300447263
H    1.0       20.8609363049       22.6793704245       17.6845179051
O    8.0       20.7759036730       24.7085763859       18.1530023510
H    1.0       21.7537883317       24.8071762455       18.1292571205
C    6.0       24.8243362553       17.7838525642       22.1555582635
H    1.0       25.4697372877       16.9621645452       22.4908834472
O    8.0       23.5836174401       17.2920148148       21.6075219693
C    6.0       24.5105717133       18.7320764608       23.3421775870
H    1.0       25.4673414835       19.1298080369       23.7043498036
O    8.0       23.8790108645       17.9952007337       24.4036241578
H    1.0       23.2991624580       18.6184969633       24.9136703554
C    6.0       23.6477592170       19.9353988275       22.8800831807
H    1.0       22.6473175570       19.5617709612       22.6294551621
O    8.0       23.5648798072       20.9061406670       23.9313214076
H    1.0       22.9826656804       20.5201732610       24.6358096558
C    6.0       24.2424519254       20.6185684177       21.6194301019
H    1.0       25.1046409721       21.2260535843       21.9249217199
C    6.0       24.6803426462       19.6009942566       20.5311355938
H    1.0       23.7766320736       19.1666070238       20.0835201507
O    8.0       25.4845232886       18.5561991166       21.1310004866
C    6.0       25.5049500042       20.2348353051       19.3888188855
H    1.0       24.8739038899       20.9524955068       18.8478260616
H    1.0       25.7854728958       19.4463756280       18.6775862980
O    8.0       26.6738180558       20.8873655626       19.8933487770
H    1.0       27.1734612752       20.2056146242       20.3953887583
C    6.0       21.4226805079       13.7813193576       21.1595947192
H    1.0       21.0780818773       12.7602109199       20.9532774358
O    8.0       20.3248854571       14.6786393147       21.4195587093
C    6.0       22.3640149883       13.7982424141       22.3895242529
H    1.0       23.2292741085       13.1660373217       22.1513144023
O    8.0       21.7084338022       13.2830158666       23.5566050335
H    1.0       22.3288523688       13.4799905607       24.2943063586
C    6.0       22.8800907858       15.2294585281       22.6681312948
H    1.0       22.0236035490       15.8423522445       22.9800948084
O    8.0       23.8486293675       15.1810803409       23.7223400014
H    1.0       23.9239958495       16.1078888286       24.0619177209
C    6.0       23.4915593943       15.8702778667       21.3918751305
H    1.0       24.4772046601       15.4296577869       21.1915715921
C    6.0       22.5914387447       15.6746312563       20.1406039129
H    1.0       21.7105220918       16.3225876449       20.2364602864
O    8.0       22.1697421993       14.2923600897       20.0365879255
C    6.0       23.3108551995       16.0417829104       18.8237240965
H    1.0       23.6468877388       17.0855678866       18.8761819727
H    1.0       22.5920926534       15.9672945018       17.9967866983
O    8.0       24.4266199028       15.1775090326       18.5901434202
H    1.0       24.0766467546       14.2610900882       18.6562490716
C    6.0       20.6720808513       19.5282718272       25.5852527595
O    8.0       19.9436968161       19.3804459335       26.5465259498
O    8.0       21.8874362120       19.5448779791       25.6510884224
C    6.0       20.0320223055       19.6839967763       24.2097462186
H    1.0       20.6234940423       20.4072027135       23.6384550151
H    1.0       19.0375383841       20.1203882375       24.3525041402
C    6.0       19.9129569497       18.3383784985       23.4496526767
H    1.0       20.8951149173       17.8492320279       23.4056715650
H    1.0       19.2608244592       17.6708324077       24.0291046645
C    6.0       19.3385219706       18.4871101345       22.0218041741
H    1.0       18.4412424949       19.1183520409       22.0423699601
H    1.0       19.0176697271       17.4977938014       21.6755928675
C    6.0       20.3640990128       19.0451092388       21.0110641561
H    1.0       20.6776324181       20.0532173541       21.3088446267
H    1.0       21.2605948084       18.4155693812       21.0319063553
C    6.0       19.7964834598       19.0826605292       19.5759442904
H    1.0       19.0521319562       19.8872711211       19.5039876740
H    1.0       19.2740872005       18.1414017449       19.3602404207
C    6.0       20.9020449635       19.2843937882       18.5182164742
H    1.0       21.5113613342       20.1628787266       18.7608281425
H    1.0       21.5811600293       18.4230095959       18.5321712788
C    6.0       20.3081905237       19.4434898164       17.1051456492
H    1.0       19.6447575170       20.3164580159       17.0543725923
H    1.0       21.1058460882       19.5796668023       16.3636561367
H    1.0       19.7285119998       18.5555485570       16.8214299854
 $end
$$$$
! Edit this basic GAMESS input file as needed.
! Conformer was generated by a VeraChem VCPack run 
! and contains    151 atoms.
!
 $contrl scftyp=rhf runtyp=optimize nzvar=0
  maxit=200 icharg=0 $end
 $system mwords=50 $end
 $basis gbasis=pm3 $end
 $statpt nstep=200 $end
 $guess guess=huckel $end
 $data
VM2 Rank=2      G=505.201           E=308.270           -TS=196.931             
C1
C    6.0       16.2141758400       15.0588898770       21.2293800263
H    1.0       15.1317662017       14.9027116424       21.1410712705
O    8.0       16.5490539865       16.4592640306       21.2961373797
C    6.0       16.7459160480       14.3555625790       22.5032994072
H    1.0       16.5325410439       13.2839642723       22.3970795182
O    8.0       16.0974562563       14.8482034933       23.6836972336
H    1.0       16.6223634957       14.4750465910       24.4273250274
C    6.0       18.2770102976       14.5220536553       22.6333795804
H    1.0       18.4915821200       15.5788916398       22.8391282581
O    8.0       18.7534101897       13.7093272982       23.7129639089
H    1.0       19.7414993125       13.7196004564       23.6624813637
C    6.0       19.0028950603       14.1220844252       21.3252940738
H    1.0       19.0186498574       13.0263150122       21.2573715081
C    6.0       18.3338976266       14.7149001832       20.0542790193
H    1.0       18.5397795161       15.7928619581       20.0248031699
O    8.0       16.9024277084       14.4887598833       20.0963002943
C    6.0       18.8641293537       14.0985829021       18.7408996447
H    1.0       19.9350423535       14.3197628405       18.6453593819
H    1.0       18.3545413019       14.5793467568       17.8951965643
O    8.0       18.6465057738       12.6847997352       18.7118509722
H    1.0       17.6819582289       12.5547010829       18.8507013283
C    6.0       14.9197794676       20.2713975999       20.9100075009
H    1.0       14.2676221402       21.1239168059       20.6816034345
O    8.0       16.2291114072       20.7035906994       21.3239319159
C    6.0       14.3039944008       19.3944122494       22.0326299115
H    1.0       13.3210709106       19.0564422424       21.6794913988
O    8.0       14.1387245820       20.1338568809       23.2501982481
H    1.0       13.8560132065       19.4631310137       23.9119029283
C    6.0       15.1685989292       18.1401644161       22.3028104879
H    1.0       16.1187167051       18.4676237438       22.7477169828
O    8.0       14.4775930129       17.2732216189       23.2105720973
H    1.0       15.0783525292       16.5052828357       23.3818729059
C    6.0       15.4869928372       17.3819533271       20.9907133605
H    1.0       14.5815797453       16.8700112279       20.6388818865
C    6.0       15.9952720610       18.3310587842       19.8742293786
H    1.0       16.9921702019       18.6947375689       20.1517125322
O    8.0       15.0816755540       19.4474040324       19.7361519448
C    6.0       16.1061400701       17.6442842672       18.4952206318
H    1.0       16.8062648634       16.8022384276       18.5670699235
H    1.0       16.5274983185       18.3612224481       17.7778781126
O    8.0       14.8275056190       17.1856201148       18.0464679712
H    1.0       14.2308798228       17.9658853929       18.0858823226
C    6.0       18.5084462362       24.0936086924       21.8465790484
H    1.0       18.9174186772       25.0970648725       22.0201008722
O    8.0       19.5220597420       23.1707782148       21.4034680189
C    6.0       17.8705163600       23.5430899816       23.1444603631
H    1.0       17.0382638258       24.2080764369       23.4096731385
O    8.0       18.8151577786       23.5178413701       24.2235737785
H    1.0       18.3845014261       22.9654140292       24.9142614935
C    6.0       17.2925363643       22.1297772511       22.9079737456
H    1.0       18.1288348325       21.4448653222       22.7153221441
O    8.0       16.5677030893       21.7114303228       24.0705918645
H    1.0       15.9288362419       21.0212585397       23.7691105120
C    6.0       16.3554723884       22.0940887209       21.6765693798
H    1.0       15.3908065287       22.5345468924       21.9628349413
C    6.0       16.9412107576       22.8410047175       20.4430543141
H    1.0       17.7519360458       22.2260460210       20.0307211622
O    8.0       17.4751309267       24.1300159910       20.8404190565
C    6.0       15.9192693690       23.0694115617       19.3035373067
H    1.0       15.7140760462       22.1048384523       18.8199361774
H    1.0       16.3794274987       23.7200315162       18.5477469678
O    8.0       14.6962839879       23.6460593282       19.7791854890
H    1.0       14.1340353379       23.8386883998       18.9973736068
C    6.0       23.5393865757       22.7702562203       20.6613444131
H    1.0       24.5906314908       22.8482028836       20.3555010994
O    8.0       23.1990097313       21.4185703168       21.0400563434
C    6.0       23.2209042786       23.7471474261       21.8259492622
H    1.0       23.3614023011       24.7654518660       21.4415731246
O    8.0       24.1185963882       23.5471865199       22.9280399582
H    1.0       23.8865779941       22.6729981690       23.3290358873
C    6.0       21.7347723831       23.6043676053       22.2518726067
H    1.0       21.6001639769       22.6005824221       22.6782616790
O    8.0       21.3862168616       24.5915643014       23.2300684338
H    1.0       20.5499142942       24.2752691364       23.6522332844
C    6.0       20.7873671181       23.7416559411       21.0277964824
H    1.0       20.6918655881       24.7996043553       20.7492790000
C    6.0       21.2638510881       22.9383346613       19.7893861400
H    1.0       21.0636064787       21.8792221507       19.9833487762
O    8.0       22.6811689151       23.1396708021       19.5636402793
C    6.0       20.5195267850       23.3239914632       18.4923775827
H    1.0       19.4430869873       23.1621978373       18.6340097450
H    1.0       20.8496132616       22.6557886276       17.6856611074
O    8.0       20.7717765118       24.6879450096       18.1423215629
H    1.0       21.7498317980       24.7839870500       18.1150549323
C    6.0       24.8269374839       17.7815769948       22.1639036449
H    1.0       25.4714554300       16.9602647558       22.5018547257
O    8.0       23.5862100826       17.2893802956       21.6162402925
C    6.0       24.5132128419       18.7331473782       23.3478378431
H    1.0       25.4700288824       19.1312621627       23.7094667175
O    8.0       23.8804353014       17.9995198534       24.4108182255
H    1.0       23.3030816091       18.6252206470       24.9207506980
C    6.0       23.6512678783       19.9356214290       22.8821345798
H    1.0       22.6504808021       19.5617194041       22.6332545487
O    8.0       23.5694766602       20.9100071089       23.9301433182
H    1.0       22.9881890992       20.5264618927       24.6367087669
C    6.0       24.2456735749       20.6144937917       21.6190246950
H    1.0       25.1073473084       21.2237608856       21.9223776951
C    6.0       24.6845026846       19.5937440801       20.5340777433
H    1.0       23.7811322390       19.1580902159       20.0870196698
O    8.0       25.4881953888       18.5507419868       21.1376905741
C    6.0       25.5099659462       20.2240361236       19.3904173764
H    1.0       24.8792128431       20.9397059550       18.8464675026
H    1.0       25.7913169034       19.4332946005       18.6820486355
O    8.0       26.6782285857       20.8785344190       19.8937775524
H    1.0       27.1775895043       20.1986155413       20.3985753618
C    6.0       21.4237481332       13.7806522825       21.1662144288
H    1.0       21.0789029039       12.7593337256       20.9614671684
O    8.0       20.3259233139       14.6801734266       21.4187604682
C    6.0       22.3595108727       13.7993646799       22.4003301177
H    1.0       23.2251265839       13.1656558350       22.1674682735
O    8.0       21.6981224928       13.2874139029       23.5655593460
H    1.0       22.3147948974       13.4866375387       24.3057959660
C    6.0       22.8759863005       15.2305678553       22.6779041384
H    1.0       22.0188698349       15.8453379836       22.9844989029
O    8.0       23.8398713428       15.1836444068       23.7364396088
H    1.0       23.9168601432       16.1115986057       24.0725288742
C    6.0       23.4939998427       15.8674032353       21.4029114423
H    1.0       24.4801487550       15.4253233754       21.2083707767
C    6.0       22.5996809698       15.6696495707       20.1478013113
H    1.0       21.7191127874       16.3188810070       20.2377752973
O    8.0       22.1767795126       14.2876286397       20.0453643772
C    6.0       23.3256860563       16.0325965349       18.8333721382
H    1.0       23.6621234517       17.0763192125       18.8844543361
H    1.0       22.6108680496       15.9562260323       18.0031937310
O    8.0       24.4419550158       15.1669135322       18.6075963592
H    1.0       24.0909954001       14.2509094755       18.6742572700
C    6.0       20.6785093809       19.5416699552       25.5954736913
O    8.0       19.9520940554       19.3966649399       26.5586664072
O    8.0       21.8940560859       19.5562785586       25.6584097710
C    6.0       20.0355712251       19.6958345255       24.2211544145
H    1.0       20.6304658280       20.4123758994       23.6450574470
H    1.0       19.0445322013       20.1399084447       24.3645393489
C    6.0       19.9053240632       18.3477163990       23.4673075367
H    1.0       20.8835440488       17.8505032564       23.4250935626
H    1.0       19.2480505016       17.6878258601       24.0497650127
C    6.0       19.3316579901       18.4949273868       22.0390726237
H    1.0       18.4403523368       19.1346998285       22.0569183338
H    1.0       19.0015706035       17.5069328115       21.6979368222
C    6.0       20.3621913854       19.0386920847       21.0256494460
H    1.0       20.6847920016       20.0452923252       21.3187249640
H    1.0       21.2529089477       18.4010701170       21.0495932511
C    6.0       19.7951059989       19.0750194384       19.5903351494
H    1.0       19.0555484593       19.8837697219       19.5155646549
H    1.0       19.2672907770       18.1362017049       19.3775018746
C    6.0       20.9022203894       19.2672752052       18.5325137413
H    1.0       21.5144700613       20.1448378076       18.7713614911
H    1.0       21.5781586331       18.4034755719       18.5512808512
C    6.0       20.3099767190       19.4214584689       17.1182221277
H    1.0       19.6494974513       20.2963638879       17.0626481109
H    1.0       21.1086629683       19.5513429236       16.3767107564
H    1.0       19.7275626419       18.5340754598       16.8383845778
 $end
$$$$
! Edit this basic GAMESS input file as needed.
! Conformer was generated by a VeraChem VCPack run 
! and contains    151 atoms.
!
 $contrl scftyp=rhf runtyp=optimize nzvar=0
  maxit=200 icharg=0 $end
 $system mwords=50 $end
 $basis gbasis=pm3 $end
 $statpt nstep=200 $end
 $guess guess=huckel $end
 $data
VM2 Rank=3      G=505.247           E=307.990           -TS=197.256             
C1
C    6.0       16.2420921369       15.0183329346       21.1842891646
H    1.0       15.1659563434       14.8547286019       21.0469804112
O    8.0       16.5566152240       16.4166710845       21.3384552686
C    6.0       16.7350220640       14.2586252994       22.4409411014
H    1.0       16.5299667530       13.1924436219       22.2787648866
O    8.0       16.0461456149       14.6953821834       23.6207174288
H    1.0       16.5425159651       14.2838435734       24.3635582490
C    6.0       18.2605736525       14.4246109166       22.6281070630
H    1.0       18.4621179639       15.4708589555       22.8951976480
O    8.0       18.7073175763       13.5582260731       23.6782612072
H    1.0       19.6949183339       13.6190207393       23.6976992944
C    6.0       19.0305710451       14.0978507520       21.3242395637
H    1.0       19.0421923439       13.0087165481       21.1849972985
C    6.0       18.4071594268       14.7675649759       20.0696189430
H    1.0       18.6042028023       15.8465979902       20.1066525755
O    8.0       16.9802147390       14.5114323017       20.0523693683
C    6.0       18.9919391569       14.2123056817       18.7539043992
H    1.0       18.8031229380       13.1318952916       18.7002293577
H    1.0       20.0787014197       14.3638678293       18.7465182104
O    8.0       18.4043269361       14.8784644037       17.6347400315
H    1.0       17.4311713733       14.8225171102       17.7648227668
C    6.0       14.9043771056       20.2281296145       20.9799974823
H    1.0       14.2399823165       21.0738058284       20.7603851744
O    8.0       16.2135710776       20.6743210486       21.3788008398
C    6.0       14.3137884831       19.3444842298       22.1111898229
H    1.0       13.3266187378       19.0018641602       21.7747893234
O    8.0       14.1664655126       20.0815625605       23.3327053753
H    1.0       13.9010974367       19.4083124360       23.9989507177
C    6.0       15.1897184531       18.0940099890       22.3642830730
H    1.0       16.1436706950       18.4245994219       22.7984327954
O    8.0       14.5159765993       17.2169718267       23.2754471167
H    1.0       15.1039586423       16.4302728241       23.3993958827
C    6.0       15.4952859930       17.3438939220       21.0450746320
H    1.0       14.5844935916       16.8364845860       20.7009108599
C    6.0       15.9927157107       18.3033897709       19.9326069300
H    1.0       16.9847574695       18.6784309044       20.2125192379
O    8.0       15.0633587858       19.4072087773       19.8032970012
C    6.0       16.1174520871       17.6294639604       18.5491887357
H    1.0       16.8655314459       16.8304667324       18.6105627128
H    1.0       16.4896366457       18.3694050687       17.8280717840
O    8.0       14.8611912768       17.0992998555       18.1159479601
H    1.0       14.2260952024       17.8488280264       18.1403384923
C    6.0       18.4974966500       24.0689481282       21.8026957501
H    1.0       18.9141016285       25.0734707682       21.9500805677
O    8.0       19.4987809591       23.1324638183       21.3596683869
C    6.0       17.8780911106       23.5461345547       23.1210608892
H    1.0       17.0530807334       24.2197200157       23.3870205234
O    8.0       18.8395329720       23.5375556673       24.1853220842
H    1.0       18.4169680659       23.0030991117       24.8947972295
C    6.0       17.2905296651       22.1310601021       22.9207114705
H    1.0       18.1221562733       21.4388604621       22.7340000421
O    8.0       16.5757508773       21.7398785179       24.0988030482
H    1.0       15.9493928949       21.0277678518       23.8230009547
C    6.0       16.3395557163       22.0713705204       21.7007813324
H    1.0       15.3762389750       22.5134610805       21.9890117143
C    6.0       16.9094077872       22.7948113867       20.4458374302
H    1.0       17.7089040937       22.1700701811       20.0260068549
O    8.0       17.4457906393       24.0910626518       20.8144658857
C    6.0       15.8653290188       23.0225479719       19.3299645933
H    1.0       15.5418625774       22.0503657271       18.9356533698
H    1.0       16.3455507462       23.5640032958       18.5038402624
O    8.0       14.7392627905       23.7583323031       19.8168617598
H    1.0       15.0950438128       24.6040441250       20.1699723169
C    6.0       23.5103793448       22.7133206384       20.5748107341
H    1.0       24.5567726261       22.7872492987       20.2518529902
O    8.0       23.1819234147       21.3709365853       20.9944818108
C    6.0       23.2042078599       23.7208314813       21.7166062586
H    1.0       23.3363286994       24.7285266431       21.3024607343
O    8.0       24.1170329093       23.5543208199       22.8118101927
H    1.0       23.8899006857       22.6931364466       23.2426151608
C    6.0       21.7243948148       23.5860499145       22.1664563862
H    1.0       21.5978816094       22.5935642155       22.6208420835
O    8.0       21.3873610172       24.5981515931       23.1230239962
H    1.0       20.5608398091       24.2888189643       23.5688868562
C    6.0       20.7606658124       23.6889908964       20.9517548245
H    1.0       20.6630913929       24.7384455949       20.6434497750
C    6.0       21.2215525879       22.8489933400       19.7316819805
H    1.0       21.0274502587       21.7954010606       19.9602009151
O    8.0       22.6348375841       23.0482952541       19.4797179317
C    6.0       20.4584398933       23.1931188045       18.4339014147
H    1.0       19.3849035775       23.0299073979       18.5939815344
H    1.0       20.7819146254       22.5034688111       17.6427121663
O    8.0       20.6984561863       24.5475848519       18.0410345796
H    1.0       21.6754882480       24.6475417770       17.9969593459
C    6.0       24.8407372464       17.7776599062       22.2110925563
H    1.0       25.4927238949       16.9710088892       22.5694617171
O    8.0       23.6023135140       17.2605101440       21.6809584870
C    6.0       24.5264208517       18.7609689506       23.3692019778
H    1.0       25.4826113944       19.1748232780       23.7144627170
O    8.0       23.9026974856       18.0561436904       24.4564636446
H    1.0       23.3313213007       18.6955867081       24.9559665139
C    6.0       23.6552360893       19.9446916440       22.8748709971
H    1.0       22.6553331980       19.5576635918       22.6438583323
O    8.0       23.5743677430       20.9481457755       23.8952812304
H    1.0       23.0004648900       20.5818792729       24.6168744084
C    6.0       24.2376497757       20.5904742163       21.5891079949
H    1.0       25.0971477414       21.2136576044       21.8693979907
C    6.0       24.6772318100       19.5417470550       20.5314606889
H    1.0       23.7744125110       19.0871568791       20.1024919923
O    8.0       25.4917794645       18.5222607399       21.1604773641
C    6.0       25.4916034032       20.1441347488       19.3650572712
H    1.0       24.8526630464       20.8392930943       18.8043239052
H    1.0       25.7743844315       19.3350488225       18.6783063586
O    8.0       26.6581557223       20.8209805381       19.8421155499
H    1.0       27.1650058246       20.1595706195       20.3637518952
C    6.0       21.4572120739       13.7323767384       21.3164844315
H    1.0       21.1197141912       12.7018594469       21.1506519504
O    8.0       20.3518291508       14.6391736527       21.5008184919
C    6.0       22.3636117767       13.8019064593       22.5697384124
H    1.0       23.2333106196       13.1585875359       22.3828774386
O    8.0       21.6736565751       13.3361966627       23.7377171337
H    1.0       22.2704676250       13.5679132590       24.4847217563
C    6.0       22.8771452050       15.2414832866       22.8022343598
H    1.0       22.0160036758       15.8676492245       23.0722058841
O    8.0       23.8242174153       15.2297943715       23.8766356480