$$$$
! Edit this basic GAMESS input file as needed.
! Conformer was generated by a VeraChem VCPack run 
! and contains    151 atoms.
!
 $contrl scftyp=rhf runtyp=optimize nzvar=0
  maxit=200 icharg=0 $end
 $system mwords=50 $end
 $basis gbasis=pm3 $end
 $statpt nstep=200 $end
 $guess guess=huckel $end
 $data
VM2 Rank=1      G=580.659           E=379.028           -TS=201.631             
C1
C    6.0       16.2009013048       15.1251739547       21.5128652226
H    1.0       15.1114406352       15.0095386714       21.4489758227
O    8.0       16.6111093448       16.4815640662       21.2424825148
C    6.0       16.6993126632       14.7153755768       22.9209290558
H    1.0       16.4592733737       13.6534569656       23.0615289376
O    8.0       16.0580392096       15.4835105306       23.9480135068
H    1.0       16.5889556075       15.3046778463       24.7562497114
C    6.0       18.2321409356       14.8745972120       23.0171821634
H    1.0       18.4566514353       15.9435084536       22.9369166421
O    8.0       18.6998676474       14.3655253772       24.2724506280
H    1.0       19.6862538700       14.3304935067       24.2148913185
C    6.0       18.9568671894       14.1455920305       21.8604841369
H    1.0       18.9540574542       13.0688413881       22.0756010123
C    6.0       18.3037927772       14.4094093375       20.4734162990
H    1.0       18.5586678566       15.4318761060       20.1654374910
O    8.0       16.8611601245       14.2684578134       20.5570308401
C    6.0       18.7977426860       13.4472454178       19.3702700971
H    1.0       19.8737943291       13.5959442108       19.2154661336
H    1.0       18.2950942524       13.7036293513       18.4281319568
O    8.0       18.5322442649       12.0852132994       19.7185113281
H    1.0       17.5640227182       12.0271628351       19.8789607105
C    6.0       15.0122022910       20.2181381323       20.3616474040
H    1.0       14.4169218219       21.0455816285       19.9541299596
O    8.0       16.1893529087       20.6955812395       21.0438164052
C    6.0       14.1752764629       19.3858113603       21.3675408017
H    1.0       13.2950632146       19.0098180002       20.8307324945
O    8.0       13.7400482550       20.2220408149       22.4529495202
H    1.0       14.5402921733       20.6765185857       22.8169900112
C    6.0       14.9787897536       18.1575349262       21.8782573792
H    1.0       15.7925789980       18.5285743958       22.5136375335
O    8.0       14.1326540018       17.2866805498       22.6386280355
H    1.0       14.7353893690       16.6940370343       23.1520701703
C    6.0       15.6074309589       17.3608655969       20.7010610534
H    1.0       14.8230155084       16.8010691763       20.1741721637
C    6.0       16.3270978857       18.2755320774       19.6779621862
H    1.0       17.2418309190       18.6781163758       20.1331894739
O    8.0       15.4330086215       19.3454937178       19.2938758824
C    6.0       16.7133047382       17.5147770119       18.3922278402
H    1.0       15.8010058143       17.1709725417       17.8865894918
H    1.0       17.3013552510       16.6269871019       18.6568044018
O    8.0       17.4745468152       18.3640098001       17.5314945372
H    1.0       16.9405925053       19.1807270656       17.4152615394
C    6.0       18.3222927622       24.1700041555       21.7665538178
H    1.0       18.6741254220       25.2010842776       21.8970675585
O    8.0       19.4067282744       23.2207112984       21.8109647865
C    6.0       17.3081120747       23.7927085178       22.8778427410
H    1.0       16.4457585981       24.4659228670       22.7843838324
O    8.0       17.8873506935       23.9345076131       24.1872427610
H    1.0       17.9373109628       24.8941595783       24.3839929458
C    6.0       16.8071110720       22.3437332157       22.6721147611
H    1.0       17.6589982582       21.6716163832       22.8267055772
O    8.0       15.7785847978       22.0556650147       23.6247882549
H    1.0       16.1454538767       22.3524141280       24.4868361811
C    6.0       16.2741795425       22.1213478067       21.2356484880
H    1.0       15.2907199809       22.6036522663       21.1573907723
C    6.0       17.2334082899       22.6853985031       20.1486908671
H    1.0       18.1145707695       22.0322033157       20.0923526080
O    8.0       17.6461751654       24.0296410595       20.4992505241
C    6.0       16.6032847666       22.7462156411       18.7391610829
H    1.0       16.3908312023       21.7257771637       18.3954246877
H    1.0       17.3357029712       23.1773969120       18.0436927895
O    8.0       15.4037851745       23.5258500859       18.7422069998
H    1.0       15.6546838736       24.4146238484       19.0791947300
C    6.0       23.5049237684       22.7644754623       21.7674937041
H    1.0       24.5955033499       22.8856888182       21.7785447540
O    8.0       23.1229926732       21.4111921451       21.4464937279
C    6.0       22.9116910266       23.1430718553       23.1471333859
H    1.0       23.1466700391       24.2012524063       23.3212528729
O    8.0       23.4870568022       22.3583553375       24.2010693062
H    1.0       23.0245608442       22.6684691240       25.0130722195
C    6.0       21.3723222543       22.9954580132       23.1428004713
H    1.0       21.1267790236       21.9323513979       23.0345055397
O    8.0       20.8355953874       23.4906390197       24.3749384331
H    1.0       19.8532211117       23.4143669533       24.3055794723
C    6.0       20.7360762669       23.7549419546       21.9524874579
H    1.0       20.7316163542       24.8283917417       22.1830191572
C    6.0       21.4783063307       23.5076947045       20.6087705215
H    1.0       21.2443188086       22.4902947684       20.2696034205
O    8.0       22.9107392803       23.6435045665       20.7895511096
C    6.0       21.0547273053       24.4869292714       19.4916570903
H    1.0       19.9865829875       24.3504282663       19.2785766964
H    1.0       21.6059751082       24.2361379117       18.5754571001
O    8.0       21.3130189695       25.8422110317       19.8706059304
H    1.0       22.2708211117       25.8872083414       20.0880717669
C    6.0       24.8517186564       17.6824835743       20.7518485848
H    1.0       25.4894744506       16.8632568357       20.3958819319
O    8.0       23.6801969888       17.1838534926       21.4299932362
C    6.0       25.6427848108       18.5921676774       21.7292768559
H    1.0       26.5272883846       18.9585276053       21.1922563217
O    8.0       26.0611784645       17.8568334331       22.8884406524
H    1.0       26.4100799219       18.5383297808       23.5053067619
C    6.0       24.8095519040       19.8217343229       22.1676539454
H    1.0       24.0018125045       19.4567858614       22.8083626247
O    8.0       25.6352021589       20.7194427352       22.9195632529
H    1.0       25.0190168074       21.3139713814       23.4128397506
C    6.0       24.1705087726       20.5519324908       20.9540945971
H    1.0       24.9392115895       21.1227750803       20.4163111832
C    6.0       23.4981190586       19.5629120604       19.9659443958
H    1.0       22.5969746983       19.1507999982       20.4398464612
O    8.0       24.4200200724       18.4954874821       19.6415432030
C    6.0       23.0749427658       20.2289190302       18.6375326316
H    1.0       22.3640000954       21.0374645162       18.8500417552
H    1.0       22.5526776659       19.4848845665       18.0214329911
O    8.0       24.2100466498       20.7435324278       17.9353192209
H    1.0       24.8444707776       19.9960044050       17.8620346612
C    6.0       21.3699661034       13.7394956626       21.7389451388
H    1.0       21.0034680534       12.7055165470       21.7646919137
O    8.0       20.2908796645       14.6913293681       21.8332652138
C    6.0       22.3491202825       13.9910186493       22.9139502024
H    1.0       23.1762801321       13.2763500242       22.8137264670
O    8.0       21.7004619723       13.7956639477       24.1789697363
H    1.0       22.3482564813       14.1208652230       24.8435545632
C    6.0       22.9386500347       15.4187758311       22.8479202044
H    1.0       22.1235250386       16.1193036811       23.0588590691
O    8.0       23.9755948729       15.5657229455       23.8256034272
H    1.0       24.4396230528       16.4108372035       23.6137955921
C    6.0       23.5100281321       15.7514340024       21.4485357660
H    1.0       24.4686458827       15.2274153054       21.3375240680
C    6.0       22.5444925083       15.3419839818       20.2990023076
H    1.0       21.6878793261       16.0291721544       20.2998237042
O    8.0       22.0848717787       13.9844123331       20.5099081013
C    6.0       23.1868419226       15.3823442359       18.8938509152
H    1.0       23.4285632143       16.4192768764       18.6325330054
H    1.0       22.4490342795       15.0301293262       18.1606362036
O    8.0       24.3634689068       14.5701341993       18.8392753508
H    1.0       24.0835620592       13.6643941411       19.0992380363
C    6.0       18.2404282758       19.3708723590       24.2232071398
H    1.0       18.6657453238       20.3161343284       24.5786594071
H    1.0       17.1894126531       19.6069450049       24.0128113435
C    6.0       18.8923881857       18.9471295114       22.8814495546
H    1.0       18.1747532403       18.3120639460       22.3497625315
H    1.0       19.0289131806       19.8340536033       22.2485299072
C    6.0       20.2237714751       18.1635209644       22.9625186831
H    1.0       20.4818699473       17.8384413444       21.9456582699
H    1.0       20.0899724549       17.2364789418       23.5275651573
C    6.0       21.4335739391       18.9421586837       23.5260687941
H    1.0       22.3055151215       18.2852561568       23.4459100965
H    1.0       21.6337760043       19.7985483585       22.8758129165
C    6.0       21.3528942013       19.4239963872       24.9926068628
H    1.0       20.7136489821       20.3126323410       25.0531155793
C    6.0       20.8341123725       18.3526763834       25.9864886555
H    1.0       20.9898433682       17.3433163143       25.5869650779
H    1.0       21.4493284987       18.3978097850       26.8950236571
C    6.0       19.3584537293       18.5393572391       26.4300058511
H    1.0       19.2342560929       19.5424448162       26.8601712139
H    1.0       19.1660873221       17.8382964581       27.2532492278
C    6.0       18.2708660827       18.3061200460       25.3490644141
H    1.0       17.2981945779       18.3372176208       25.8584126308
H    1.0       18.3426643203       17.2925273032       24.9368511267
O    8.0       22.6687616317       19.7996532328       25.3836684361
H    1.0       22.9395066004       20.5463339846       24.8048258641
 $end
$$$$
! Edit this basic GAMESS input file as needed.
! Conformer was generated by a VeraChem VCPack run 
! and contains    151 atoms.
!
 $contrl scftyp=rhf runtyp=optimize nzvar=0
  maxit=200 icharg=0 $end
 $system mwords=50 $end
 $basis gbasis=pm3 $end
 $statpt nstep=200 $end
 $guess guess=huckel $end
 $data
VM2 Rank=2      G=580.666           E=378.231           -TS=202.434             
C1
C    6.0       16.2281452406       15.1063084316       21.6810572582
H    1.0       15.1491964732       14.9114081395       21.7200389621
O    8.0       16.5179726968       16.5184159085       21.6953951685
C    6.0       16.9264662974       14.4497058796       22.8977072133
H    1.0       16.7152066702       13.3733895068       22.8533324437
O    8.0       16.4266406552       14.9773687029       24.1344540009
H    1.0       17.0303747400       14.6121894615       24.8193485286
C    6.0       18.4596620910       14.6347034035       22.8314191764
H    1.0       18.6857915451       15.6984104142       22.9782285454
O    8.0       19.0728568785       13.8492253304       23.8609562159
H    1.0       20.0461030117       13.8749139206       23.6972178977
C    6.0       19.0287281535       14.2165488270       21.4559202943
H    1.0       19.0377498348       13.1198200325       21.4038656533
C    6.0       18.2073403231       14.7953473450       20.2712463209
H    1.0       18.3839987489       15.8784029521       20.2202235789
O    8.0       16.7975885061       14.5369535962       20.4830254730
C    6.0       18.5895393227       14.1859036744       18.9038723744
H    1.0       19.6285643082       14.4502289433       18.6689489996
H    1.0       17.9557412744       14.6355160569       18.1279315440
O    8.0       18.4310851239       12.7639159678       18.9107059309
H    1.0       17.4954138415       12.5943728790       19.1603279200
C    6.0       14.8019363649       20.2694960286       21.2710373611
H    1.0       14.1027076157       21.1052124274       21.1420899035
O    8.0       16.1745165707       20.7174803039       21.2528038350
C    6.0       14.5137381229       19.5625853367       22.6189537933
H    1.0       13.4704608547       19.2219649871       22.5940649808
O    8.0       14.6916495497       20.4633614137       23.7211490942
H    1.0       14.6449482913       19.8913925656       24.5194753133
C    6.0       15.4136702409       18.3216382830       22.8048307126
H    1.0       16.4397624149       18.6761550028       22.9398924698
O    8.0       14.9942230723       17.5901727611       23.9629847052
H    1.0       15.5503675882       16.7725929707       24.0035024837
C    6.0       15.3851214044       17.3983723845       21.5636808958
H    1.0       14.4320327783       16.8534101283       21.5530068241
C    6.0       15.5455332541       18.1802326826       20.2322522772
H    1.0       16.5816508636       18.5368102134       20.1587412854
O    8.0       14.6318176686       19.3048020388       20.2124363219
C    6.0       15.2474028499       17.3222182882       18.9827340747
H    1.0       15.9570510361       16.4862344039       18.9408416768
H    1.0       15.4108951692       17.9358573994       18.0868457769
O    8.0       13.9043768661       16.8296513818       19.0062241618
H    1.0       13.3272744349       17.6193265962       19.1063905277
C    6.0       18.5471736599       23.9989841509       20.3865640065
H    1.0       18.9868549893       24.9428161672       20.0397217252
O    8.0       19.5612123777       23.0921277129       20.8649835918
C    6.0       17.4787227352       24.2495456670       21.4881299876
H    1.0       16.6774010143       24.8446101163       21.0318432873
O    8.0       18.0292376678       24.9873374009       22.5899647342
H    1.0       18.6118499454       24.3596567693       23.0855133727
C    6.0       16.8629539050       22.9055385095       21.9571231884
H    1.0       17.6512410511       22.3435574204       22.4701586644
O    8.0       15.7624836020       23.1272901903       22.8483603860
H    1.0       15.4739910664       22.2385964283       23.1722912355
C    6.0       16.3691746804       22.0591177170       20.7564961070
H    1.0       15.4358477395       22.4989946907       20.3806760867
C    6.0       17.3870308928       21.9983069705       19.5854818557
H    1.0       18.2194511114       21.3430861197       19.8754207868
O    8.0       17.8798386032       23.3323990139       19.2945175209
C    6.0       16.7752110447       21.4348309274       18.2836483476
H    1.0       16.4083356480       20.4173766972       18.4691212036
H    1.0       17.5656192185       21.3658548821       17.5244886119
O    8.0       15.7089328373       22.2652964706       17.8139817807
H    1.0       16.0823220171       23.1720220356       17.7428987445
C    6.0       23.3687657062       22.6963145502       22.3465607284
H    1.0       24.3708171035       22.8055882148       22.7810384122
O    8.0       23.1893258621       21.4013839565       21.7396688294
C    6.0       22.2872065198       22.8938258668       23.4375425077
H    1.0       22.4064068122       23.9126408977       23.8285125146
O    8.0       22.4439668340       21.9562590403       24.5153398604
H    1.0       23.2865587771       21.4665816041       24.3547222055
C    6.0       20.8682894944       22.7746153931       22.8370818385
H    1.0       20.7107439458       21.7248279225       22.5516973578
O    8.0       19.9171197082       23.1581870851       23.8358825325
H    1.0       20.1983445733       22.6705953408       24.6418044357
C    6.0       20.6884337965       23.6479948267       21.5682416326
H    1.0       20.5167190658       24.6885437263       21.8724250481
C    6.0       21.9023875644       23.5755412248       20.5988947181
H    1.0       21.8727688927       22.6043416188       20.0878923333
O    8.0       23.1455568454       23.6994166182       21.3338360538
C    6.0       21.8866847467       24.6707787571       19.5095445559
H    1.0       21.0099482087       24.5224532134       18.8654601844
H    1.0       22.7782549051       24.5531266412       18.8790012569
O    8.0       21.8579608555       25.9783479327       20.0887734719
H    1.0       22.6440624063       26.0361752360       20.6764809826
C    6.0       25.1163759953       17.7518280280       21.3753703095
H    1.0       25.8371606853       16.9389111631       21.2209892099
O    8.0       23.7710563263       17.2552555897       21.5184421259
C    6.0       25.4763499466       18.5384515512       22.6593429998
H    1.0       26.4863016984       18.9462288707       22.5222982355
O    8.0       25.4689184086       17.6727880882       23.8059894285
H    1.0       24.8532013508       16.9246785466       23.6032746921
C    6.0       24.5091917477       19.7270607178       22.8740982991
H    1.0       23.5177640416       19.3195777550       23.1015113515
O    8.0       24.9714696536       20.5105308943       23.9791261952
H    1.0       25.2516236698       19.8500576842       24.6531661413
C    6.0       24.3760935525       20.5985901387       21.5972849545
H    1.0       25.2729521491       21.2201099562       21.4736810300
C    6.0       24.1722501844       19.7447444392       20.3170402283
H    1.0       23.1578440529       19.3239414062       20.3387933563
O    8.0       25.1483624201       18.6750227734       20.2686505058
C    6.0       24.3176755599       20.5660333046       19.0165432107
H    1.0       23.5786336625       21.3776307832       19.0187782316
H    1.0       24.0907886212       19.9155810420       18.1613794687
O    8.0       25.6378828233       21.1027055150       18.8925368053
H    1.0       26.2503225343       20.3391019376       18.9863058226
C    6.0       21.3956394776       13.8979886350       20.9123833956
H    1.0       21.0004859176       12.9146619218       20.6271866558
O    8.0       20.3551806296       14.7735814762       21.3890640099
C    6.0       22.4638530623       13.7583380158       22.0306572851
H    1.0       23.2758376024       13.1319030777       21.6385272598
O    8.0       21.9123362897       13.1470406516       23.2104603552
H    1.0       21.7656774537       12.1982112167       23.0103536472
C    6.0       23.0564240057       15.1427983754       22.3842754109
H    1.0       22.2560223182       15.7412134728       22.8334209922
O    8.0       24.1263647126       14.9869191598       23.3217629588
H    1.0       23.7731726328       14.3753428469       24.0056640967
C    6.0       23.5581743644       15.8862206693       21.1233733585
H    1.0       24.4817311867       15.4068646188       20.7731482956
C    6.0       22.5095163062       15.8744698118       19.9783801448
H    1.0       21.6763268783       16.5334311338       20.2570922958
O    8.0       22.0249453678       14.5239483812       19.7750616165
C    6.0       23.0768501639       16.3639990337       18.6274854901
H    1.0       23.4225988838       17.3994437468       18.7337575697
H    1.0       22.2677278947       16.3634016499       17.8850901122
O    8.0       24.1514078091       15.5278367979       18.1882060172
H    1.0       23.7970303246       14.6108472090       18.1831915850
C    6.0       19.2764825952       17.0484988689       25.7145108844
H    1.0       18.5182973074       16.8104088897       24.9620530191
H    1.0       19.1267727542       16.2951362633       26.4996046854
C    6.0       20.7045282593       16.8390122905       25.1486302682
H    1.0       21.3768539890       16.6606410452       25.9985703663
H    1.0       20.7226099746       15.9128125708       24.5622223236
C    6.0       21.3175769030       17.9892327034       24.3116221723
H    1.0       22.3508601983       17.7004699303       24.0835369150
H    1.0       21.4145297667       18.8946177031       24.9217430367
C    6.0       20.6149108257       18.3161915505       22.9666654683
H    1.0       21.2202474507       19.0713990863       22.4482870160
H    1.0       20.6298623511       17.4270919184       22.3253896533
C    6.0       19.1597691399       18.8367036104       23.0396868653
H    1.0       18.4924057401       17.9862406621       23.2154770255
C    6.0       18.9139216614       19.9077399319       24.1340212030
H    1.0       19.8532856383       20.4007493100       24.4069574212
H    1.0       18.2838787055       20.7001510887       23.7172786643
C    6.0       18.1935273163       19.3974230039       25.4090877479
H    1.0       17.2470006492       18.9160897723       25.1324458859
H    1.0       17.9122746914       20.2755245818       26.0059227431
C    6.0       19.0046667701       18.4459767661       26.3245578872
H    1.0       18.4160989976       18.2999679961       27.2403316859
H    1.0       19.9369858297       18.9228623361       26.6530408768
O    8.0       18.8384834245       19.3978021587       21.7685739906
H    1.0       17.9409854473       19.7865291905       21.8364248210
 $end
$$$$
! Edit this basic GAMESS input file as needed.
! Conformer was generated by a VeraChem VCPack run 
! and contains    151 atoms.
!
 $contrl scftyp=rhf runtyp=optimize nzvar=0
  maxit=200 icharg=0 $end
 $system mwords=50 $end
 $basis gbasis=pm3 $end
 $statpt nstep=200 $end
 $guess guess=huckel $end
 $data
VM2 Rank=3      G=580.774           E=377.847           -TS=202.928             
C1
C    6.0       16.6113467868       15.5994036670       20.5758415900
H    1.0       15.6203974991       15.4212610890       20.1393552181
O    8.0       16.7624293158       16.9727892904       20.9902348675
C    6.0       16.8161452753       14.6462474929       21.7844352904
H    1.0       16.6899063831       13.6217960368       21.4106725777
O    8.0       15.8488560857       14.8858540997       22.8148537724
H    1.0       16.1784176617       14.3723284201       23.5863664428
C    6.0       18.2427725485       14.7567530858       22.3652090240
H    1.0       18.3494052156       15.7526640803       22.8095415288
O    8.0       18.4292416662       13.7508612052       23.3694054205
H    1.0       19.3079654414       13.9241797997       23.7901644921
C    6.0       19.2993531153       14.6049959364       21.2431165771
H    1.0       19.2887756392       13.5715898690       20.8710973996
C    6.0       19.0028693581       15.5532000612       20.0512849685
H    1.0       19.1319627124       16.5914131481       20.3857112678
O    8.0       17.6413383265       15.3345031664       19.6008480983
C    6.0       19.9261488510       15.3186739770       18.8346806858
H    1.0       20.9662352390       15.5004164763       19.1285315517
H    1.0       19.6734214500       16.0495631163       18.0549437923
O    8.0       19.7851142485       13.9883815731       18.3289204384
H    1.0       18.8251120284       13.8621318823       18.1595820318
C    6.0       14.6268012826       20.5656174576       20.8581778350
H    1.0       13.9330495624       21.3768170962       20.6044002756
O    8.0       15.5447813658       20.9672576147       21.8928346440
C    6.0       13.8287030252       19.3258136157       21.3367463851
H    1.0       13.1969337098       19.0049093986       20.4983003335
O    8.0       12.9882404590       19.6325470357       22.4558231712
H    1.0       12.7289328343       18.7561306344       22.8185199470
C    6.0       14.7752547129       18.1543895376       21.6841476929
H    1.0       15.3710730633       18.4377016788       22.5629251113
O    8.0       13.9941097363       16.9888470800       21.9753487617
H    1.0       14.6249166991       16.3095171400       22.3230121984
C    6.0       15.7403023125       17.8677600831       20.5051774975
H    1.0       15.1716510510       17.4224998839       19.6777247905
C    6.0       16.4241666967       19.1549039654       19.9708864246
H    1.0       17.1405359187       19.5241012343       20.7119784877
O    8.0       15.4039306073       20.1534305540       19.7083199273
C    6.0       17.1923969432       18.9062923495       18.6567651576
H    1.0       16.4876507553       18.5918905819       17.8754488826
H    1.0       17.9092588250       18.0889003869       18.8078915723
O    8.0       17.8851078664       20.0931207049       18.2635482511
H    1.0       17.1959525640       20.7818943281       18.1512647332
C    6.0       18.3011297836       24.0476427234       22.1132508470
H    1.0       18.8522415718       24.9903138415       22.2231607873
O    8.0       19.1711653369       22.9616601834       21.7268015407
C    6.0       17.5840680403       23.7010053713       23.4374539736
H    1.0       16.8616808845       24.5006680808       23.6465913758
O    8.0       18.5148951877       23.6048462617       24.5242720531
H    1.0       18.0014040957       23.1841328024       25.2501667733
C    6.0       16.8058972442       22.3793432196       23.2896297296
H    1.0       17.5494641306       21.5912115895       23.1397157940
O    8.0       16.0713683790       22.1111512004       24.4886871195
H    1.0       15.8924634005       21.1393943018       24.4734320546
C    6.0       15.8607902884       22.3705322725       22.0570374092
H    1.0       14.9566514631       22.9423986236       22.3016871224
C    6.0       16.5403156413       22.9718739424       20.7770707480
H    1.0       17.2265283006       22.2206206254       20.3657504154
O    8.0       17.2785736554       24.1756064867       21.1106518927
C    6.0       15.5683043940       23.4127319941       19.6536582494
H    1.0       15.1120860943       22.5415161256       19.1734984498
H    1.0       16.1501514141       23.9255473085       18.8756521652
O    8.0       14.5530235271       24.2850431600       20.1573018775
H    1.0       15.0219170895       25.0542540504       20.5507789265
C    6.0       23.2100842933       22.3320710126       20.8330835097
H    1.0       24.2411443480       22.4792119987       20.4871448375
O    8.0       22.9810523606       20.9655945840       21.2375710123
C    6.0       22.9236487301       23.2865781079       22.0212431796
H    1.0       23.0867114128       24.3107125624       21.6610352520
O    8.0       23.8057821015       23.0339282908       23.1230176170
H    1.0       23.4234774389       23.5508152782       23.8677768218
C    6.0       21.4548785336       23.1812531176       22.4862296224
H    1.0       21.3078517692       22.1805244470       22.9112538148
O    8.0       21.2019602685       24.1775454291       23.4846971561
H    1.0       20.3182733443       23.9655257543       23.8767728454
C    6.0       20.4862568599       23.3536094148       21.2875452673
H    1.0       20.5033203979       24.3980321493       20.9482743199
C    6.0       20.8779814871       22.4426302919       20.0937261895
H    1.0       20.6975990677       21.3976521318       20.3758345143
O    8.0       22.2788955944       22.6392032857       19.7749105271
C    6.0       20.0670939867       22.7381643556       18.8124967642
H    1.0       19.0003945972       22.5886368774       19.0190586532
H    1.0       20.3549643388       22.0142035465       18.0381791282
O    8.0       20.2970011233       24.0741298955       18.3549501552
H    1.0       21.2717911733       24.1649714974       18.2662038055
C    6.0       25.1185322756       17.3351253008       21.2340751950
H    1.0       25.8414593811       16.5535009077       20.9689699908
O    8.0       24.2050347296       16.8653242887       22.2442371355
C    6.0       25.8788397313       18.5855516682       21.7509579984
H    1.0       26.5520379828       18.9063511022       20.9452556039
O    8.0       26.6610034992       18.2855674005       22.9137329172
H    1.0       26.9438965354       19.1629620471       23.2563881082
C    6.0       24.9176798313       19.7594100855       22.0482039731
H    1.0       24.2844271521       19.4785556865       22.9009617490
O    8.0       25.6871477816       20.9247195484       22.3694748015
H    1.0       25.0438521096       21.6133924703       22.6727532808
C    6.0       24.0032177519       20.0348954973       20.8275323891
H    1.0       24.6065064563       20.4372163669       20.0025460385
C    6.0       23.3151431210       18.7360886063       20.3357901386
H    1.0       22.6197684300       18.3868831189       21.1105214387
O    8.0       24.3357549133       17.7362379529       20.0852956593
C    6.0       22.5189441706       18.9242714824       19.0250124819
H    1.0       21.7385608035       19.6803055256       19.1803195030
H    1.0       22.0167259391       17.9795803047       18.7786381720
O    8.0       23.3807676560       19.3190082991       17.9542186750
H    1.0       24.1149062128       18.6659176840       17.9412617530
C    6.0       21.4162297439       13.8215848483       22.1358211830
H    1.0       20.8416155297       12.8868047331       22.1586505076
O    8.0       20.5815744290       14.9535539607       21.8032419994
C    6.0       22.0981061220       14.0410897224       23.5030896095
H    1.0       22.7959934915       13.2086421306       23.6617119242
O    8.0       21.1350305277       14.0558890882       24.5638328527
H    1.0       21.6311428633       14.3898360701       25.3438479058
C    6.0       22.9137704767       15.3494331318       23.4954951095
H    1.0       22.1988337547       16.1781845264       23.4253522263
O    8.0       23.6590418573       15.4604867996       24.7126736753