$$$$
! Edit this basic GAMESS input file as needed.
! Conformer was generated by a VeraChem VCPack run 
! and contains    148 atoms.
!
 $contrl scftyp=rhf runtyp=optimize nzvar=0
  maxit=200 icharg=0 $end
 $system mwords=50 $end
 $basis gbasis=pm3 $end
 $statpt nstep=200 $end
 $guess guess=huckel $end
 $data
VM2 Rank=1      G=566.048           E=371.171           -TS=194.878             
C1
C    6.0       16.2194169174       15.1817804883       21.6062456645
H    1.0       15.1376322880       14.9965195367       21.5993069882
O    8.0       16.5226937394       16.5766482194       21.4103499029
C    6.0       16.8307192611       14.7250626835       22.9559440090
H    1.0       16.6448654386       13.6474497344       23.0519409810
O    8.0       16.2239896860       15.4049672906       24.0659581866
H    1.0       15.6914362402       16.1523945180       23.6968165339
C    6.0       18.3599074941       14.9467502458       22.9638975427
H    1.0       18.5390559782       16.0265026065       22.9247415385
O    8.0       18.9135019162       14.4017022701       24.1649413940
H    1.0       18.3133995365       14.7137122522       24.8788329888
C    6.0       19.0301686840       14.2974635626       21.7301491454
H    1.0       19.0156811101       13.2085320431       21.8698230469
C    6.0       18.2980228747       14.6615431243       20.4084343712
H    1.0       18.4873018685       15.7207084971       20.1877189492
O    8.0       16.8716102230       14.4351311324       20.5561011971
C    6.0       18.7746627892       13.8311367288       19.1961844715
H    1.0       19.8334975483       14.0476692115       19.0047071672
H    1.0       18.2110200511       14.1481910976       18.3085726394
O    8.0       18.5899982995       12.4310854939       19.4267344876
H    1.0       17.6353616954       12.3114181135       19.6286700323
C    6.0       14.7324349570       20.2678609272       20.6937640008
H    1.0       14.0575427722       21.0742872002       20.3807524044
O    8.0       15.9842462288       20.7789960708       21.1897990661
C    6.0       14.0804923756       19.4334324661       21.8244949789
H    1.0       13.1396369046       19.0262627303       21.4320074037
O    8.0       13.7981078846       20.2591502479       22.9660264435
H    1.0       14.5486965815       20.8984822050       23.0603542515
C    6.0       14.9820179315       18.2416853078       22.2301133644
H    1.0       15.8794995420       18.6466426239       22.7142964404
O    8.0       14.2727078014       17.4081702912       23.1508511158
H    1.0       13.8456544731       18.0322985988       23.7801290790
C    6.0       15.4288136917       17.4174817645       20.9946405544
H    1.0       14.5807432827       16.8294405885       20.6194694618
C    6.0       15.9574011885       18.3212895902       19.8492440264
H    1.0       16.9231347486       18.7464877824       20.1529966508
O    8.0       15.0071292590       19.3840705282       19.5875655627
C    6.0       16.1723167504       17.5533625835       18.5261974061
H    1.0       16.8951282659       16.7442375882       18.6928844744
H    1.0       16.6094342144       18.2390786129       17.7881027279
O    8.0       14.9389973079       17.0187553194       18.0363510356
H    1.0       14.3125791690       17.7754402623       17.9968031408
C    6.0       18.3949963240       24.1532757276       21.2779876236
H    1.0       18.8246985112       25.1605233310       21.2003893271
O    8.0       19.4010028422       23.1616841482       21.5623473643
C    6.0       17.3219909989       24.0885161309       22.3940520283
H    1.0       16.5267222922       24.7975249535       22.1298681441
O    8.0       17.8741001505       24.4517843016       23.6696593490
H    1.0       18.6837150344       23.8983942789       23.8126858130
C    6.0       16.7026962837       22.6720731834       22.4572705596
H    1.0       17.4901013554       21.9850673299       22.7878598193
O    8.0       15.6191040586       22.6576558134       23.3922781895
H    1.0       15.9546228550       23.1391811208       24.1808676386
C    6.0       16.2052872448       22.1978360704       21.0683760751
H    1.0       15.2827982040       22.7408924119       20.8239866784
C    6.0       17.2596659113       22.4309342142       19.9506197895
H    1.0       18.0827635417       21.7153954246       20.0816755104
O    8.0       17.7522215008       23.7919596000       20.0377994493
C    6.0       16.6801086577       22.2501431359       18.5318950609
H    1.0       15.8605988087       22.9652810257       18.3803162433
H    1.0       16.2673293769       21.2395273749       18.4297581155
O    8.0       17.7065327960       22.4502500099       17.5581462538
H    1.0       18.1321774305       23.3061681222       17.7884920533
C    6.0       23.4480760019       22.6490443783       22.1192951634
H    1.0       24.5238957031       22.7471658695       22.3109548034
O    8.0       23.1179583382       21.3546814767       21.5757244231
C    6.0       22.6498185436       22.8449240712       23.4317624293
H    1.0       22.8677670520       23.8567258057       23.7975871483
O    8.0       23.0483134134       21.8856966020       24.4252043679
H    1.0       23.9068997367       21.5018659625       24.1273800900
C    6.0       21.1289824061       22.7426790361       23.1642870328
H    1.0       20.9058465464       21.7057113775       22.8899675215
O    8.0       20.4114333372       23.0879619210       24.3529391270
H    1.0       20.8635325338       22.5888377441       25.0694181315
C    6.0       20.6834134177       23.6540395809       21.9931043561
H    1.0       20.6255702988       24.6874235310       22.3602593397
C    6.0       21.6333985507       23.5731381957       20.7643182125
H    1.0       21.4650429069       22.6101615230       20.2654948413
O    8.0       23.0146941412       23.6629244405       21.1893924616
C    6.0       21.3902197927       24.6864458682       19.7209855280
H    1.0       20.3893990115       24.5600558593       19.2878410672
H    1.0       22.1153215043       24.5687437638       18.9044487828
O    8.0       21.5122412307       25.9841945931       20.3106189654
H    1.0       22.4168456763       26.0287433307       20.6930870489
C    6.0       25.0028414513       17.7364208552       20.7645674548
H    1.0       25.6670909921       16.9404885253       20.4039729406
O    8.0       23.8124529909       17.2044123787       21.3731443207
C    6.0       25.7172557642       18.6002307780       21.8345079320
H    1.0       26.6200552105       19.0199124554       21.3721589336
O    8.0       26.0890937422       17.7900791120       22.9620670800
H    1.0       25.3224680123       17.1939400391       23.1539421554
C    6.0       24.8218825077       19.7781069459       22.2981915887
H    1.0       23.9897044779       19.3559492180       22.8693933924
O    8.0       25.5818538489       20.6388365031       23.1537251021
H    1.0       26.0956049725       20.0311740687       23.7326016103
C    6.0       24.2248400627       20.5659124418       21.0969999585
H    1.0       24.9998115122       21.1990768620       20.6450230638
C    6.0       23.6449297667       19.6230524773       20.0085402586
H    1.0       22.7284676264       19.1581844873       20.3974903314
O    8.0       24.6164743687       18.6021826109       19.6786743864
C    6.0       23.2814817100       20.3568105375       18.6986179413
H    1.0       22.5245852445       21.1217981045       18.9124676833
H    1.0       22.8307972073       19.6344148727       18.0051250461
O    8.0       24.4368501192       20.9574619014       18.1060856655
H    1.0       25.1033776433       20.2393442315       18.0247759492
C    6.0       21.4187847888       13.8288395192       21.4875134219
H    1.0       21.0132730692       12.8097320121       21.4513936617
O    8.0       20.3765120560       14.8155635147       21.6583141383
C    6.0       22.4172567951       13.9673942158       22.6636894095
H    1.0       23.2287687651       13.2478048029       22.4946436469
O    8.0       21.7825263134       13.6746601659       23.9190107901
H    1.0       20.8742388718       14.0697398384       23.8965812722
C    6.0       23.0352911090       15.3843927579       22.6856451203
H    1.0       22.2335995870       16.0918212875       22.9196012024
O    8.0       24.0538266382       15.4553694492       23.6898481338
H    1.0       23.6599758252       15.0264873300       24.4815556814
C    6.0       23.6272205411       15.7780591260       21.3114139907
H    1.0       24.5796424692       15.2474998992       21.1820961305
C    6.0       22.6662299995       15.4541612760       20.1300134147
H    1.0       21.8397607203       16.1748820285       20.1411193405
O    8.0       22.1397671456       14.1121429520       20.2704575939
C    6.0       23.3390549537       15.5307043830       18.7411551552
H    1.0       23.6411360849       16.5653434459       18.5396141418
H    1.0       22.5990658749       15.2566406341       17.9774459304
O    8.0       24.4719601240       14.6598372627       18.6667654063
H    1.0       24.1391817019       13.7596704402       18.8796131802
C    6.0       18.3741258708       18.6041226106       25.1165913297
H    1.0       17.7934795167       18.9825407055       25.9685147865
H    1.0       17.8444613421       17.7079955149       24.7664727684
C    6.0       19.7757327383       18.2162017923       25.6302251865
H    1.0       20.2455032567       19.0880492425       26.1053896880
H    1.0       19.6571343254       17.4652661838       26.4228424109
C    6.0       20.7217565905       17.6462042581       24.5526074360
H    1.0       20.2680780633       16.7830105944       24.0577760916
H    1.0       21.6146028735       17.2637386097       25.0655241686
C    6.0       21.1817186010       18.6974865006       23.5161079027
H    1.0       21.3740911441       19.6501988296       24.0244446286
H    1.0       22.1490463777       18.3788420087       23.1195213475
C    6.0       20.2481976084       18.9380839800       22.3081128960
H    1.0       20.5991216458       19.8540208173       21.8137541934
C    6.0       18.7451066080       19.1241844319       22.6148007321
H    1.0       18.3480641867       19.8049551708       21.8533665858
H    1.0       18.2171196511       18.1786104242       22.4646898672
C    6.0       18.3748202946       19.6817731507       24.0097833041
H    1.0       19.0217646378       20.5261578039       24.2818521583
H    1.0       17.3550061462       20.0833209591       23.9521957158
O    8.0       20.3905203498       17.8631466280       21.3885859638
H    1.0       20.2638909016       17.0371250589       21.8968135872
 $end
