$$$$
! Edit this basic GAMESS input file as needed.
! Conformer was generated by a VeraChem VCPack run 
! and contains    146 atoms.
!
 $contrl scftyp=rhf runtyp=optimize nzvar=0
  maxit=200 icharg=0 $end
 $system mwords=50 $end
 $basis gbasis=pm3 $end
 $statpt nstep=200 $end
 $guess guess=huckel $end
 $data
VM2 Rank=1      G=525.148           E=332.547           -TS=192.602             
C1
C    6.0       16.1655028997       15.0935366082       20.9887679536
H    1.0       15.0835783220       14.9621568117       20.8580565625
O    8.0       16.5012723644       16.4530885757       21.3341334176
C    6.0       16.7097880154       14.1516919058       22.0932115329
H    1.0       16.5200868658       13.1202659061       21.7684642601
O    8.0       16.0608972429       14.3757830754       23.3509851107
H    1.0       16.5576431871       13.8153711917       23.9893217269
C    6.0       18.2373748710       14.3289441595       22.2539389758
H    1.0       18.4265745817       15.3384528642       22.6421865533
O    8.0       18.7381486539       13.3536462354       23.1754647013
H    1.0       19.7160763812       13.4861808040       23.2235974262
C    6.0       18.9657941799       14.1886809330       20.8944240665
H    1.0       18.9932517870       13.1255666043       20.6214388212
C    6.0       18.2830936232       14.9982796554       19.7571317585
H    1.0       18.4791543669       16.0654323467       19.9217058093
O    8.0       16.8534475667       14.7613288249       19.7641322225
C    6.0       18.8110110361       14.6308796181       18.3525206471
H    1.0       19.8831071623       14.8610377949       18.2990736488
H    1.0       18.3034178901       15.2596376064       17.6088990126
O    8.0       18.5889979555       13.2468607947       18.0658036411
H    1.0       17.6239122920       13.0960319572       18.1775923992
C    6.0       14.9168506780       20.1937360981       22.0048523977
H    1.0       14.2878551212       21.0681277059       22.2154464624
O    8.0       16.2404565531       20.5811695681       21.5782776849
C    6.0       15.0270285354       19.3109342348       23.2705410037
H    1.0       14.0119874366       18.9791743308       23.5254144797
O    8.0       15.5720408731       20.0441002778       24.3761343957
H    1.0       15.6960463260       19.3689508585       25.0792228950
C    6.0       15.8801419082       18.0539348404       22.9947539195
H    1.0       16.9142870182       18.3741143415       22.8259631828
O    8.0       15.8147996500       17.1855686225       24.1311662110
H    1.0       16.0500172227       16.2793261057       23.8147733380
C    6.0       15.4053216120       17.3008456357       21.7281035624
H    1.0       14.5057508399       16.7235648428       21.9810713550
C    6.0       15.1140812377       18.2489311122       20.5302326409
H    1.0       16.0753557376       18.5968438955       20.1304148095
O    8.0       14.3278705449       19.3878759761       20.9626278294
C    6.0       14.3508886710       17.5601283068       19.3770490918
H    1.0       14.9767451341       16.7601749469       18.9596697875
H    1.0       14.1823016610       18.2934131652       18.5770531316
O    8.0       13.1042648471       17.0248454662       19.8307215437
H    1.0       12.6043096221       17.7791319081       20.2151014318
C    6.0       18.4276639840       24.0648966857       20.8731048989
H    1.0       18.7345600401       25.0770990843       20.5811197077
O    8.0       19.5555513365       23.2413371505       21.2273457575
C    6.0       17.4737251720       24.1232256628       22.0934742019
H    1.0       16.6034373137       24.7260618003       21.8031118790
O    8.0       18.1147558799       24.7296579508       23.2249495610
H    1.0       17.4874870373       24.5897070201       23.9696500126
C    6.0       16.9723459686       22.7093590308       22.4720371375
H    1.0       17.8318039201       22.1362389821       22.8435507011
O    8.0       15.9802572295       22.8165487383       23.4999054299
H    1.0       15.8389234403       21.9018713961       23.8502222886
C    6.0       16.3966759832       21.9713254340       21.2340031568
H    1.0       15.4393694504       22.4262502613       20.9456038728
C    6.0       17.3546072069       22.0391231710       20.0172861940
H    1.0       18.2431924357       21.4276105773       20.2230940474
O    8.0       17.7249639943       23.4207560104       19.7895521916
C    6.0       16.6894745781       21.5206815538       18.7253712347
H    1.0       15.8332621414       22.1614197816       18.4752260028
H    1.0       16.3070419537       20.5064572085       18.8950810447
O    8.0       17.6379447225       21.5102571355       17.6568588069
H    1.0       17.9795533807       22.4287581449       17.5883219659
C    6.0       23.6414302948       22.8734246306       21.0535091422
H    1.0       24.7275811606       22.9678919935       20.9266617387
O    8.0       23.2519750746       21.5043005549       21.2915365468
C    6.0       23.1294356739       23.7764909754       22.2069117836
H    1.0       23.3284886178       24.8167931727       21.9177612318
O    8.0       23.7938707355       23.5042020212       23.4465522133
H    1.0       23.3339245735       24.0715533280       24.1064187744
C    6.0       21.6013409907       23.6170913331       22.3783293196
H    1.0       21.3984868605       22.5951292272       22.7260205817
O    8.0       21.1206360722       24.5617257165       23.3424659833
H    1.0       20.1328742199       24.5046311649       23.3285601034
C    6.0       20.8566428702       23.8258883969       21.0373162591
H    1.0       20.8034875791       24.9039029282       20.8354979842
C    6.0       21.5274489035       23.1006345968       19.8356433568
H    1.0       21.3096911444       22.0270168580       19.9133532919
O    8.0       22.9629117052       23.3103251965       19.8572743161
C    6.0       21.0066330189       23.5851378459       18.4645228060
H    1.0       19.9350736041       23.3629390409       18.3887975744
H    1.0       21.5143694522       23.0173591121       17.6734134642
O    8.0       21.2330145872       24.9872483470       18.2921950064
H    1.0       22.1994935392       25.1251393817       18.4083558460
C    6.0       24.6293782219       17.7700368243       22.3474465195
H    1.0       25.1973965192       16.9059140863       22.7136360787
O    8.0       23.5046886223       17.3620117302       21.5403593497
C    6.0       24.1000863020       18.6063657903       23.5409425875
H    1.0       24.9710989365       18.9131832959       24.1339765879
O    8.0       23.2287010968       17.8028868264       24.3591775262
H    1.0       23.5090109146       16.8644252236       24.2340702206
C    6.0       23.3791891464       19.8893326011       23.0454073098
H    1.0       22.4377972736       19.5825584986       22.5744164508
O    8.0       23.1083164597       20.7677344315       24.1469114563
H    1.0       23.2651859800       21.6866416453       23.8210859907
C    6.0       24.1972131064       20.6605375034       21.9773893671
H    1.0       24.9808922266       21.2426941112       22.4808187824
C    6.0       24.8316106929       19.7315464487       20.9062036264
H    1.0       24.0321431877       19.3639978296       20.2495184601
O    8.0       25.4847588126       18.6131504493       21.5492216712
C    6.0       25.8764001755       20.4393813604       20.0146397468
H    1.0       25.3743142179       21.2154177208       19.4219404883
H    1.0       26.2907286828       19.7074140886       19.3083276777
O    8.0       26.9225439374       21.0184239899       20.7999118885
H    1.0       27.3136123787       20.2832984293       21.3227337074
C    6.0       21.3928490960       13.8801967359       20.7427877414
H    1.0       21.0594052825       12.8823786360       20.4313053114
O    8.0       20.2838739003       14.7382391295       21.0827159536
C    6.0       22.3281798350       13.7802425463       21.9747143625
H    1.0       23.2117938159       13.2033081070       21.6709640388
O    8.0       21.6835314621       13.1163163737       23.0758957603
H    1.0       21.6474062653       12.1593984618       22.8611680104
C    6.0       22.8063476314       15.1875247654       22.4046259823
H    1.0       21.9304685536       15.7513263210       22.7535556610
O    8.0       23.7423726250       15.0384028877       23.4783319199
H    1.0       23.3460898802       14.3466032799       24.0559987014
C    6.0       23.4347160140       15.9598828998       21.2082662427
H    1.0       24.4317292300       15.5547820029       20.9899813048
C    6.0       22.5615783095       15.8711194947       19.9258064936
H    1.0       21.6764397337       16.5036851498       20.0664075820
O    8.0       22.1469373292       14.5041242196       19.6840225941
C    6.0       23.2982976385       16.3663269909       18.6614076305
H    1.0       23.6055347136       17.4099247633       18.8100312049
H    1.0       22.5990846071       16.3456625101       17.8148905778
O    8.0       24.4400500838       15.5517873374       18.3796946582
H    1.0       24.1104532982       14.6261859496       18.3414327591
N    7.0       21.1208650768       19.2976725399       25.5905398339
H    1.0       21.5476971407       18.4576199506       25.1736878880
H    1.0       21.2548018631       19.2432115933       26.6018278279
H    1.0       21.7109232895       20.0688185218       25.2399874326
C    6.0       19.6778308677       19.4715359199       25.2075342003
H    1.0       19.3533059818       20.3997258332       25.6879646302
C    6.0       18.8169126620       18.3305445079       25.7756654550
H    1.0       19.1405168190       17.3516240754       25.4023779252
H    1.0       17.7635112235       18.4694121075       25.5088312446
H    1.0       18.8813995591       18.3092907352       26.8700683448
C    6.0       19.4803512458       19.6572771418       23.6839636545
H    1.0       18.4421300281       19.9632402953       23.5037696128
H    1.0       20.1027836839       20.4987834638       23.3519790700
C    6.0       19.7986186304       18.4102621488       22.8188221780
H    1.0       19.1230919170       17.5849619668       23.0776940996
H    1.0       20.8170431890       18.0538252281       23.0194962774
C    6.0       19.6529319544       18.7204593726       21.3142307040
H    1.0       18.6295401803       19.0369063794       21.0741367476
H    1.0       19.8787055871       17.8309633177       20.7147818540
H    1.0       20.3408057970       19.5193015150       21.0070318755
 $end
