$$$$
! Edit this basic GAMESS input file as needed.
! Conformer was generated by a VeraChem VCPack run 
! and contains    146 atoms.
!
 $contrl scftyp=rhf runtyp=optimize nzvar=0
  maxit=200 icharg=0 $end
 $system mwords=50 $end
 $basis gbasis=pm3 $end
 $statpt nstep=200 $end
 $guess guess=huckel $end
 $data
VM2 Rank=1      G=492.062           E=304.705           -TS=187.357             
C1
C    6.0       16.2300820071       15.0823706528       20.4299031237
H    1.0       15.1919516913       14.9814131537       20.0881211083
O    8.0       16.5336617502       16.4415165875       20.8112282900
C    6.0       16.5290176638       14.1238108191       21.6123463895
H    1.0       16.4346678843       13.0994445595       21.2299056398
O    8.0       15.5825096293       14.3018149933       22.6767029874
H    1.0       15.7821406778       15.1772294529       23.0920182410
C    6.0       17.9924656462       14.3159960626       22.0930979645
H    1.0       18.0802785281       15.3224106006       22.5256060112
O    8.0       18.3263494076       13.3358475391       23.0827826255
H    1.0       19.0988378349       13.7034505178       23.5785653556
C    6.0       18.9905766640       14.2087625386       20.9044049005
H    1.0       19.1246235847       13.1524637481       20.6352306543
C    6.0       18.5373036566       14.9811257954       19.6354077810
H    1.0       18.6989900328       16.0552165860       19.7922728633
O    8.0       17.1370939196       14.7169430173       19.3696674496
C    6.0       19.3402157972       14.5512342568       18.3900184806
H    1.0       19.1409715837       13.4921395938       18.1787650700
H    1.0       20.4135492361       14.6547319856       18.5978152232
O    8.0       18.9800837835       15.3613767220       17.2699926378
H    1.0       17.9973322464       15.3664263626       17.2435429136
C    6.0       14.9407582773       20.0781515903       21.8726454691
H    1.0       14.3225947977       20.9319211854       22.1770653882
O    8.0       16.2268815193       20.5024984031       21.3720807190
C    6.0       15.1712245985       19.1301198998       23.0750679601
H    1.0       14.1893779240       18.7572357358       23.3939785900
O    8.0       15.7694390083       19.8624249531       24.1588338440
H    1.0       16.3116988445       19.2304260683       24.6982929072
C    6.0       16.0253414905       17.9062580162       22.6491879897
H    1.0       17.0429043329       18.2542631633       22.4317488912
O    8.0       16.0545404994       16.9399781865       23.7071206605
H    1.0       16.6243886891       17.3172082244       24.4269864802
C    6.0       15.4643866021       17.2304878965       21.3672159927
H    1.0       14.5999441859       16.6127972079       21.6444075716
C    6.0       15.0532747045       18.2459500869       20.2651121966
H    1.0       15.9694771337       18.6505033635       19.8161480861
O    8.0       14.2759778536       19.3231942795       20.8395614823
C    6.0       14.2194082469       17.6168246048       19.1268839304
H    1.0       14.8343148777       16.8745936667       18.6009277725
H    1.0       13.9645090120       18.4017038791       18.4020980668
O    8.0       13.0303545408       17.0032944670       19.6330805206
H    1.0       12.5450222975       17.7059375293       20.1202819001
C    6.0       18.4548569532       24.0131430693       21.0112164436
H    1.0       18.7947509596       25.0313028831       20.7827716201
O    8.0       19.5405823731       23.1688071208       21.4366547567
C    6.0       17.3901411792       24.0313119513       22.1378189159
H    1.0       16.5479392519       24.6414658948       21.7865134814
O    8.0       17.9183842368       24.6010549756       23.3440359007
H    1.0       17.2262815900       24.4283294268       24.0215069215
C    6.0       16.8618899128       22.6048299088       22.4230789186
H    1.0       17.6913687510       22.0176975213       22.8386705919
O    8.0       15.7996237216       22.6790747829       23.3814340207
H    1.0       15.7156338375       21.7683412659       23.7602256346
C    6.0       16.3867010522       21.9109130782       21.1155430493
H    1.0       15.4470784970       22.3629243066       20.7713160636
C    6.0       17.4475595230       22.0308845658       19.9892351992
H    1.0       18.3116765593       21.4111408109       20.2622580876
O    8.0       17.8550431803       23.4136883697       19.8440317524
C    6.0       16.9356927486       21.5505485793       18.6131996227
H    1.0       16.6458349412       20.4947721993       18.6851978385
H    1.0       17.7594019562       21.6149821107       17.8898152341
O    8.0       15.8262773719       22.3391803512       18.1727044457
H    1.0       16.1251740815       23.2746596138       18.2161142516
C    6.0       23.6385355502       22.8978474125       21.6670861790
H    1.0       24.7235782794       23.0547520421       21.7113286721
O    8.0       23.3002503142       21.4986733172       21.5895959995
C    6.0       22.9638523224       23.5026369095       22.9226929030
H    1.0       23.1635330502       24.5820771310       22.9155190279
O    8.0       23.4944516932       22.9331920638       24.1272767147
H    1.0       22.8820865501       23.2371982515       24.8346270212
C    6.0       21.4327260813       23.3017414200       22.8714620702
H    1.0       21.2277095026       22.2282977143       22.9731037325
O    8.0       20.8166352619       24.0203862024       23.9471401114
H    1.0       19.8467763690       24.0394404958       23.7544109115
C    6.0       20.8378906067       23.7832299486       21.5254553572
H    1.0       20.7753006350       24.8793356209       21.5467875219
C    6.0       21.6619153810       23.3220898218       20.2895707251
H    1.0       21.4864733361       22.2488427398       20.1384871603
O    8.0       23.0746535661       23.5582147044       20.5145881703
C    6.0       21.2705335020       24.0481368800       18.9835389567
H    1.0       20.2296950347       23.8052230418       18.7337751330
H    1.0       21.8986996724       23.6672417248       18.1671889559
O    8.0       21.4306156360       25.4639030659       19.1131175578
H    1.0       22.3678394016       25.6106515921       19.3712417749
C    6.0       24.9153576264       17.7012549725       21.1524051700
H    1.0       25.5597620668       16.8390465616       20.9378876308
O    8.0       23.5629172900       17.2922061272       21.4345275595
C    6.0       25.4640561488       18.5164185641       22.3539503126
H    1.0       26.4715769775       18.8575237042       22.0824861665
O    8.0       25.5423025148       17.7228044442       23.5450878281
H    1.0       25.7989682683       18.3579820042       24.2511900648
C    6.0       24.5951853515       19.7681431162       22.6196739789
H    1.0       23.6105984188       19.4323301955       22.9736694568
O    8.0       25.2206615670       20.5807847904       23.6205565437
H    1.0       24.6010261221       21.3308953898       23.8030101440
C    6.0       24.3868743157       20.5935433612       21.3258077411
H    1.0       25.3163932540       21.1233424555       21.0789868841
C    6.0       23.9735971865       19.7106170457       20.1185234904
H    1.0       22.9466482050       19.3576944685       20.2779010831
O    8.0       24.8750994859       18.5805818993       20.0091917952
C    6.0       24.0112720873       20.4693305102       18.7738097190
H    1.0       23.3215454467       21.3216076075       18.8222949483
H    1.0       23.6500951062       19.7992413889       17.9824096761
O    8.0       25.3355255610       20.9216590523       18.4754002315
H    1.0       25.9111965176       20.1265544637       18.5282418104
C    6.0       21.2129349469       13.9263772479       21.8955873279
H    1.0       20.8008002428       12.9260981227       22.0795510882
O    8.0       20.2330293810       14.8092466992       21.3140437410
C    6.0       21.7312419667       14.5431462093       23.2180891153
H    1.0       22.5347056194       13.8926622478       23.5875189280
O    8.0       20.6992422447       14.6174270067       24.2105757842
H    1.0       21.0709163997       15.2053170259       24.9063105555
C    6.0       22.3351166025       15.9438140371       22.9733255593
H    1.0       21.5251801005       16.6250008335       22.6790355736
O    8.0       22.9554537413       16.4022175428       24.1801359817
H    1.0       23.6695451677       17.0276628300       23.9091984020
C    6.0       23.3799343343       15.9203451169       21.8312948789
H    1.0       24.3091223512       15.4794620812       22.2171662478
C    6.0       22.8911492777       15.1300908571       20.5827924094
H    1.0       22.1202635043       15.7278995174       20.0793135899
O    8.0       22.3316245655       13.8538071919       20.9859956331
C    6.0       24.0056323587       14.8477604971       19.5507262806
H    1.0       24.3558534477       15.8000661076       19.1311213734
H    1.0       23.5799039341       14.2654118517       18.7226324850
O    8.0       25.0960320118       14.1389538435       20.1466777532
H    1.0       24.7161679693       13.3127509714       20.5202731516
C    6.0       20.4804609235       19.5750258215       18.7630744776
H    1.0       21.0176040962       19.4737433159       17.8222350484
H    1.0       20.0466358789       20.5456643974       18.9908027064
C    6.0       20.3606213779       18.5425875312       19.6025727475
H    1.0       20.8031890073       17.5795885062       19.3524325967
C    6.0       19.6246629368       18.5969066000       20.9236593527
H    1.0       19.5454305111       17.5834007336       21.3344981579
H    1.0       18.5962709096       18.9414828066       20.7558400444
C    6.0       20.3292661417       19.5179298447       21.9448916289
H    1.0       21.3503732088       19.1590048687       22.1268852260
H    1.0       20.4251355356       20.5192879827       21.5083047433
C    6.0       19.5705300627       19.6352478297       23.2878798387
H    1.0       18.5260258022       19.9121759828       23.0996742085
H    1.0       20.0058962989       20.4554652148       23.8738106992
C    6.0       19.6216854400       18.3434608406       24.1441580309
H    1.0       19.1800330317       17.4975439510       23.6063256860
H    1.0       20.6630432895       18.0824142916       24.3632943950
C    6.0       18.8880075451       18.4864345765       25.4732922051
O    8.0       17.6861070823       18.2941165304       25.4819503457
O    8.0       19.5296633550       18.8056480354       26.4545132594
 $end
$$$$
! Edit this basic GAMESS input file as needed.
! Conformer was generated by a VeraChem VCPack run 
! and contains    146 atoms.
!
 $contrl scftyp=rhf runtyp=optimize nzvar=0
  maxit=200 icharg=0 $end
 $system mwords=50 $end
 $basis gbasis=pm3 $end
 $statpt nstep=200 $end
 $guess guess=huckel $end
 $data
VM2 Rank=2      G=492.575           E=305.391           -TS=187.184             
C1
C    6.0       16.2349174089       15.0906022696       20.4189758290
H    1.0       15.1976990534       14.9907696383       20.0741034254
O    8.0       16.5383039200       16.4491823500       20.8026429801
C    6.0       16.5297307831       14.1304149061       21.6011480060
H    1.0       16.4360598967       13.1065753485       21.2171311707
O    8.0       15.5800682284       14.3074079295       22.6628401452
H    1.0       15.7794862592       15.1817537212       23.0804914668
C    6.0       17.9918425959       14.3213407107       22.0864020316
H    1.0       18.0792475569       15.3276210627       22.5192931546
O    8.0       18.3219409207       13.3408515092       23.0770271459
H    1.0       19.0921243714       13.7086567430       23.5762261127
C    6.0       18.9931153865       14.2135054386       20.9003976573
H    1.0       19.1261885780       13.1572310144       20.6306494700
C    6.0       18.5443824266       14.9877983349       19.6309082407
H    1.0       18.7069756501       16.0615540032       19.7892691857
O    8.0       17.1446080490       14.7255847345       19.3609013699
C    6.0       19.3501544633       14.5580486006       18.3873045496
H    1.0       19.1508438971       13.4991601055       18.1750889404
H    1.0       20.4230200398       14.6608533583       18.5977918529
O    8.0       18.9932247197       15.3688356950       17.2667160124
H    1.0       18.0105263436       15.3752904642       17.2385413596
C    6.0       14.9404718579       20.0837745290       21.8672693776
H    1.0       14.3205063717       20.9362636086       22.1715964672
O    8.0       16.2277117592       20.5103530313       21.3716573171
C    6.0       15.1682908846       19.1331220110       23.0681796534
H    1.0       14.1858868199       18.7583057143       23.3830869692
O    8.0       15.7622044372       19.8633704955       24.1556819800
H    1.0       16.3035829356       19.2307199009       24.6952597764
C    6.0       16.0251573316       17.9112847494       22.6419529876
H    1.0       17.0428523172       18.2609828368       22.4276980421
O    8.0       16.0527848998       16.9429263789       23.6980220301
H    1.0       16.6201463871       17.3193824913       24.4202407609
C    6.0       15.4678824752       17.2376593854       21.3572327878
H    1.0       14.6024816568       16.6197778903       21.6309872139
C    6.0       15.0598383117       18.2552406191       20.2559516668
H    1.0       15.9772359955       18.6615216859       19.8109547041
O    8.0       14.2797425376       19.3305377299       20.8303033771
C    6.0       14.2302188401       17.6280375228       19.1135539295
H    1.0       14.8474724749       16.8875251588       18.5879204411
H    1.0       13.9770431783       18.4143606174       18.3897322505
O    8.0       13.0400199245       17.0123480134       19.6144197478
H    1.0       12.5524656325       17.7134617503       20.1016000509
C    6.0       18.4598948439       24.0193054063       21.0370931672
H    1.0       18.8031102115       25.0379252112       20.8158292512
O    8.0       19.5402277070       23.1718062426       21.4689493807
C    6.0       17.3898390638       24.0352019497       22.1583430877
H    1.0       16.5509365878       24.6494481624       21.8063184188
O    8.0       17.9155123766       24.5974008847       23.3695533999
H    1.0       17.2219154931       24.4209235227       24.0444088682
C    6.0       16.8569980247       22.6086205081       22.4346789028
H    1.0       17.6827455923       22.0184384466       22.8533730358
O    8.0       15.7890687322       22.6813140748       23.3868190224
H    1.0       15.7033637774       21.7700119431       23.7638290891
C    6.0       16.3888412495       21.9198358414       21.1217991413
H    1.0       15.4511358565       22.3732452094       20.7742182539
C    6.0       17.4557137621       22.0431949447       20.0015163274
H    1.0       18.3177520092       21.4214004290       20.2765264406
O    8.0       17.8658236563       23.4258073734       19.8638937731
C    6.0       16.9501590747       21.5692169664       18.6209459045
H    1.0       16.6572187177       20.5138967592       18.6873810364
H    1.0       17.7778278608       21.6344061011       17.9021970414
O    8.0       15.8452021502       22.3624126871       18.1775487768
H    1.0       16.1455804179       23.2970432021       18.2286197096
C    6.0       23.6448624945       22.8939964139       21.6434712049
H    1.0       24.7297290471       23.0556561325       21.6705515131
O    8.0       23.3112625217       21.4923596799       21.5926691491
C    6.0       22.9853305498       23.5133876561       22.9002293014
H    1.0       23.1807778508       24.5933892909       22.8759299102
O    8.0       23.5339829486       22.9608982503       24.1048165050
H    1.0       22.9299391291       23.2717417540       24.8163474224
C    6.0       21.4546036768       23.3057681475       22.8718171797
H    1.0       21.2543167012       22.2322625891       22.9829368467
O    8.0       20.8475137907       24.0295599890       23.9495506794
H    1.0       19.8756603216       24.0421021156       23.7669797882
C    6.0       20.8434405428       23.7767762469       21.5303651442
H    1.0       20.7908685725       24.8734718571       21.5435471091
C    6.0       21.6473498113       23.2986077199       20.2879453518
H    1.0       21.4750223508       22.2217675726       20.1628591514
O    8.0       23.0639214058       23.5338755312       20.4882888077
C    6.0       21.2209185773       23.9861969236       18.9689260166
H    1.0       20.2346238119       23.6011615659       18.6781541799
H    1.0       21.9278088236       23.6969263692       18.1797868170
O    8.0       21.1689945781       25.4134039100       19.0930116525
H    1.0       20.9401768379       25.7803445577       18.2114660162
C    6.0       24.9208318761       17.6935098872       21.1574446778
H    1.0       25.5640211432       16.8300918501       20.9441748497
O    8.0       23.5673807257       17.2868724669       21.4380958859
C    6.0       25.4696612755       18.5084276627       22.3591358779
H    1.0       26.4781758924       18.8473932525       22.0886884649
O    8.0       25.5448126928       17.7155992454       23.5510045866
H    1.0       25.8019386942       18.3507833364       24.2569322641
C    6.0       24.6028779451       19.7619478665       22.6228613082
H    1.0       23.6173680573       19.4282827304       22.9763028212
O    8.0       25.2286953005       20.5749646331       23.6232618574
H    1.0       24.6158857345       21.3331338393       23.7951694503
C    6.0       24.3971241145       20.5867257721       21.3283965891
H    1.0       25.3276387408       21.1154315735       21.0830158653
C    6.0       23.9835659298       19.7039290437       20.1211623459
H    1.0       22.9558084431       19.3530895359       20.2798728942
O    8.0       24.8831574120       18.5721391636       20.0135811366
C    6.0       24.0239414859       20.4615520235       18.7759542685
H    1.0       23.3365142162       21.3158100406       18.8233471694
H    1.0       23.6613410051       19.7918562483       17.9848727396
O    8.0       25.3497558547       20.9096918355       18.4780962636
H    1.0       25.9230702669       20.1129728566       18.5324804540
C    6.0       21.2107942396       13.9271849425       21.9010404502
H    1.0       20.7951632085       12.9285480822       22.0860392223
O    8.0       20.2355605286       14.8114536625       21.3136857157
C    6.0       21.7260103393       14.5459732965       23.2237596078
H    1.0       22.5268498108       13.8946867810       23.5974504407
O    8.0       20.6907682203       14.6247977086       24.2125279099
H    1.0       21.0612541531       15.2135453973       24.9081513420
C    6.0       22.3336747140       15.9447434751       22.9774301204
H    1.0       21.5260142701       16.6269884884       22.6792623547
O    8.0       22.9514733385       16.4047980567       24.1849169569
H    1.0       23.6680436175       17.0275733649       23.9144433221
C    6.0       23.3819655905       15.9164230240       21.8385940377
H    1.0       24.3095553896       15.4760213856       22.2288374992
C    6.0       22.8967314478       15.1226509085       20.5908543482
H    1.0       22.1292027660       15.7201820634       20.0820418800
O    8.0       22.3327370313       13.8490106876       20.9959945925
C    6.0       24.0147628997       14.8343644415       19.5642759906
H    1.0       24.3682249838       15.7843996309       19.1422601797
H    1.0       23.5912716924       14.2494728435       18.7368264604
O    8.0       25.1016433379       14.1260659045       20.1672047741
H    1.0       24.7190254279       13.3018504073       20.5423744509
C    6.0       20.4772482563       19.5702210018       18.7616194750
H    1.0       21.0218471071       19.4688900573       17.8250763638
H    1.0       20.0215361653       20.5339949975       18.9750931644
C    6.0       20.3750427856       18.5461996901       19.6135774991
H    1.0       20.8395735532       17.5897816594       19.3786380578
C    6.0       19.6302170349       18.6023028825       20.9293905964
H    1.0       19.5410511423       17.5886941012       21.3379618057
H    1.0       18.6055728600       18.9552086739       20.7558782186
C    6.0       20.3352141582       19.5177896804       21.9550491807
H    1.0       21.3541749047       19.1541963905       22.1399318073
H    1.0       20.4368494626       20.5193872677       21.5204420477
C    6.0       19.5721908459       19.6363046081       23.2953525889
H    1.0       18.5291144061       19.9163853622       23.1037717850
H    1.0       20.0081011819       20.4549565878       23.8831832880
C    6.0       19.6168535960       18.3434103853       24.1503383771
H    1.0       19.1749694556       17.4993075056       23.6098462848
H    1.0       20.6567113058       18.0792262987       24.3728458327
C    6.0       18.8787516913       18.4867582868       25.4769617596
O    8.0       17.6767558689       18.2949170105       25.4815445775
O    8.0       19.5172485947       18.8056086058       26.4603614785
 $end
$$$$
! Edit this basic GAMESS input file as needed.
! Conformer was generated by a VeraChem VCPack run 
! and contains    146 atoms.
!
 $contrl scftyp=rhf runtyp=optimize nzvar=0
  maxit=200 icharg=0 $end
 $system mwords=50 $end
 $basis gbasis=pm3 $end
 $statpt nstep=200 $end
 $guess guess=huckel $end
 $data
VM2 Rank=3      G=492.629           E=305.387           -TS=187.241             
C1
C    6.0       16.2272676874       15.0857058725       20.4274225695
H    1.0       15.1896600639       14.9859470497       20.0837182051
O    8.0       16.5312273283       16.4442232326       20.8105861866
C    6.0       16.5232715743       14.1256195384       21.6094550406
H    1.0       16.4282340690       13.1017393705       21.2258874053
O    8.0       15.5755215010       14.3037961939       22.6726893887
H    1.0       15.7764582683       15.1780745304       23.0897793031
C    6.0       17.9861518015       14.3155411974       22.0927141266
H    1.0       18.0743397698       15.3211796032       22.5269330624
O    8.0       18.3179674488       13.3334468979       23.0812079565
H    1.0       19.0945011707       13.6960656795       23.5743789765
C    6.0       18.9859008673       14.2091966783       20.9055305140
H    1.0       19.1191914913       13.1531598480       20.6349153547
C    6.0       18.5358482654       14.9838083240       19.6368714037
H    1.0       18.6980666602       16.0575155964       19.7955338245
O    8.0       17.1359078519       14.7209276402       19.3682916413
C    6.0       19.3409366044       14.5549745670       18.3925215108
H    1.0       19.1411024231       13.4963895975       18.1792837579
H    1.0       20.4139491511       14.6570719782       18.6027646649
O    8.0       18.9839625414       15.3671304931       17.2729403583
H    1.0       18.0012767889       15.3733848249       17.2445332077
C    6.0       14.9404348392       20.0803158778       21.8755786601
H    1.0       14.3230731177       20.9342840113       22.1810746058
O    8.0       16.2263597762       20.5041576893       21.3741044159
C    6.0       15.1714017352       19.1314777914       23.0772586001
H    1.0       14.1896123105       18.7590790803       23.3969139398
O    8.0       15.7712132018       19.8628185698       24.1608085691
H    1.0       16.3131110242       19.2300377989       24.6997184981
C    6.0       16.0243368127       17.9073076886       22.6499482710
H    1.0       17.0420560654       18.2547977121       22.4323162880
O    8.0       16.0533545587       16.9401153580       23.7070826935
H    1.0       16.6238046206       17.3163639503       24.4269879838
C    6.0       15.4623303022       17.2328593140       21.3677300584
H    1.0       14.5979424102       16.6150984959       21.6449093816
C    6.0       15.0506710981       18.2492512681       20.2666979337
H    1.0       15.9666676306       18.6537040410       19.8172420699
O    8.0       14.2743302779       19.3263941374       20.8426097054
C    6.0       14.2155689523       17.6213704998       19.1286876332
H    1.0       14.8297806497       16.8794573474       18.6014798410
H    1.0       13.9602206949       18.4069767413       18.4048468885
O    8.0       13.0268066884       17.0077176141       19.6354126565
H    1.0       12.5421195305       17.7100444379       20.1237091629
C    6.0       18.4553412651       24.0135297590       21.0100617272
H    1.0       18.7955563876       25.0315229238       20.7813829818
O    8.0       19.5410930446       23.1682853903       21.4336871770
C    6.0       17.3922266008       24.0321722659       22.1381765636
H    1.0       16.5497380005       24.6425900194       21.7880161532
O    8.0       17.9223021853       24.6018206477       23.3436154906
H    1.0       17.2311885054       24.4290938097       24.0221017963
C    6.0       16.8639105975       22.6058744624       22.4241643093
H    1.0       17.6938528758       22.0182997233       22.8382308861
O    8.0       15.8032555256       22.6802491362       23.3843009886
H    1.0       15.7192057495       21.7693343089       23.7626493218
C    6.0       16.3862687611       21.9124704118       21.1172885240
H    1.0       15.4462398359       22.3649112691       20.7747356155
C    6.0       17.4452493719       22.0321648480       19.9891787868
H    1.0       18.3094454683       21.4118121576       20.2605608527
O    8.0       17.8533460884       23.4147587140       19.8436657141
C    6.0       16.9307248100       21.5526247644       18.6138592150
H    1.0       16.6403700644       20.4970028194       18.6859545075
H    1.0       17.7532161167       21.6168530617       17.8890725107
O    8.0       15.8210139086       22.3420661206       18.1755729093
H    1.0       16.1205335132       23.2773549108       18.2188178294
C    6.0       23.6392402058       22.8930745411       21.6598377335
H    1.0       24.7244802800       23.0491443870       21.7021081659
O    8.0       23.2995990891       21.4939323629       21.5875667938
C    6.0       22.9666609692       23.5031656030       22.9140628271
H    1.0       23.1672751567       24.5823961781       22.9024801537
O    8.0       23.4981270012       22.9380856441       24.1202793429
H    1.0       22.8868413858       23.2455417188       24.8270859252
C    6.0       21.4353048782       23.3035381622       22.8655979464
H    1.0       21.2292405239       22.2306451858       22.9712149546
O    8.0       20.8215060060       24.0265545045       23.9396611670
H    1.0       19.8511887410       24.0447408602       23.7490698344
C    6.0       20.8393860067       23.7811403094       21.5187037173
H    1.0       20.7784796198       24.8774051079       21.5361914127
C    6.0       21.6612223024       23.3145170084       20.2834235396
H    1.0       21.4843934764       22.2409409260       20.1364341871
O    8.0       23.0745417514       23.5498645934       20.5056832691
C    6.0       21.2688200673       24.0363182295       18.9753595003
H    1.0       20.2271372579       23.7942316086       18.7283180386
H    1.0       21.8949481711       23.6513140854       18.1593722587
O    8.0       21.4315067644       25.4522866218       19.0993974471
H    1.0       22.3693239730       25.5983657548       19.3557395551
C    6.0       24.9134752946       17.6936299416       21.1662707702
H    1.0       25.5586644331       16.8313977534       20.9556403847
O    8.0       23.5618652754       17.2850190262       21.4512719184
C    6.0       25.4614805898       18.5133421262       22.3650042393
H    1.0       26.4696735442       18.8523153716       22.0934087130
O    8.0       25.5371179483       17.7246857060       23.5597191543
H    1.0       25.7915309038       18.3629952999       24.2637698697
C    6.0       24.5935390664       19.7668512970       22.6249966303
H    1.0       23.6088191898       19.4332428708       22.9807236705
O    8.0       25.2199992269       20.5833412412       23.6221360191
H    1.0       24.6010470165       21.3347317274       23.8016125238
C    6.0       24.3854194848       20.5866530151       21.3275693351
H    1.0       25.3152758861       21.1145639785       21.0780002171
C    6.0       23.9711248710       19.6985350874       20.1244554551
H    1.0       22.9443659959       19.3461869776       20.2861163887
O    8.0       24.8725914896       18.5681386371       20.0192982039
C    6.0       24.0077376064       20.4514776488       18.7764826327
H    1.0       23.3182573904       21.3041370067       18.8219667018
H    1.0       23.6456623478       19.7780897437       17.9883044714
O    8.0       25.3318486372       20.9021372436       18.4749402459
H    1.0       25.9074070421       20.1072095405       18.5314828173
C    6.0       21.2091352340       13.9191407473       21.8902160288
H    1.0       20.7964532134       12.9179803552       22.0679497845
O    8.0       20.2276976750       14.8076235276       21.3196974773
C    6.0       21.7330068831       14.5239437410       23.2158424857
H    1.0       22.5381026203       13.8703148458       23.5761711679
O    8.0       20.7044364314       14.5902058282       24.2126509365
H    1.0       21.0783956419       15.1733895229       24.9111547147
C    6.0       22.3354333037       15.9264205949       22.9800297834
H    1.0       21.5249755131       16.6085722850       22.6894612537
O    8.0       22.9554433309       16.3794730447       24.1892599249
H    1.0       23.6673282020       17.0086453994       23.9208753894
C    6.0       23.3797794648       15.9097767617       21.8379336962
H    1.0       24.3081297887       15.4652981582       22.2216941098
C    6.0       22.8914172661       15.1279572648       20.5839319049
H    1.0       22.1183545910       15.7303707824       20.0897216131
O    8.0       22.3226652445       13.8517769973       20.9751810481
C    6.0       24.0014659428       14.8653273769       19.5381727054
H    1.0       24.2540635953       15.8169718623       19.0512262280
H    1.0       23.5996934259       14.2001623207       18.7621286872
O    8.0       25.1759008182       14.2918926011       20.1266448213