$$$$
! Edit this basic GAMESS input file as needed.
! Conformer was generated by a VeraChem VCPack run 
! and contains    139 atoms.
!
 $contrl scftyp=rhf runtyp=optimize nzvar=0
  maxit=200 icharg=0 $end
 $system mwords=50 $end
 $basis gbasis=pm3 $end
 $statpt nstep=200 $end
 $guess guess=huckel $end
 $data
VM2 Rank=1      G=538.064           E=358.998           -TS=179.066             
C1
C    6.0       16.2533134186       15.0589864730       20.6091420045
H    1.0       15.1891548406       14.9481437334       20.3638945421
O    8.0       16.6037806747       16.4423668321       20.8332939440
C    6.0       16.6390452159       14.1993778729       21.8411821010
H    1.0       16.4659936081       13.1516056221       21.5625804546
O    8.0       15.8382454123       14.5060209986       22.9919222242
H    1.0       16.0627765651       15.4340333057       23.2558607951
C    6.0       18.1421618625       14.3572008682       22.1753261407
H    1.0       18.2993492794       15.3802586064       22.5452020408
O    8.0       18.4759681509       13.4094269287       23.1960365188
H    1.0       17.7039596917       13.4116802919       23.8072189272
C    6.0       19.0488467597       14.1547348167       20.9262540975
H    1.0       19.1676100819       13.0815591275       20.7260856504
C    6.0       18.4844253987       14.8371284974       19.6496114639
H    1.0       18.6562388598       15.9149980981       19.7229725807
O    8.0       17.0652324609       14.5757166370       19.5200720814
C    6.0       19.1765414800       14.3482213920       18.3635211377
H    1.0       18.9599892854       13.2821605369       18.2127279123
H    1.0       20.2638534069       14.4591546048       18.4740978404
O    8.0       18.7163326623       15.1216143097       17.2535816631
H    1.0       17.7395285530       15.0077695268       17.2286998314
C    6.0       15.0501799922       20.1546544955       21.8325509802
H    1.0       14.4239860186       20.9910585036       22.1681444852
O    8.0       16.2275011795       20.6163374925       21.1402559578
C    6.0       15.4845283303       19.2848178593       23.0412461326
H    1.0       14.5669503098       18.9061530933       23.5101735068
O    8.0       16.2250763290       20.0465275992       24.0087181616
H    1.0       16.0296633890       20.9997985338       23.8403802112
C    6.0       16.3220289178       18.0712487079       22.5750211006
H    1.0       17.2769723603       18.4473830447       22.1823299011
O    8.0       16.5607261153       17.2179407918       23.6986285610
H    1.0       16.8690087889       17.8261339997       24.4079445139
C    6.0       15.6083772015       17.2843379907       21.4462174500
H    1.0       14.7892313893       16.6999182397       21.8854190613
C    6.0       15.0505128528       18.2173401233       20.3351885651
H    1.0       15.8973953042       18.6191150116       19.7633040485
O    8.0       14.3050973297       19.3074764182       20.9318196727
C    6.0       14.1158556506       17.4956563529       19.3388706825
H    1.0       14.6941267083       16.7420321176       18.7880270662
H    1.0       13.7501348610       18.2264901247       18.6051222891
O    8.0       13.0167856791       16.8767933051       20.0138614569
H    1.0       12.5547117114       17.5937555312       20.5028040307
C    6.0       18.4636489261       24.0517018113       20.6876585613
H    1.0       18.8832946026       25.0399205794       20.4589676304
O    8.0       19.4999612124       23.0967444947       21.0022278728
C    6.0       17.4427493184       24.1293173342       21.8530428025
H    1.0       16.6083940545       24.7529649969       21.5062206970
O    8.0       18.0051438083       24.7304818522       23.0283126428
H    1.0       18.7329054920       24.1337595957       23.3369770205
C    6.0       16.8806695470       22.7229425851       22.1726137318
H    1.0       17.7057738210       22.1057815451       22.5554594704
O    8.0       15.8652101691       22.8500257015       23.1747222290
H    1.0       16.2042795870       23.5368375241       23.7933785605
C    6.0       16.3142723749       22.0354833851       20.8966750086
H    1.0       15.3306075878       22.4591132016       20.6541999062
C    6.0       17.2476057886       22.1902847494       19.6640534176
H    1.0       18.0941637549       21.5083826913       19.7964782987
O    8.0       17.7368790397       23.5502359654       19.5472383959
C    6.0       16.5549703968       21.8198870903       18.3342137255
H    1.0       16.1991790896       20.7825291304       18.3919144749
H    1.0       17.2955123394       21.8698563504       17.5247687331
O    8.0       15.4621540908       22.7019589415       18.0618848821
H    1.0       15.8309662357       23.6125978967       18.1014701170
C    6.0       23.4518208772       22.6913271216       22.1625849884
H    1.0       24.4814844370       22.8229346017       22.5194291820
O    8.0       23.2647724335       21.4051707763       21.5397573493
C    6.0       22.4501219724       22.8411527991       23.3372857991
H    1.0       22.5707187489       23.8576615727       23.7340180285
O    8.0       22.7109882056       21.8968773202       24.3878786886
H    1.0       23.5338492646       21.4064706279       24.1442456018
C    6.0       20.9916765118       22.6915844414       22.8466457614
H    1.0       20.8451509879       21.6498445250       22.5385140493
O    8.0       20.1095905931       22.9967374689       23.9303986246
H    1.0       20.4745547402       22.4935379881       24.6933013520
C    6.0       20.6935553870       23.6070746774       21.6304896139
H    1.0       20.5604072717       24.6363334095       21.9892408543
C    6.0       21.8200471722       23.5640231164       20.5585848916
H    1.0       21.7623535901       22.5981168196       20.0387983678
O    8.0       23.1208664719       23.7023948238       21.1866556073
C    6.0       21.6900764511       24.6729236431       19.4909446401
H    1.0       20.7609463649       24.5183914405       18.9263485004
H    1.0       22.5227572105       24.5791658020       18.7810290971
O    8.0       21.6922936325       25.9716783307       20.0906772553
H    1.0       22.5299635381       26.0378449817       20.6011368846
C    6.0       25.0882836624       17.7380573006       21.0107551601
H    1.0       25.7511182627       16.8908410390       20.7923386278
O    8.0       23.7128689376       17.3129217653       21.1269671485
C    6.0       25.5372060330       18.4841889301       22.2966052333
H    1.0       26.5406459503       18.8826284872       22.0974903092
O    8.0       25.6090826895       17.6159027903       23.4366928814
H    1.0       24.6821830961       17.3267084919       23.6320337211
C    6.0       24.6033440903       19.6834307242       22.5879184685
H    1.0       23.6121806008       19.2880996541       22.8513737615
O    8.0       25.1389989036       20.4310975429       23.6847946896
H    1.0       25.4568177374       19.7536875343       24.3243163566
C    6.0       24.4422418530       20.5979871147       21.3435415589
H    1.0       25.3405323926       21.2179600877       21.2217043230
C    6.0       24.2097822448       19.8009337062       20.0311507659
H    1.0       23.1823838682       19.4160151871       20.0262459446
O    8.0       25.1546856743       18.7043652587       19.9411509338
C    6.0       24.4027586912       20.6898884577       18.7849654295
H    1.0       25.4444722010       21.0351850117       18.7444203204
H    1.0       23.7597013062       21.5761347841       18.8693932291
O    8.0       24.0719181901       19.9583004544       17.6037127298
H    1.0       24.5529240321       19.1033793268       17.6691974774
C    6.0       21.2887107670       14.0336782224       21.9425562825
H    1.0       20.8871494241       13.0591394832       22.2483698460
O    8.0       20.3241923073       14.7855219983       21.1769402417
C    6.0       21.7310159774       14.8534373693       23.1861298557
H    1.0       22.5066110591       14.2651230481       23.6937151824
O    8.0       20.6510434894       15.0851242624       24.1037319489
H    1.0       19.9513206288       14.4172607586       23.9065958197
C    6.0       22.3548927974       16.2045537501       22.7709459960
H    1.0       21.5612393475       16.8247031027       22.3340110184
O    8.0       22.8799923244       16.8423477115       23.9391758068
H    1.0       22.1582987303       16.7644663482       24.6037922955
C    6.0       23.4693661094       16.0168181683       21.7109347594
H    1.0       24.3632795991       15.6160488157       22.2065228416
C    6.0       23.0365456470       15.0605892323       20.5631423456
H    1.0       22.2907733684       15.5753369185       19.9433628027
O    8.0       22.4580118458       13.8498148362       21.1146874441
C    6.0       24.2034056711       14.6479042230       19.6385288924
H    1.0       24.5820657514       15.5397786482       19.1217832910
H    1.0       23.8199199057       13.9638093091       18.8697054299
O    8.0       25.2560146394       14.0232009892       20.3791028404
H    1.0       24.8517245166       13.2519793634       20.8355677253
C    6.0       20.2628537905       19.6378396009       20.5764252969
H    1.0       19.3621066214       20.0292029249       21.0665487727
H    1.0       21.1370011873       19.9219900508       21.1690504897
C    6.0       20.3530627538       19.9045589487       19.0384352682
H    1.0       19.9087179052       20.8359786219       18.6750632040
H    1.0       21.3592134549       19.8146521671       18.6124215742
C    6.0       19.4815938689       18.6208702781       18.8836938410
H    1.0       18.4034680963       18.7949426447       19.0001229287
C    6.0       20.1883610810       18.1299478335       20.1838314821
H    1.0       21.1606682042       17.6532116805       20.0160249447
H    1.0       19.5961570102       17.5049574402       20.8594145277
O    8.0       19.7520852771       17.8763653871       17.7168302028
H    1.0       19.3108722601       16.9974980701       17.7782201462
 $end
$$$$
! Edit this basic GAMESS input file as needed.
! Conformer was generated by a VeraChem VCPack run 
! and contains    139 atoms.
!
 $contrl scftyp=rhf runtyp=optimize nzvar=0
  maxit=200 icharg=0 $end
 $system mwords=50 $end
 $basis gbasis=pm3 $end
 $statpt nstep=200 $end
 $guess guess=huckel $end
 $data
VM2 Rank=2      G=538.305           E=359.068           -TS=179.237             
C1
C    6.0       16.1841151684       15.0190767725       20.5987069712
H    1.0       15.1214306217       14.8968070306       20.3524459224
O    8.0       16.5144871891       16.3998475903       20.8620523149
C    6.0       16.5889734743       14.1415179684       21.8104690532
H    1.0       16.4556789740       13.0952362114       21.5056689943
O    8.0       15.7687338311       14.3924672917       22.9608526655
H    1.0       15.9419147926       15.3274057986       23.2385022693
C    6.0       18.0842058893       14.3490609795       22.1531340764
H    1.0       18.2053711731       15.3748844058       22.5289888572
O    8.0       18.4502798187       13.4099551602       23.1707604522
H    1.0       17.6755889639       13.3783754194       23.7777164659
C    6.0       18.9964642617       14.1837374541       20.9020494385
H    1.0       19.1467239967       13.1157479255       20.6950889055
C    6.0       18.4182193427       14.8575011176       19.6276272610
H    1.0       18.5730861143       15.9382183444       19.7034015989
O    8.0       17.0032291917       14.5734454453       19.4979093160
C    6.0       19.1238271971       14.3733921487       18.3456747366
H    1.0       18.9007030897       13.3101564254       18.1845986686
H    1.0       20.2103979132       14.4723294776       18.4729832639
O    8.0       18.6914588342       15.1559690175       17.2315372716
H    1.0       17.7147918025       15.0469937801       17.1832767043
C    6.0       14.9880566682       20.1067751161       21.8444296657
H    1.0       14.3804991800       20.9671530250       22.1525473664
O    8.0       16.2242264668       20.5193720758       21.2281838392
C    6.0       15.3198119052       19.2130867002       23.0660122703
H    1.0       14.3654627286       18.8549459976       23.4736280351
O    8.0       16.0201189107       19.9480525409       24.0832863656
H    1.0       15.9215962348       20.9071803438       23.8680449498
C    6.0       16.1519365390       17.9832516129       22.6330419566
H    1.0       17.1375421153       18.3414038063       22.3070166175
O    8.0       16.3046179407       17.1111022432       23.7566813752
H    1.0       16.5792845522       17.7037095938       24.4925564492
C    6.0       15.4921938046       17.2277622665       21.4489203578
H    1.0       14.6516459427       16.6339868905       21.8317787450
C    6.0       14.9973795706       18.1851435111       20.3275673155
H    1.0       15.8746357414       18.5673835413       19.7892792679
O    8.0       14.2597873324       19.2932898807       20.9004538421
C    6.0       14.0839072205       17.4939113740       19.2911687761
H    1.0       14.6621768160       16.7248837079       18.7619563398
H    1.0       13.7706103748       18.2371743467       18.5457276761
O    8.0       12.9401992471       16.9065687261       19.9186085574
H    1.0       12.4817277076       17.6356280764       20.3928604715
C    6.0       18.5131925597       23.9460037002       20.7534102845
H    1.0       18.9141007200       24.9365840570       20.5021711772
O    8.0       19.5598553085       23.0325860615       21.1411141317
C    6.0       17.4657613770       24.0366637488       21.8941526827
H    1.0       16.6380640222       24.6548468460       21.5226567996
O    8.0       18.0095077552       24.6528139976       23.0710727302
H    1.0       18.7855167616       24.1064567819       23.3558366282
C    6.0       16.8977478983       22.6344529933       22.2260964564
H    1.0       17.7140166410       22.0255038935       22.6398691889
O    8.0       15.8577499647       22.7755714738       23.2004915478
H    1.0       16.1851971175       23.4660034604       23.8213294379
C    6.0       16.3668370650       21.9256399447       20.9475656900
H    1.0       15.4103977252       22.3712134855       20.6434274160
C    6.0       17.3686953916       22.0219275773       19.7654228965
H    1.0       18.2158757524       21.3629049035       19.9864517827
O    8.0       17.8398479303       23.3836025604       19.6083380987
C    6.0       16.7626914925       21.5717870425       18.4176623895
H    1.0       16.4281435085       20.5295883095       18.5042762807
H    1.0       17.5480908101       21.6006604614       17.6505939779
O    8.0       15.6687115927       22.4129979342       18.0401897036
H    1.0       16.0148457984       23.3330394245       18.0565033302
C    6.0       23.5773873569       22.7975609227       22.0865529355
H    1.0       24.6250619074       22.9684911881       22.3655921003
O    8.0       23.3600391381       21.4532368814       21.6129073346
C    6.0       22.6474086590       23.0607231185       23.2984012175
H    1.0       22.7580664588       24.1186837875       23.5699246056
O    8.0       23.0044467290       22.2504959017       24.4290801637
H    1.0       23.6404406353       21.5633419078       24.1101028982
C    6.0       21.1695965099       22.8223997463       22.9137103911
H    1.0       21.0433772606       21.7514166955       22.7123918448
O    8.0       20.3353633305       23.2068973849       24.0103540581
H    1.0       20.7644034721       22.8061436727       24.8000097822
C    6.0       20.7797654450       23.6155619916       21.6392642619
H    1.0       20.6464603279       24.6707200536       21.9130721503
C    6.0       21.8396924425       23.4908018760       20.5061774896
H    1.0       21.7686542510       22.4810083070       20.0797190006
O    8.0       23.1744869145       23.7021449271       21.0360594432
C    6.0       21.6253120741       24.4958194304       19.3527746428
H    1.0       20.6690868358       24.2759924380       18.8595794671
H    1.0       22.4177845162       24.3511733664       18.6063044437
O    8.0       21.6346158207       25.8434220804       19.8327329602
H    1.0       22.5000213014       25.9700081351       20.2817610580
C    6.0       25.0940598072       17.7709935927       21.0179507774
H    1.0       25.7317777115       16.9061894796       20.7936281048
O    8.0       23.7013406061       17.3896826461       21.0975108037
C    6.0       25.5451476699       18.4735651942       22.3278469374
H    1.0       26.5633105584       18.8457745183       22.1543824643
O    8.0       25.5704971930       17.5798415379       23.4500648036
H    1.0       24.6297680615       17.3305607265       23.6332565345
C    6.0       24.6415231547       19.6924189762       22.6285134099
H    1.0       23.6346023512       19.3203887240       22.8634273548
O    8.0       25.1709143269       20.4044697002       23.7505222605
H    1.0       25.4407388098       19.7090069496       24.3922008258
C    6.0       24.5299527519       20.6393036945       21.4054914511
H    1.0       25.4425914859       21.2446149041       21.3229680550
C    6.0       24.3108897435       19.8845686997       20.0664204207
H    1.0       23.2740172774       19.5340201919       20.0252013182
O    8.0       25.2180528245       18.7575068699       19.9718763246
C    6.0       24.5613875066       20.7967650418       18.8479663201
H    1.0       25.6173312072       21.0980829762       18.8313220066
H    1.0       23.9552462979       21.7072577239       18.9469052370
O    8.0       24.2162861665       20.1103188345       17.6436566905
H    1.0       24.6838321757       19.2461513281       17.6788606169
C    6.0       21.2338117100       14.1166311591       21.9135864107
H    1.0       20.8484789203       13.1388660583       22.2297393789
O    8.0       20.2524422986       14.8501553245       21.1538710933
C    6.0       21.6661454103       14.9534241626       23.1486089091
H    1.0       22.4424727868       14.3760126832       23.6674711076
O    8.0       20.5775591209       15.1878130990       24.0558349871
H    1.0       19.8982085077       14.4927828634       23.8826016973
C    6.0       22.2832431604       16.3035857436       22.7186490614
H    1.0       21.4907299402       16.9107311587       22.2604550104
O    8.0       22.7913007276       16.9609966990       23.8833546288
H    1.0       22.0638792538       16.8847967913       24.5419628088
C    6.0       23.4096001123       16.0996529139       21.6745824262
H    1.0       24.2846687598       15.6702696694       22.1796697884
C    6.0       22.9646168884       15.1571839067       20.5222196377
H    1.0       22.2098970930       15.6783117771       19.9185549333
O    8.0       22.3966550373       13.9420817721       21.0743403807
C    6.0       24.1208379894       14.7520573386       19.5807893642
H    1.0       24.4928216165       15.6478636684       19.0659399820
H    1.0       23.7290985733       14.0728257280       18.8118207593
O    8.0       25.1827932344       14.1235848049       20.3046835129
H    1.0       24.7849251996       13.3484051066       20.7600416299
C    6.0       20.4273922016       19.5208503248       20.6171193681
H    1.0       21.3191698166       19.0760871342       21.0753457504
H    1.0       20.1252419528       20.3888389436       21.2100968521
C    6.0       19.2906810201       18.5020148284       20.2909112779
H    1.0       18.2949195771       18.9442134034       20.1753288747
H    1.0       19.2187601348       17.6461844401       20.9700468592
C    6.0       20.0444499126       18.2597782865       18.9473767548
H    1.0       20.8633001314       17.5312894301       19.0156229657
C    6.0       20.5129068631       19.7401404903       19.0708123830
H    1.0       19.8052111871       20.4708872951       18.6651122570
H    1.0       21.5035572061       19.9579452141       18.6602552880
O    8.0       19.2238779343       17.9990999297       17.8306824150
H    1.0       19.1125592773       17.0231635168       17.7431703875
 $end
$$$$
! Edit this basic GAMESS input file as needed.
! Conformer was generated by a VeraChem VCPack run 
! and contains    139 atoms.
!
 $contrl scftyp=rhf runtyp=optimize nzvar=0
  maxit=200 icharg=0 $end
 $system mwords=50 $end
 $basis gbasis=pm3 $end
 $statpt nstep=200 $end
 $guess guess=huckel $end
 $data
VM2 Rank=3      G=538.310           E=359.998           -TS=178.312             
C1
C    6.0       16.4147592461       15.1975771631       20.6184848514
H    1.0       15.4097714301       15.0637739389       20.1974009161
O    8.0       16.6116570599       16.5371256884       21.1100685962
C    6.0       16.6673842457       14.1972446874       21.7729184693
H    1.0       16.5576139922       13.1886152557       21.3537433388
O    8.0       15.7082615543       14.3716537362       22.8282720305
H    1.0       15.7111710392       15.3310641245       23.0761825694
C    6.0       18.1091605544       14.3239617860       22.3268549553
H    1.0       18.1738638168       15.2674580173       22.8839437477
O    8.0       18.3551203760       13.2256481089       23.2099912099
H    1.0       17.5923120339       13.2131962325       23.8286007001
C    6.0       19.1867708002       14.3528003091       21.2051525035
H    1.0       19.3780410425       13.3282279107       20.8586225397
C    6.0       18.7783348321       15.2164533471       19.9784861230
H    1.0       18.8993731159       16.2781738688       20.2296649438
O    8.0       17.4065681117       14.9388771008       19.6088857082
C    6.0       19.6313357174       14.8982778043       18.7328300527
H    1.0       19.4221855183       13.8708923287       18.4056276611
H    1.0       20.6941690534       14.9506314706       18.9876187644
O    8.0       19.3358350219       15.8256321264       17.6873025155
H    1.0       18.3602220775       15.8021766387       17.5710973498
C    6.0       14.7133105479       20.1964872548       21.4674377496
H    1.0       14.0008922521       21.0277575795       21.5436926066
O    8.0       16.0749643215       20.6647743285       21.3724161926
C    6.0       14.5962660408       19.2819345777       22.7124946474
H    1.0       13.5734633183       18.8838679343       22.7343988204
O    8.0       14.8404563613       20.0196553672       23.9207031888
H    1.0       15.3431762112       20.8349826880       23.6709195500
C    6.0       15.5704748537       18.0861304686       22.6058540097
H    1.0       16.5882245493       18.4815192291       22.6592604619
O    8.0       15.3445810717       17.1835292512       23.6930616408
H    1.0       15.2721797592       17.7601775354       24.4865004037
C    6.0       15.4243773031       17.3406241803       21.2583548609
H    1.0       14.5149998159       16.7262588011       21.2997859885
C    6.0       15.3617862929       18.3099787279       20.0430160976
H    1.0       16.3648970679       18.7260738960       19.8823246146
O    8.0       14.4275525642       19.3869402356       20.3068324375
C    6.0       14.9256258952       17.6232834246       18.7295883137
H    1.0       15.6855151536       16.8854298630       18.4406547162
H    1.0       14.8850288226       18.3781985687       17.9329423479
O    8.0       13.6522917820       16.9882219479       18.8766175407
H    1.0       13.0241314274       17.6922376096       19.1529958760
C    6.0       18.4342459712       24.0476171969       20.9126310893
H    1.0       18.8462291440       25.0416615996       20.6953760096
O    8.0       19.4785485566       23.0898776685       21.1824176168
C    6.0       17.4552852531       24.0961256974       22.1160981594
H    1.0       16.6222743985       24.7512336836       21.8296451508
O    8.0       18.0801576950       24.6309198025       23.2922845174
H    1.0       18.8515881221       24.0467369114       23.5053407284
C    6.0       16.8771925633       22.6878444723       22.3966130653
H    1.0       17.7043680510       22.0424572616       22.7198234177
O    8.0       15.8931855375       22.7694358445       23.4320599717
H    1.0       16.2819156473       23.3691467944       24.1078119076
C    6.0       16.2503019701       22.0737275527       21.1187725114
H    1.0       15.2961424670       22.5760334991       20.9117544235
C    6.0       17.1728828396       22.2136760888       19.8763729187
H    1.0       18.0095269065       21.5122527260       19.9809464737
O    8.0       17.6820869497       23.5687950331       19.7772314782
C    6.0       16.4472127656       21.8903408375       18.5514940734
H    1.0       16.0688216947       20.8606847403       18.5900177973
H    1.0       17.1732352925       21.9440403368       17.7293510965
O    8.0       15.3693264862       22.8022749753       18.3206085925
H    1.0       15.7596122573       23.7032031041       18.3727363851
C    6.0       23.5209552353       22.6573832094       21.9234233147
H    1.0       24.5865117983       22.7783587539       22.1571996936
O    8.0       23.2374078390       21.3470651902       21.3894110129
C    6.0       22.6615227604       22.8803825977       23.1936341892
H    1.0       22.8360332270       23.9111468749       23.5286467292
O    8.0       23.0263313547       21.9743129636       24.2474449275
H    1.0       23.8582757946       21.5207265183       23.9674141360
C    6.0       21.1601525662       22.7274483821       22.8630623118
H    1.0       20.9928921279       21.6793677327       22.5925740616
O    8.0       20.3904727871       23.0588131980       24.0222135799
H    1.0       20.8426456767       22.5881270619       24.7584321620
C    6.0       20.7371262140       23.6088832260       21.6598627438
H    1.0       20.6496044906       24.6492645287       22.0003549916
C    6.0       21.7400770330       23.5164921386       20.4737147524
H    1.0       21.6078212236       22.5395507760       19.9899263906
O    8.0       23.1053931493       23.6385634644       20.9489467744
C    6.0       21.5154482705       24.6024605252       19.3980663466
H    1.0       20.5278276213       24.4548203480       18.9411780184
H    1.0       22.2642248648       24.4745890802       18.6049048044
O    8.0       21.6070819887       25.9145133496       19.9608111227
H    1.0       22.4977439914       25.9761665915       20.3726098131
C    6.0       25.0771309726       17.6568785069       20.8974614854
H    1.0       25.7316439923       16.8149340898       20.6372157162
O    8.0       23.7746134654       17.2094485543       21.3172778956
C    6.0       25.6972821674       18.5301993355       22.0188291472
H    1.0       26.6367567307       18.9393069830       21.6248244386
O    8.0       25.9873297476       17.7612655601       23.1957107566
H    1.0       25.1398443867       17.3407754923       23.4902565576
C    6.0       24.7683213906       19.7223420152       22.3604510459
H    1.0       23.8500489103       19.3220538321       22.8129620230
O    8.0       25.4383573074       20.5755246271       23.2946828425
H    1.0       25.8864872436       19.9623950918       23.9212190210
C    6.0       24.3741611157       20.5153573138       21.0822203979
H    1.0       25.2282288361       21.1167804087       20.7430813308
C    6.0       23.9304500805       19.5880753571       19.9189023904
H    1.0       22.9358357527       19.1809904541       20.1467163165
O    8.0       24.8934195571       18.5159729847       19.7526561213
C    6.0       23.8479943489       20.3495455248       18.5794990625
H    1.0       24.8487842133       20.7090175858       18.3049927278
H    1.0       23.1995144589       21.2272911978       18.7003027563
O    8.0       23.3258769490       19.4941598319       17.5613058230
H    1.0       23.8609036414       18.6700353043       17.5978919810
C    6.0       21.3752103713       14.0224372027       22.2507290231
H    1.0       20.9221951678       13.0642703640       22.5361231604
O    8.0       20.3750269142       14.9492125373       21.7741691423
C    6.0       22.1216042829       14.6272770454       23.4675132022
H    1.0       22.8972069492       13.9080113915       23.7604894784
O    8.0       21.2314104924       14.8337556068       24.5730541697
H    1.0       20.6235527538       15.5667068261       24.3054483474
C    6.0       22.8158390074       15.9569563066       23.1003066845
H    1.0       22.0302008694       16.6960114942       22.9260184676
O    8.0       23.6366910864       16.3838709281       24.1917902233
H    1.0       23.0538236380       16.3348609181       24.9821264310
C    6.0       23.6585486800       15.8588389702       21.8059359719
H    1.0       24.6345281748       15.4156785468       22.0448385491
C    6.0       22.9525766634       15.0507774229       20.6818097531
H    1.0       22.1713173604       15.6957583393       20.2623331720
O    8.0       22.3513807811       13.8364941065       21.2027360265
C    6.0       23.8986094193       14.6547833590       19.5269463206
H    1.0       24.2715520323       15.5660224182       19.0407867124
H    1.0       23.3250702510       14.0953598384       18.7757916714
O    8.0       24.9928948593       13.8670618670       20.0042137498
H    1.0       24.5962082058       13.0877488067       20.4537686861
C    6.0       19.4000671774       19.5518165911       21.5306801481
H    1.0       18.5524390112       19.2445154762       20.9048726713
H    1.0       19.8332882883       20.4635718081       21.1085194594
C    6.0       20.4137675050       18.4123401460       21.8644097316
H    1.0       20.5845258200       17.6689149586       21.0796461875
H    1.0       21.3848953673       18.7643222322       22.2343309903
C    6.0       19.3912089540       18.0207177079       22.9761283285
H    1.0       18.5420014846       17.4366410915       22.6031473304
C    6.0       19.1157038901       19.5508249361       23.0711450297
H    1.0       19.8410594541       20.0995553041       23.6832460186
H    1.0       18.1102439110       19.8462075360       23.3842013508
O    8.0       19.9179559764       17.4299345236       24.1411748189
H    1.0       19.2669808389       17.5858548438       24.8556051934
 $end
$$$$