$$$$
! Edit this basic GAMESS input file as needed.
! Conformer was generated by a VeraChem VCPack run 
! and contains    142 atoms.
!
 $contrl scftyp=rhf runtyp=optimize nzvar=0
  maxit=200 icharg=0 $end
 $system mwords=50 $end
 $basis gbasis=pm3 $end
 $statpt nstep=200 $end
 $guess guess=huckel $end
 $data
VM2 Rank=1      G=481.270           E=296.545           -TS=184.725             
C1
C    6.0       16.4457648814       15.2386450132       21.9323881969
H    1.0       15.4128603043       15.0961742502       22.2736589322
O    8.0       16.6280613756       16.5309283237       21.3161242251
C    6.0       17.4309034890       15.1037020663       23.1223130917
H    1.0       17.3223656655       14.0862927570       23.5194232388
O    8.0       17.0996592741       16.0408718550       24.1605695344
H    1.0       17.9293712818       16.5403122689       24.3885619913
C    6.0       18.8961874499       15.2644503303       22.6416490421
H    1.0       19.0376752416       16.2957100450       22.2951782789
O    8.0       19.7936827588       14.9903575797       23.7245089420
H    1.0       19.8137015451       15.8228502611       24.2685572192
C    6.0       19.2055526093       14.3213365895       21.4503007624
H    1.0       19.3114046072       13.2958869755       21.8272717621
C    6.0       18.1024917634       14.3657641963       20.3562205255
H    1.0       18.1698604250       15.3315749179       19.8387453943
O    8.0       16.7925216628       14.2279553701       20.9613305507
C    6.0       18.2496722799       13.2561670005       19.2913245007
H    1.0       19.1890470040       13.4088603669       18.7435920285
H    1.0       17.4302025943       13.3519479844       18.5665017655
O    8.0       18.2333978950       11.9570403118       19.8901366912
H    1.0       17.3907581524       11.8966670796       20.3930107267
C    6.0       14.6614766409       20.1943370610       21.0533491913
H    1.0       13.9446796754       21.0047729005       20.8709607455
O    8.0       15.9709479087       20.6965383587       21.3832966726
C    6.0       14.1837260043       19.3018402594       22.2246179305
H    1.0       13.2101193978       18.8816430785       21.9406840172
O    8.0       14.0358034163       20.0629928474       23.4319106080
H    1.0       13.8775559915       19.3889825460       24.1306045958
C    6.0       15.1605591725       18.1245065771       22.4620674335
H    1.0       16.1055572827       18.5401297203       22.8377567516
O    8.0       14.5912279698       17.2518150947       23.4449157776
H    1.0       15.3542330422       16.7590482846       23.8375594579
C    6.0       15.4568641033       17.3549604928       21.1412204571
H    1.0       14.5848295637       16.7481498664       20.8637257740
C    6.0       15.7871078048       18.3156273823       19.9672834018
H    1.0       16.7773336076       18.7592668954       20.1366719787
O    8.0       14.7752124338       19.3496555883       19.8892488050
C    6.0       15.8098036143       17.5831577908       18.6094870063
H    1.0       14.8248255355       17.1349699405       18.4227586014
H    1.0       16.5456427722       16.7691676400       18.6504930340
O    8.0       16.1496450185       18.4969915997       17.5646972119
H    1.0       15.5212060908       19.2473183391       17.6495646279
C    6.0       18.3476884882       24.0860184614       21.3934492735
H    1.0       18.7380265859       25.1104177540       21.3496166498
O    8.0       19.4085300406       23.1134577196       21.4919390828
C    6.0       17.4171740453       23.9329823842       22.6227956146
H    1.0       16.5976131015       24.6536552288       22.5043144046
O    8.0       18.1176004978       24.2120323610       23.8432295281
H    1.0       17.4997948659       23.9277494207       24.5538209885
C    6.0       16.7991004817       22.5174365779       22.6808927879
H    1.0       17.6041263533       21.8048036111       22.9010216202
O    8.0       15.8082680578       22.4681442866       23.7148903549
H    1.0       15.3446517432       21.5988977152       23.6216318739
C    6.0       16.1551877055       22.1222242447       21.3292234012
H    1.0       15.2034568454       22.6594693915       21.2241258995
C    6.0       17.0716339942       22.4351039080       20.1142468787
H    1.0       17.9120705030       21.7283473605       20.1186952070
O    8.0       17.5706921220       23.7919310405       20.2133669813
C    6.0       16.3526731527       22.3019945268       18.7539247347
H    1.0       16.0354981091       21.2608914379       18.6166923689
H    1.0       17.0674145984       22.5334393800       17.9529854748
O    8.0       15.2235209964       23.1773198639       18.6791994582
H    1.0       15.5669030696       24.0811542136       18.8570572993
C    6.0       23.5185680012       22.6524880148       21.0860311740
H    1.0       24.5885864349       22.7894639589       20.8838979042
O    8.0       23.2042922826       21.2659343870       21.3233810639
C    6.0       23.0713354683       23.5094268909       22.3030029584
H    1.0       23.2684918251       24.5584316298       22.0479271929
O    8.0       23.8290082410       23.1707900976       23.4754553296
H    1.0       23.5727907027       22.2484189167       23.7270050253
C    6.0       21.5454236144       23.3635040820       22.5485067491
H    1.0       21.3521691349       22.3372882214       22.8866185465
O    8.0       21.0995863141       24.2986738644       23.5392920173
H    1.0       20.1264361107       24.1582539596       23.6459700395
C    6.0       20.7406618621       23.6055012569       21.2466554006
H    1.0       20.7487979191       24.6809807249       21.0257535341
C    6.0       21.3190879243       22.8397746529       20.0274417506
H    1.0       21.1185365146       21.7680599633       20.1574194518
O    8.0       22.7470231995       23.0755927167       19.9429305089
C    6.0       20.6988728200       23.2789512280       18.6824197479
H    1.0       19.6199226356       23.0808313655       18.7006839934
H    1.0       21.1304026773       22.6662813155       17.8797292005
O    8.0       20.9422896198       24.6665453452       18.4317060746
H    1.0       21.9156796790       24.7875028039       18.4977375217
C    6.0       24.9127973416       17.5898964820       22.1052216677
H    1.0       25.5491557676       16.7387761361       22.3785272284
O    8.0       23.7325543779       17.1681052572       21.3899451390
C    6.0       24.4823931575       18.3744888146       23.3712836599
H    1.0       25.3938201212       18.7764192195       23.8320976729
O    8.0       23.8355721744       17.5002836878       24.3113203335
H    1.0       22.9332312339       17.8751277944       24.4997302991
C    6.0       23.5828829438       19.5737348212       22.9778396526
H    1.0       22.6498452564       19.1726749020       22.5649045716
O    8.0       23.2908361107       20.3762199812       24.1284316862
H    1.0       22.5850375963       19.8754439614       24.6157349477
C    6.0       24.2501429706       20.4492213074       21.8866148331
H    1.0       25.0355341896       21.0551040416       22.3573516313
C    6.0       24.8548884441       19.6088064561       20.7250202500
H    1.0       24.0267241872       19.2165634091       20.1194644755
O    8.0       25.6347010745       18.5072941347       21.2560907098
C    6.0       25.7715907757       20.4211466655       19.7831728671
H    1.0       25.1708398350       21.1805447186       19.2655335538
H    1.0       26.1741813781       19.7469608431       19.0153668625
O    8.0       26.8381398047       21.0429567020       20.5058289530
H    1.0       27.3203602579       20.3184808926       20.9631442210
C    6.0       21.4581171955       13.8367398346       20.5638506697
H    1.0       21.0333265780       12.8769668649       20.2429590579
O    8.0       20.4208092801       14.8025887776       20.8417370573
C    6.0       22.3808981655       13.6542475260       21.7989338127
H    1.0       23.2151044743       13.0154699600       21.4818468432
O    8.0       21.6920227108       12.9997220352       22.8750365457
H    1.0       21.0758646968       13.6711039253       23.2609436108
C    6.0       22.9765295445       15.0178848741       22.2412021500
H    1.0       22.1573650923       15.6379987849       22.6311803644
O    8.0       23.9594712605       14.8106809709       23.2625061565
H    1.0       23.9930380043       15.6528135800       23.7789947362
C    6.0       23.6252697252       15.7732015805       21.0451298662
H    1.0       24.6097597242       15.3390774269       20.8255936472
C    6.0       22.7668934195       15.7310238338       19.7521226740
H    1.0       21.9233056866       16.4240722887       19.8672491125
O    8.0       22.2857134490       14.3838809173       19.5172781285
C    6.0       23.5780022045       16.1606154309       18.5119895628
H    1.0       24.3919787642       15.4424637783       18.3454368844
H    1.0       24.0315297234       17.1432638762       18.6983392552
O    8.0       22.7252854136       16.2257903099       17.3675021957
H    1.0       22.2214623805       15.3813491984       17.3568490952
C    6.0       20.1238217033       18.4824553931       24.4191325277
O    8.0       21.2854376477       18.5531527085       24.7737225270
O    8.0       19.3901513880       17.5549719863       24.7051685394
C    6.0       19.5559111639       19.6302836962       23.5869446051
H    1.0       20.3094177471       20.4224199690       23.5234889492
H    1.0       18.7100327791       20.0425886203       24.1484595488
C    6.0       19.0825706596       19.2358031240       22.1631347255
H    1.0       18.3382726192       18.4351337777       22.2383201408
H    1.0       18.5738840426       20.0938603373       21.7108745291
C    6.0       20.2311342243       18.8000507324       21.2302455750
H    1.0       20.7585431226       17.9366403838       21.6589865291
H    1.0       20.9604860517       19.6147170972       21.1437932379
C    6.0       19.7080745221       18.4397063317       19.8258275324
H    1.0       20.5374713807       18.1736523544       19.1586508566
H    1.0       19.1715147670       19.2852040079       19.3765926481
H    1.0       19.0229097694       17.5843525093       19.8736916937
 $end
$$$$
! Edit this basic GAMESS input file as needed.
! Conformer was generated by a VeraChem VCPack run 
! and contains    142 atoms.
!
 $contrl scftyp=rhf runtyp=optimize nzvar=0
  maxit=200 icharg=0 $end
 $system mwords=50 $end
 $basis gbasis=pm3 $end
 $statpt nstep=200 $end
 $guess guess=huckel $end
 $data
VM2 Rank=2      G=481.382           E=296.473           -TS=184.909             
C1
C    6.0       16.4162075050       15.2539508736       21.9345488160
H    1.0       15.3859528857       15.1124626369       22.2841308517
O    8.0       16.5967584561       16.5486909409       21.3228770494
C    6.0       17.4114726546       15.1108863090       23.1150069321
H    1.0       17.3050747995       14.0914248163       23.5074037546
O    8.0       17.0905590685       16.0427933546       24.1611677663
H    1.0       17.9219273176       16.5431386955       24.3810960203
C    6.0       18.8725347154       15.2726011487       22.6218699688
H    1.0       19.0118809378       16.3055727678       22.2796754005
O    8.0       19.7804119310       14.9918149630       23.6943467776
H    1.0       19.8066122149       15.8217362890       24.2420222550
C    6.0       19.1699087719       14.3358208975       21.4227258104
H    1.0       19.2793499973       13.3085626633       21.7937378588
C    6.0       18.0565642500       14.3853440563       20.3392080919
H    1.0       18.1201655377       15.3528979760       19.8246055090
O    8.0       16.7520973563       14.2470084693       20.9558824700
C    6.0       18.1922123872       13.2794626502       19.2689085525
H    1.0       19.1262279830       13.4332732885       18.7123616818
H    1.0       17.3656697779       13.3785398115       18.5526056811
O    8.0       18.1806628293       11.9782186837       19.8631928120
H    1.0       17.3427052371       11.9165205589       20.3736840930
C    6.0       14.6351361598       20.2173520251       21.0916921429
H    1.0       13.9179876350       21.0293736182       20.9178988391
O    8.0       15.9474450321       20.7167556326       21.4144923464
C    6.0       14.1647262683       19.3199056395       22.2622596321
H    1.0       13.1885541907       18.9022694454       21.9834024431
O    8.0       14.0264786493       20.0753525320       23.4742410242
H    1.0       13.8720082674       19.3981607142       24.1707150602
C    6.0       15.1417114113       18.1402117744       22.4870912863
H    1.0       16.0903311629       18.5527926597       22.8570589549
O    8.0       14.5789336111       17.2640002558       23.4705981177
H    1.0       15.3441532110       16.7679235747       23.8546656462
C    6.0       15.4263174022       17.3762517135       21.1605102971
H    1.0       14.5508304810       16.7728974370       20.8863675925
C    6.0       15.7505298649       18.3420516122       19.9891404417
H    1.0       16.7425426226       18.7832192651       20.1543511600
O    8.0       14.7399367222       19.3781189809       19.9227715014
C    6.0       15.7633390642       17.6163330245       18.6276056341
H    1.0       14.7750920043       17.1745599687       18.4428509941
H    1.0       16.4947546514       16.7980671413       18.6612971847
O    8.0       16.1040668883       18.5335131994       17.5860391364
H    1.0       15.4794355996       19.2863509906       17.6763536304
C    6.0       18.3264178434       24.1037971262       21.4285897502
H    1.0       18.7181871928       25.1278574807       21.3898435014
O    8.0       19.3864135486       23.1283730978       21.5056790597
C    6.0       17.4097077320       23.9408560369       22.6669323816
H    1.0       16.5896308595       24.6633460130       22.5641064659
O    8.0       18.1240644904       24.2083279408       23.8818511236
H    1.0       17.5140371739       23.9180315126       24.5967293613
C    6.0       16.7908833356       22.5254557980       22.7192898533
H    1.0       17.5976417652       21.8100903378       22.9234739841
O    8.0       15.8121204766       22.4678771614       23.7642725672
H    1.0       15.3444478434       21.6012710021       23.6668776761
C    6.0       16.1309688406       22.1429561045       21.3716982994
H    1.0       15.1780209607       22.6810323668       21.2831400555
C    6.0       17.0328347141       22.4670061545       20.1487121263
H    1.0       17.8722590985       21.7591603541       20.1358561794
O    8.0       17.5352120359       23.8221057151       20.2549216296
C    6.0       16.2969830135       22.3481141537       18.7961139761
H    1.0       15.9768718502       21.3087398217       18.6524891450
H    1.0       17.0020466140       22.5867822742       17.9887393274
O    8.0       15.1680071882       23.2252976070       18.7440487605
H    1.0       15.5146097217       24.1270188326       18.9263627613
C    6.0       23.4912235046       22.6631136987       21.0565652192
H    1.0       24.5593685676       22.7995484111       20.8444125191
O    8.0       23.1772611827       21.2756642606       21.2893973722
C    6.0       23.0577424190       23.5143589538       22.2825392909
H    1.0       23.2544569865       24.5643254273       22.0311030444
O    8.0       23.8262530561       23.1680599598       23.4456756762
H    1.0       23.5703360097       22.2450642903       23.6952213183
C    6.0       21.5341024949       23.3702089465       22.5425798711
H    1.0       21.3423321637       22.3427025611       22.8775164762
O    8.0       21.1002555686       24.3011736680       23.5425797553
H    1.0       20.1284917165       24.1601463636       23.6605619105
C    6.0       20.7166685698       23.6202235755       21.2501481583
H    1.0       20.7239431786       24.6967946184       21.0345779096
C    6.0       21.2815239216       22.8600257658       20.0212456024
H    1.0       21.0802173184       21.7880417829       20.1476729933
O    8.0       22.7089801000       23.0935205906       19.9235001902
C    6.0       20.6483631150       23.3075760928       18.6850331865
H    1.0       19.5690826415       23.1124036712       18.7137898295
H    1.0       21.0696741395       22.6977923185       17.8747654025
O    8.0       20.8929768314       24.6957255314       18.4386760922
H    1.0       21.8673020408       24.8138095942       18.4956004925
C    6.0       24.8869037825       17.5935319970       22.0358758038
H    1.0       25.5245421915       16.7399792959       22.2983965058
O    8.0       23.6992832646       17.1768979998       21.3290221381
C    6.0       24.4689570747       18.3710225410       23.3104819014
H    1.0       25.3851686239       18.7686824432       23.7654725000
O    8.0       23.8291331630       17.4925556224       24.2513541575
H    1.0       22.9286336122       17.8670884969       24.4488758153
C    6.0       23.5682621026       19.5743068014       22.9320228674
H    1.0       22.6309209385       19.1771694306       22.5252148965
O    8.0       23.2878239820       20.3707487676       24.0896872813
H    1.0       22.5858525559       19.8680994409       24.5805611307
C    6.0       24.2270555647       20.4552117465       21.8399119709
H    1.0       25.0166841108       21.0580064906       22.3074898255
C    6.0       24.8221000309       19.6207651483       20.6691652979
H    1.0       23.9893841034       19.2321197377       20.0678552794
O    8.0       25.6042586974       18.5161624651       21.1886779316
C    6.0       25.7329062222       20.4367820647       19.7247966579
H    1.0       25.1291232002       21.1986595991       19.2144086625
H    1.0       26.1300550651       19.7654536150       18.9516004005
O    8.0       26.8045630497       21.0550696601       20.4429208674
H    1.0       27.2900557172       20.3281521664       20.8928568619
C    6.0       21.4106009837       13.8537118320       20.5089334887
H    1.0       20.9786971492       12.8965003776       20.1898871044
O    8.0       20.3795396157       14.8204263066       20.8056559411
C    6.0       22.3495641465       13.6626196044       21.7307707308
H    1.0       23.1785493430       13.0241719259       21.3996244747
O    8.0       21.6718616506       13.0037327817       22.8114661359
H    1.0       21.0615767677       13.6742380970       23.2081231216
C    6.0       22.9531971742       15.0221712166       22.1747055797
H    1.0       22.1385266305       15.6421596733       22.5741590786
O    8.0       23.9425082642       14.8077861895       23.1885482086
H    1.0       23.9831140703       15.6481967355       23.7072092661
C    6.0       23.5937154961       15.7826895374       20.9775709705
H    1.0       24.5785200141       15.3524085034       20.7525533054
C    6.0       22.7236968122       15.7425477047       19.6907552650
H    1.0       21.8821598690       16.4343976986       19.8243318351
O    8.0       22.2220972305       14.4034495249       19.4517788666
C    6.0       23.4972338357       16.1880016494       18.4301169448
H    1.0       23.8740971701       17.2080880699       18.5827194915
H    1.0       22.8005896832       16.2172175698       17.5817242992
O    8.0       24.5817628745       15.2975521626       18.1505544439
H    1.0       24.1898426430       14.3964475714       18.1140135272
C    6.0       20.1207657560       18.4811124593       24.3938717299
O    8.0       21.2851242042       18.5468488390       24.7401715323
O    8.0       19.3859669158       17.5556305723       24.6833120444
C    6.0       19.5506075412       19.6334569786       23.5694843891
H    1.0       20.3062526096       20.4232730811       23.5030780517
H    1.0       18.7104902928       20.0466153217       24.1389347929
C    6.0       19.0649689935       19.2457340260       22.1478837162
H    1.0       18.3188904368       18.4470102112       22.2260850675
H    1.0       18.5550616054       20.1071116780       21.7032066372
C    6.0       20.2047921811       18.8104062303       21.2040019739
H    1.0       20.7332680556       17.9441185825       21.6256362736
H    1.0       20.9354119172       19.6236734488       21.1150020913
C    6.0       19.6693588478       18.4569497352       19.8024759093
H    1.0       20.4924016772       18.1936555155       19.1271644384
H    1.0       19.1294918517       19.3051513060       19.3622139501
H    1.0       18.9833489597       17.6023184393       19.8527595772
 $end
$$$$
! Edit this basic GAMESS input file as needed.
! Conformer was generated by a VeraChem VCPack run 
! and contains    142 atoms.
!
 $contrl scftyp=rhf runtyp=optimize nzvar=0
  maxit=200 icharg=0 $end
 $system mwords=50 $end
 $basis gbasis=pm3 $end
 $statpt nstep=200 $end
 $guess guess=huckel $end
 $data
VM2 Rank=3      G=481.500           E=296.424           -TS=185.076             
C1
C    6.0       16.4571367574       15.2718300655       21.8611377099
H    1.0       15.4160758711       15.1425824192       22.1820289576
O    8.0       16.6678697840       16.5599203291       21.2448386880
C    6.0       17.4167385035       15.1349596409       23.0709764741
H    1.0       17.2918083040       14.1209739242       23.4719653406
O    8.0       17.0725888071       16.0823127434       24.0960946238
H    1.0       17.8997266710       16.5840254292       24.3285801170
C    6.0       18.8921602924       15.2813658653       22.6163461062
H    1.0       19.0473770608       16.3099427578       22.2675764093
O    8.0       19.7685367949       15.0068672189       23.7162356805
H    1.0       19.7856376788       15.8432310545       24.2544010966
C    6.0       19.2173225025       14.3306997424       21.4350181508
H    1.0       19.3144056036       13.3071167236       21.8193922541
C    6.0       18.1331007756       14.3723031475       20.3220341267
H    1.0       18.2149723806       15.3326681008       19.7969813374
O    8.0       16.8128895075       14.2493606318       20.9060497601
C    6.0       18.2898062480       13.2523441841       19.2695061989
H    1.0       19.2382036038       13.3946414998       18.7347216022
H    1.0       17.4817616397       13.3466895978       18.5316800990
O    8.0       18.2566863164       11.9587142352       19.8794674923
H    1.0       17.4054425324       11.9075082100       20.3686969507
C    6.0       14.7302009165       20.2385739305       20.9204057468
H    1.0       14.0221784393       21.0501507816       20.7102968018
O    8.0       16.0232905361       20.7409977265       21.3079290002
C    6.0       14.2023704924       19.3372883058       22.0643202261
H    1.0       13.2428108107       18.9174025282       21.7356302931
O    8.0       14.0012115126       20.0895808051       23.2692903864
H    1.0       13.8130392610       19.4097975455       23.9550573260
C    6.0       15.1697722651       18.1599592345       22.3375419598
H    1.0       16.1034825537       18.5762729067       22.7400726619
O    8.0       14.5723082566       17.2912338072       23.3074534289
H    1.0       15.3240544882       16.7998902874       23.7228993079
C    6.0       15.5063623553       17.3883128578       21.0282040578
H    1.0       14.6424801140       16.7848735628       20.7199055352
C    6.0       15.8865052054       18.3536362207       19.8722397564
H    1.0       16.8689690263       18.7902479777       20.0943010765
O    8.0       14.8985229695       19.4068741181       19.7535998863
C    6.0       15.9834077795       17.6469116306       18.5020544628
H    1.0       16.7383330636       16.8517692313       18.5602895516
H    1.0       16.3284031082       18.3739291111       17.7549148313
O    8.0       14.7189912473       17.1006271298       18.1151339872
H    1.0       14.0746734365       17.8407530691       18.1763440899
C    6.0       18.3790908439       24.1241310866       21.4946013813
H    1.0       18.7833119698       25.1439798501       21.5124626026
O    8.0       19.4274507945       23.1330304246       21.5017124390
C    6.0       17.4694640561       23.8998895646       22.7278611001
H    1.0       16.6504436004       24.6283494293       22.6673284617
O    8.0       18.1907233853       24.1024173985       23.9510499820
H    1.0       17.5854201156       23.7722805303       24.6525618301
C    6.0       16.8482398334       22.4851909939       22.7086370695
H    1.0       17.6551058001       21.7603401858       22.8708319497
O    8.0       15.8757669740       22.3743672466       23.7550077418
H    1.0       15.3845621476       21.5302633928       23.5968435194
C    6.0       16.1801338394       22.1709631077       21.3472720640
H    1.0       15.2161507737       22.6948091814       21.3030037046
C    6.0       17.0589244298       22.5775891264       20.1314984742
H    1.0       17.8942906333       21.8687619003       20.0550043100
O    8.0       17.5724623106       23.9205476507       20.3154837192
C    6.0       16.2945012925       22.5520512870       18.7893457674
H    1.0       15.9640493740       21.5260875931       18.5819156044
H    1.0       16.9841886128       22.8417766522       17.9853685939
O    8.0       15.1705061311       23.4366958730       18.8203821977
H    1.0       15.5270672632       24.3226569706       19.0540178441
C    6.0       23.5343905595       22.6573950902       21.0848615249
H    1.0       24.6037967110       22.7901931367       20.8768618995
O    8.0       23.2173868922       21.2726617650       21.3293410314
C    6.0       23.0962037768       23.5212578173       22.3004610000
H    1.0       23.2993776593       24.5681129684       22.0413216437
O    8.0       23.8553267344       23.1809413375       23.4716046447
H    1.0       23.5933010086       22.2611595141       23.7266785803
C    6.0       21.5704091855       23.3865202187       22.5532940320
H    1.0       21.3739098250       22.3639627244       22.9000169165
O    8.0       21.1360294321       24.3302917097       23.5408414347
H    1.0       20.1723338647       24.1640868880       23.6887322709
C    6.0       20.7599363462       23.6223267953       21.2532544533
H    1.0       20.7679185761       24.6955553340       21.0214253705
C    6.0       21.3304406948       22.8467024419       20.0372398971
H    1.0       21.1269335239       21.7765799092       20.1755796917
O    8.0       22.7585678780       23.0775658381       19.9436228307
C    6.0       20.7023458759       23.2797255230       18.6938403155
H    1.0       19.6206781732       23.0981069886       18.7263825472
H    1.0       21.1166237980       22.6522506570       17.8935039535
O    8.0       20.9624955504       24.6608787108       18.4253895356
H    1.0       21.9375687845       24.7700223119       18.4878113397
C    6.0       24.9280695399       17.5972801320       22.1248035057
H    1.0       25.5662891740       16.7491155674       22.4029911408
O    8.0       23.7495203493       17.1687440988       21.4109782549
C    6.0       24.4952413330       18.3874972807       23.3865356437
H    1.0       25.4056852247       18.7934739744       23.8457351894
O    8.0       23.8494288429       17.5175320960       24.3310540454
H    1.0       22.9370586590       17.8786644824       24.4970205424
C    6.0       23.5936536286       19.5828083306       22.9861356059
H    1.0       22.6634986682       19.1776539307       22.5706099355
O    8.0       23.2938846520       20.3875936188       24.1331439912
H    1.0       22.5871509211       19.8851457103       24.6170150772
C    6.0       24.2623281445       20.4556071238       21.8940173393
H    1.0       25.0485443700       21.0612024051       22.3636921369
C    6.0       24.8661861485       19.6103864531       20.7353868624
H    1.0       24.0375359444       19.2144095276       20.1329009081
O    8.0       25.6478823378       18.5121334982       21.2709357058
C    6.0       25.7809964488       20.4188899980       19.7884389573
H    1.0       25.1788044847       21.1747417807       19.2673041538
H    1.0       26.1837490286       19.7411666303       19.0238381571
O    8.0       26.8473860758       21.0458691670       20.5068480566
H    1.0       27.3312187141       20.3244050310       20.9671989201
C    6.0       21.4808871614       13.8353241218       20.5836708524
H    1.0       21.0571426088       12.8742990801       20.2651450820
O    8.0       20.4434494475       14.8057356676       20.8438818024
C    6.0       22.3893179398       13.6598587220       21.8302564085
H    1.0       23.2247758927       13.0157060265       21.5276722258
O    8.0       21.6857019521       13.0164526549       22.9035759983
H    1.0       21.0630492067       13.6908671975       23.2734690897
C    6.0       22.9847735617       15.0248890063       22.2687749508
H    1.0       22.1637266059       15.6490936801       22.6483719752
O    8.0       23.9590857171       14.8214669287       23.2990970589
H    1.0       23.9958415075       15.6684386693       23.8072837252
C    6.0       23.6459798029       15.7716242465       21.0740630190
H    1.0       24.6325715233       15.3358222023       20.8676470270
C    6.0       22.8014961259       15.7210722382       19.7724056204
H    1.0       21.9577527445       16.4157259679       19.8739831897
O    8.0       22.3209870956       14.3729941898       19.5422167569
C    6.0       23.6254091573       16.1415428204       18.5376586885
H    1.0       24.4398299086       15.4211252314       18.3835368506
H    1.0       24.0786081728       17.1246814258       18.7223081945
O    8.0       22.7837578954       16.2008830290       17.3846403295
H    1.0       22.2806409931       15.3560550900       17.3730258218
C    6.0       20.1258042848       18.4949207921       24.3668763407
O    8.0       21.2827327531       18.5465142702       24.7396321703
O    8.0       19.3678503940       17.5875441443       24.6540731636
C    6.0       19.5934836555       19.6464662547       23.5167266390
H    1.0       20.3644902360       20.4214934503       23.4554787642
H    1.0       18.7510670020       20.0808625114       24.0662861003
C    6.0       19.1275435402       19.2508650774       22.0903434667