$$$$
! Edit this basic GAMESS input file as needed.
! Conformer was generated by a VeraChem VCPack run 
! and contains    152 atoms.
!
 $contrl scftyp=rhf runtyp=optimize nzvar=0
  maxit=200 icharg=0 $end
 $system mwords=50 $end
 $basis gbasis=pm3 $end
 $statpt nstep=200 $end
 $guess guess=huckel $end
 $data
VM2 Rank=1      G=595.974           E=393.331           -TS=202.642             
C1
C    6.0       16.1240048570       15.0623473760       20.2058771990
H    1.0       15.0786902634       14.9641900621       19.8858256215
O    8.0       16.4274664738       16.4130458244       20.6212235844
C    6.0       16.4681598028       14.0560706798       21.3332911200
H    1.0       16.3932221880       13.0512149826       20.8972097426
O    8.0       15.5599203056       14.1380950432       22.4407320741
H    1.0       15.7238080592       15.0106134510       22.8789067350
C    6.0       17.9289653602       14.2612251755       21.7994757465
H    1.0       18.0014846523       15.2559470741       22.2588344806
O    8.0       18.2402376609       13.2539531023       22.7692061528
H    1.0       17.4151587118       13.1435258840       23.2950837986
C    6.0       18.9252681874       14.2145915102       20.6020753778
H    1.0       19.1027163496       13.1694226490       20.3158456701
C    6.0       18.4182642926       14.9961240202       19.3550388169
H    1.0       18.5700801261       16.0681015843       19.5268189750
O    8.0       17.0112296510       14.7335159182       19.1163213599
C    6.0       19.1941888663       14.6107113915       18.0792339007
H    1.0       18.9820897842       13.5630200551       17.8271960451
H    1.0       20.2720671912       14.6976285420       18.2719099291
O    8.0       18.8214453925       15.4736731692       17.0031394324
H    1.0       17.8394396855       15.4476774882       16.9599894465
C    6.0       15.0298814667       19.9502854737       22.1943907047
H    1.0       14.4543801725       20.7682984904       22.6463487207
O    8.0       16.2680467204       20.4250028864       21.6264321435
C    6.0       15.3456142284       18.8732381348       23.2603406407
H    1.0       14.3836051091       18.5080979526       23.6429660676
O    8.0       16.1092612310       19.4204545879       24.3490677706
H    1.0       16.0000467349       20.4016924396       24.3133929909
C    6.0       16.1005316012       17.6774318303       22.6359008672
H    1.0       17.1012466807       18.0185504423       22.3523741439
O    8.0       16.2101378584       16.6506323602       23.6239080590
H    1.0       16.5047522814       17.1206894129       24.4365835933
C    6.0       15.4174698967       17.1418590858       21.3495021182
H    1.0       14.5654946212       16.5078387757       21.6280186694
C    6.0       14.9457989025       18.2818038514       20.4032675994
H    1.0       15.8320134815       18.7083129899       19.9156461490
O    8.0       14.2611053435       19.3179499172       21.1497999385
C    6.0       13.9940698576       17.7918764804       19.2896391280
H    1.0       14.5303593518       17.0792133873       18.6490066739
H    1.0       13.7132397003       18.6485263647       18.6623882917
O    8.0       12.8265754978       17.1765015588       19.8413498359
H    1.0       12.4126889582       17.8480343039       20.4282612384
C    6.0       18.3885147964       24.0234906225       21.4216476162
H    1.0       18.6595673086       25.0781548226       21.2869726548
O    8.0       19.5497522604       23.1911326746       21.6079533885
C    6.0       17.4896227247       23.8650538380       22.6730531202
H    1.0       16.6018186533       24.4927817892       22.5218221293
O    8.0       18.1802263273       24.3008299207       23.8554932924
H    1.0       19.1486253852       24.1762597011       23.6938414919
C    6.0       17.0155329056       22.4014113558       22.8380537608
H    1.0       17.8934069870       21.7918493018       23.0801801982
O    8.0       16.0742395979       22.3399058914       23.9147234513
H    1.0       16.4383516613       22.9472991425       24.5981441133
C    6.0       16.3976416268       21.8569658601       21.5203344341
H    1.0       15.4242869782       22.3334380713       21.3416818358
C    6.0       17.3119583516       22.1323117893       20.2992230417
H    1.0       18.2146902677       21.5137478903       20.3812226962
O    8.0       17.6573382534       23.5388339111       20.2757745708
C    6.0       16.6119195596       21.8000061173       18.9646364566
H    1.0       15.8007821258       22.5195750501       18.7901923127
H    1.0       16.1607508963       20.8019320841       19.0299466929
O    8.0       17.5535758394       21.8294349665       17.8905821111
H    1.0       17.9731320591       22.7165215731       17.9042555410
C    6.0       23.6405963386       22.9872311173       21.1310442284
H    1.0       24.7078588120       23.1428287168       20.9274658354
O    8.0       23.3325301497       21.6037057148       21.4015142640
C    6.0       23.1809162870       23.8228023805       22.3511813169
H    1.0       23.3146528695       24.8830873252       22.1002506594
O    8.0       23.9563606445       23.5111184137       23.5190561605
H    1.0       24.0371105875       22.5247510205       23.5699154039
C    6.0       21.6782946341       23.5743416475       22.6165026210
H    1.0       21.5711474906       22.5261340084       22.9159157856
O    8.0       21.2184318192       24.4246363940       23.6713336075
H    1.0       21.9410267625       24.4151631488       24.3382285260
C    6.0       20.8273104702       23.8022443790       21.3413175009
H    1.0       20.7431462738       24.8831181333       21.1671452501
C    6.0       21.4322689933       23.1251017617       20.0784741146
H    1.0       21.2714666337       22.0418053058       20.1381685114
O    8.0       22.8497582399       23.4151098115       20.0035461770
C    6.0       20.7959038476       23.6345642915       18.7698251476
H    1.0       20.9949959983       24.7091906268       18.6620580700
H    1.0       19.7100546064       23.4982510561       18.8164714400
O    8.0       21.3242517570       22.9112242999       17.6572672707
H    1.0       22.3013500650       22.9936306849       17.7196248766
C    6.0       24.9563418352       17.7975624777       21.4068813769
H    1.0       25.6074299170       16.9147501659       21.3645317766
O    8.0       23.5623685731       17.4269444925       21.3205769582
C    6.0       25.2090127932       18.6154462241       22.7033543098
H    1.0       26.2483624602       18.9667783463       22.6640771306
O    8.0       25.0371324744       17.8250166163       23.8885132345
H    1.0       24.0852686207       17.5532979415       23.9170103562
C    6.0       24.2896917146       19.8585949379       22.7392827168
H    1.0       23.2499431364       19.5144865930       22.8079360717
O    8.0       24.6090693028       20.6585283277       23.8818819648
H    1.0       24.7268996242       20.0178573384       24.6184106502
C    6.0       24.4473063483       20.6963517879       21.4462185860
H    1.0       25.4081064837       21.2258532336       21.4933971665
C    6.0       24.3854569070       19.8280885914       20.1584121482
H    1.0       23.3483575736       19.4991252438       20.0118014129
O    8.0       25.2478955451       18.6713368412       20.2954983429
C    6.0       24.8206143256       20.5903169560       18.8870425180
H    1.0       24.1200378282       21.4157785195       18.7063129341
H    1.0       24.7527571674       19.9107675012       18.0270192988
O    8.0       26.1532257623       21.0942628559       19.0179537932
H    1.0       26.7243566568       20.3158512512       19.2030999647
C    6.0       21.0438718916       14.1402368433       21.8640463699
H    1.0       20.6323459124       13.1601058779       22.1346721445
O    8.0       20.1595530503       14.8637857541       20.9820062763
C    6.0       21.3107320826       14.9934445422       23.1353279601
H    1.0       22.0261106775       14.4351621959       23.7532622642
O    8.0       20.1162849110       15.2273958541       23.8983807514
H    1.0       19.5091318551       14.4692039119       23.7259332308
C    6.0       21.9531046045       16.3462834645       22.7580294453
H    1.0       21.2197502940       16.9113515104       22.1733243844
O    8.0       22.2712511598       17.0575628391       23.9577237287
H    1.0       21.4884913411       16.9141873289       24.5362383757
C    6.0       23.2117953261       16.1442073927       21.8804374191
H    1.0       24.0155042890       15.7382215244       22.5090600834
C    6.0       22.9354783288       15.1780001786       20.6949161835
H    1.0       22.2654939627       15.6815525719       19.9850811106
O    8.0       22.3062781281       13.9667930669       21.1836120063
C    6.0       24.2124595959       14.7680692300       19.9275151715
H    1.0       24.6443370209       15.6580428629       19.4506496290
H    1.0       23.9346830080       14.0708572132       19.1257322354
O    8.0       25.1704864614       14.1639241900       20.8016375153
H    1.0       24.7218823037       13.3900472788       21.2095285984
N    7.0       19.9361339402       21.0025042140       26.5856921023
H    1.0       20.9479037511       20.8533516829       26.7174674222
H    1.0       19.5046861844       20.7436979125       27.4863903696
C    6.0       19.4095984142       20.0896553487       25.4915938010
H    1.0       18.3463550256       20.3066537991       25.3572776909
H    1.0       19.5025636681       19.0598036934       25.8456313494
C    6.0       20.1437289794       20.2278199788       24.1446037729
H    1.0       20.0851412687       21.2683636460       23.8101770710
H    1.0       21.2064390765       19.9795744440       24.2682393373
C    6.0       19.5083170442       19.3258877675       23.0699717767
H    1.0       18.4474340407       19.5826938651       22.9854540127
H    1.0       19.5571667515       18.2742253265       23.3855022957
C    6.0       20.1786045163       19.4985128017       21.6907518488
H    1.0       20.1583582692       20.5563361879       21.4046183651
H    1.0       21.2355108399       19.2092199235       21.7535264629
C    6.0       19.4695719669       18.6604590192       20.6053642652
H    1.0       18.4311103242       19.0005192637       20.4899588231
H    1.0       19.4212480189       17.6110138484       20.9239068119
C    6.0       20.1931937334       18.7541377906       19.2461487833
H    1.0       19.6706012834       18.1570321889       18.4870155888
H    1.0       21.2213212311       18.3768762558       19.3208736028
H    1.0       20.2308343118       19.7922918357       18.8890180967
C    6.0       19.6402002617       22.4656513885       26.2721130775
H    1.0       18.5644396643       22.5941875841       26.1332855014
H    1.0       19.9816772115       23.0860461579       27.1034642924
H    1.0       20.1656864885       22.7557280986       25.3600492146
 $end
$$$$
! Edit this basic GAMESS input file as needed.
! Conformer was generated by a VeraChem VCPack run 
! and contains    152 atoms.
!
 $contrl scftyp=rhf runtyp=optimize nzvar=0
  maxit=200 icharg=0 $end
 $system mwords=50 $end
 $basis gbasis=pm3 $end
 $statpt nstep=200 $end
 $guess guess=huckel $end
 $data
VM2 Rank=2      G=596.132           E=393.390           -TS=202.743             
C1
C    6.0       16.1075951859       15.1075338675       20.1565495800
H    1.0       15.0589871559       15.0203403270       19.8441203763
O    8.0       16.4244465690       16.4528463163       20.5795313550
C    6.0       16.4515506053       14.0893569445       21.2732901382
H    1.0       16.3730204060       13.0886042302       20.8284451674
O    8.0       15.5460209975       14.1647019837       22.3835240666
H    1.0       15.7148919097       15.0322343943       22.8296198780
C    6.0       17.9136616738       14.2869169343       21.7375493756
H    1.0       17.9905397221       15.2801819423       22.1990986191
O    8.0       18.2230377052       13.2773657952       22.7057854151
H    1.0       17.3968733809       13.1659019921       23.2296751878
C    6.0       18.9085492731       14.2403521128       20.5392697450
H    1.0       19.0942677293       13.1941663921       20.2624888532
C    6.0       18.3957450079       15.0120504848       19.2860633810
H    1.0       18.5599850033       16.0836695764       19.4509694547
O    8.0       16.9814248011       14.7803093166       19.0567121859
C    6.0       19.1522317970       14.6241824106       17.9967132277
H    1.0       20.2240720120       14.8176397863       18.1386211883
H    1.0       18.8061138189       15.2677698541       17.1769508998
O    8.0       18.9376416199       13.2479314915       17.6701591648
H    1.0       17.9626860191       13.1258885207       17.6312495834
C    6.0       15.0382140483       19.9804123591       22.1938931882
H    1.0       14.4632939398       20.7935605398       22.6552285239
O    8.0       16.2770835019       20.4604804363       21.6323879126
C    6.0       15.3531768551       18.8905959303       23.2470559959
H    1.0       14.3908596536       18.5225344311       23.6260932159
O    8.0       16.1181605728       19.4243424839       24.3414995385
H    1.0       16.0046662133       20.4054847170       24.3209738268
C    6.0       16.1060007576       17.7007199183       22.6085580579
H    1.0       17.1070866243       18.0427923454       22.3276913521
O    8.0       16.2141480312       16.6630061371       23.5852033611
H    1.0       16.5117988365       17.1232843542       24.4023546167
C    6.0       15.4202013269       17.1810630805       21.3171775223
H    1.0       14.5648414732       16.5494129328       21.5907559622
C    6.0       14.9525351844       18.3328266676       20.3834911712
H    1.0       15.8402389473       18.7629302500       19.9018794703
O    8.0       14.2692312351       19.3615070374       21.1414242833
C    6.0       14.0006587299       17.8580007759       19.2634100402
H    1.0       14.5359482079       17.1517636735       18.6148427560
H    1.0       13.7220754397       18.7225381891       18.6460535300
O    8.0       12.8314651529       17.2385645823       19.8069301693
H    1.0       12.4180936691       17.9042241852       20.4008606187
C    6.0       18.3981013362       24.0630903924       21.4789462871
H    1.0       18.6666510866       25.1198789302       21.3564165294
O    8.0       19.5608328820       23.2328742501       21.6639737454
C    6.0       17.4942482567       23.8889740022       22.7247211997
H    1.0       16.6071101891       24.5187560738       22.5782043136
O    8.0       18.1815911754       24.3098130374       23.9145820834
H    1.0       19.1498781731       24.1812294144       23.7559000832
C    6.0       17.0194488989       22.4233374025       22.8705672761
H    1.0       17.8962445446       21.8112772803       23.1108627190
O    8.0       16.0725305177       22.3498033892       23.9415505504
H    1.0       16.4335430518       22.9484193185       24.6342904812
C    6.0       16.4091745916       21.8933492185       21.5431705846
H    1.0       15.4378646857       22.3730278737       21.3620381062
C    6.0       17.3339343592       22.1799068519       20.3328369543
H    1.0       18.2374479860       21.5636346429       20.4202436810
O    8.0       17.6751729100       23.5872757123       20.3241766065
C    6.0       16.6509354164       21.8546704013       18.9876940309
H    1.0       15.8565386336       22.5883495343       18.7958425797
H    1.0       16.1799099967       20.8656118651       19.0491343405
O    8.0       17.6119910965       21.8602293744       17.9302315880
H    1.0       18.0479018015       22.7393730103       17.9437324550
C    6.0       23.6475355876       23.0262725817       21.1728110665
H    1.0       24.7151067898       23.1806565918       20.9699368467
O    8.0       23.3336719893       21.6394095822       21.4187755886
C    6.0       23.1936188575       23.8429713482       22.4078418027
H    1.0       23.3298600514       24.9068419405       22.1740142504
O    8.0       23.9709215478       23.5102010664       23.5685683775
H    1.0       24.0470208493       22.5228084739       23.6045989972
C    6.0       21.6909525856       23.5945948817       22.6723588035
H    1.0       21.5810781990       22.5415945405       22.9535259908
O    8.0       21.2354257258       24.4272863643       23.7431005861
H    1.0       21.9587529092       24.4032572697       24.4087930220
C    6.0       20.8377380869       23.8477879107       21.4035269037
H    1.0       20.7539476093       24.9319546068       21.2509454142
C    6.0       21.4380361581       23.1939237683       20.1259746928
H    1.0       21.2715555229       22.1105119276       20.1637822725
O    8.0       22.8569595359       23.4776165625       20.0544259414
C    6.0       20.8039016849       23.7338564528       18.8283855657
H    1.0       21.0207618288       24.8064784118       18.7358996764
H    1.0       19.7162771123       23.6158820647       18.8777259340
O    8.0       21.3139124673       23.0185708686       17.7022173701
H    1.0       22.2924577302       23.0876419642       17.7570815935
C    6.0       24.9453226446       17.8277402205       21.3677236140
H    1.0       25.5942193878       16.9440487052       21.3121777610
O    8.0       23.5504094734       17.4614553241       21.2756744060
C    6.0       25.2008197312       18.6258607569       22.6760384716
H    1.0       26.2410675981       18.9749982279       22.6411167178
O    8.0       25.0279205972       17.8190086988       23.8499158049
H    1.0       24.0745285750       17.5526438724       23.8770842340
C    6.0       24.2849847922       19.8708359964       22.7308203251
H    1.0       23.2442679282       19.5287634975       22.7941221517
O    8.0       24.6067150756       20.6520985938       23.8855603635
H    1.0       24.7232958562       19.9997310534       24.6119648096
C    6.0       24.4452758234       20.7274742702       21.4505512531
H    1.0       25.4079643862       21.2527913998       21.5054250623
C    6.0       24.3804083994       19.8786453528       20.1500418377
H    1.0       23.3422623209       19.5551556895       19.9989864327
O    8.0       25.2391218429       18.7171488083       20.2693680556
C    6.0       24.8175570067       20.6586897873       18.8902098499
H    1.0       24.1199677618       21.4895034123       18.7227804834
H    1.0       24.7466346804       19.9927273133       18.0198707177
O    8.0       26.1521177471       21.1556004786       19.0279570755
H    1.0       26.7204376497       20.3723485612       19.2009711292
C    6.0       21.0266446500       14.1725465262       21.7951581856
H    1.0       20.6171516105       13.1901075912       22.0606137834
O    8.0       20.1383262056       14.8995536520       20.9194085152
C    6.0       21.2943960144       15.0172320431       23.0719638238
H    1.0       22.0098892952       14.4543785304       23.6856068588
O    8.0       20.1008771252       15.2468256912       23.8378404344
H    1.0       19.4934793710       14.4895779197       23.6618837360
C    6.0       21.9374800896       16.3720704333       22.7036661045
H    1.0       21.2042173819       16.9412034353       22.1227309483
O    8.0       22.2562217342       17.0745124908       23.9084168997
H    1.0       21.4738002514       16.9264482872       24.4862106822
C    6.0       23.1958997914       16.1749116107       21.8246130074
H    1.0       23.9983792845       15.7612381678       22.4497588577
C    6.0       22.9169527087       15.2187381856       20.6317915294
H    1.0       22.2453029953       15.7276189276       19.9274871961
O    8.0       22.2888231779       14.0043738802       21.1129066427
C    6.0       24.1921486778       14.8141429400       19.8586042832
H    1.0       24.6230605954       15.7074607063       19.3871591054
H    1.0       23.9122869910       14.1226668191       19.0525500372
O    8.0       25.1521603922       14.2036517734       20.7261530366
H    1.0       24.7044057365       13.4267224143       21.1291531725
N    7.0       19.9427159527       20.9490446332       26.5945350339
H    1.0       20.9544926109       20.7977922623       26.7238722832
H    1.0       19.5111807506       20.6749605556       27.4906608633
C    6.0       19.4163454962       20.0547834668       25.4851117309
H    1.0       18.3534177701       20.2750373164       25.3537558365
H    1.0       19.5080958391       19.0190363430       25.8218521482
C    6.0       20.1515407537       20.2150826003       24.1411985345
H    1.0       20.0989386784       21.2623391187       23.8272989804
H    1.0       21.2128237096       19.9586345615       24.2600340070
C    6.0       19.5111071414       19.3387017787       23.0485481425
H    1.0       18.4515884127       19.6029663522       22.9709344878
H    1.0       19.5546127576       18.2802750757       23.3411901518
C    6.0       20.1807433471       19.5390685727       21.6728404009
H    1.0       20.1690397937       20.6041040297       21.4144993629
H    1.0       21.2354918122       19.2402010591       21.7260129460
C    6.0       19.4634606432       18.7356365935       20.5666940472
H    1.0       18.4210893470       19.0714852473       20.4780305840
H    1.0       19.4274304436       17.6740771147       20.8450430327
C    6.0       20.1675549205       18.8902339990       19.2029524492
H    1.0       19.6371657941       18.3234240088       18.4271982145
H    1.0       21.1992811665       18.5180446429       19.2482096017
H    1.0       20.1935789152       19.9428204472       18.8891524546
C    6.0       19.6464562626       22.4173060193       26.3056853520
H    1.0       19.9871608682       23.0235130358       27.1477549154
H    1.0       20.1724886457       22.7231915744       25.3990997168
H    1.0       18.5707228309       22.5477777286       26.1684199559
 $end
$$$$
! Edit this basic GAMESS input file as needed.
! Conformer was generated by a VeraChem VCPack run 
! and contains    152 atoms.
!
 $contrl scftyp=rhf runtyp=optimize nzvar=0
  maxit=200 icharg=0 $end
 $system mwords=50 $end
 $basis gbasis=pm3 $end
 $statpt nstep=200 $end
 $guess guess=huckel $end
 $data
VM2 Rank=3      G=596.312           E=393.739           -TS=202.573             
C1
C    6.0       16.2737767326       15.1136349475       20.6109352377
H    1.0       15.2471962403       14.9255100849       20.2712754388
O    8.0       16.4636213711       16.4805126409       21.0306096406
C    6.0       16.6259715397       14.2028581393       21.8121162032
H    1.0       16.5305364591       13.1622366626       21.4757270092
O    8.0       15.7285590767       14.4279193681       22.9115204259
H    1.0       15.5729224055       15.4044078895       22.9749348976
C    6.0       18.0903352972       14.4286681896       22.2599135630
H    1.0       18.1600056537       15.4438033964       22.6674256289
O    8.0       18.4103715172       13.4748759143       23.2785060100
H    1.0       17.5916235969       13.4036814597       23.8205592580
C    6.0       19.0779842729       14.3288498583       21.0623729341
H    1.0       19.2008677563       13.2788375259       20.7651272144
C    6.0       18.5917191585       15.1449780073       19.8354921822
H    1.0       18.6922360217       16.2151332292       20.0562973042
O    8.0       17.2103000611       14.8202439698       19.5539230874
C    6.0       19.4141654841       14.8365202445       18.5676791277
H    1.0       19.2613104341       13.7874938645       18.2807131588
H    1.0       20.4816270670       14.9707255761       18.7865435484
O    8.0       19.0220268326       15.7113951690       17.5082575909
H    1.0       18.0540737280       15.5871885959       17.3967655646
C    6.0       14.6907292403       20.2197613614       20.9343111470
H    1.0       14.0271325532       21.0874558500       20.8255161814
O    8.0       16.0657212621       20.6248611908       21.1084796634
C    6.0       14.2505251610       19.3199059053       22.1211778200
H    1.0       13.2519833050       18.9327516368       21.8798180858
O    8.0       14.1744049980       20.0470848225       23.3556679357
H    1.0       15.0882930740       20.3693168134       23.5592577985
C    6.0       15.2084232436       18.1128478970       22.2542852904
H    1.0       16.2023514863       18.4958490014       22.5133978213
O    8.0       14.7445596339       17.2356284497       23.2856251503
H    1.0       14.4518326742       17.8278271188       24.0136037379
C    6.0       15.3163838415       17.3429076574       20.9154286633
H    1.0       14.3873469542       16.7751889439       20.7732420781
C    6.0       15.5501694751       18.2831289860       19.6984459418
H    1.0       16.5827042525       18.6546061028       19.7400557621
O    8.0       14.6273875870       19.4012182788       19.7470224382
C    6.0       15.3579651993       17.5814185651       18.3356388190
H    1.0       16.1150342492       16.7949723189       18.2263690851
H    1.0       15.5305992734       18.3126411891       17.5346614798
O    8.0       14.0458809261       17.0223197689       18.2227934445
H    1.0       13.4176724667       17.7674375752       18.3512174257
C    6.0       18.5086634299       23.8076951940       22.1335325362
H    1.0       18.9336612406       24.7584908485       22.4789949088
O    8.0       19.4708652183       23.0323498669       21.3882212890
C    6.0       18.0062984641       22.9666073171       23.3360168398
H    1.0       17.2306878580       23.5556530681       23.8427052615
O    8.0       19.0600020418       22.6721546233       24.2676270574
H    1.0       19.7592271047       23.3572916343       24.1394420476
C    6.0       17.3714433008       21.6478065359       22.8456286689
H    1.0       18.1685296011       21.0481961665       22.3929180272
O    8.0       16.8207921686       20.9587928411       23.9712784648
H    1.0       17.4934164113       21.0796121960       24.6786663881
C    6.0       16.2919929869       21.8901597514       21.7625037990
H    1.0       15.3837840528       22.2728987229       22.2468885705
C    6.0       16.7717813095       22.8850436603       20.6677062572
H    1.0       17.5172479128       22.3756418492       20.0424570524
O    8.0       17.3719689746       24.0556116633       21.2778501182
C    6.0       15.6341211687       23.3659171585       19.7395985599
H    1.0       15.2416701805       22.5062842921       19.1801649851
H    1.0       16.0496285364       24.0703151031       19.0065841726
O    8.0       14.5846276656       23.9878863645       20.4867624299
H    1.0       14.9999783639       24.7297973213       20.9803905866
C    6.0       23.5843087664       22.8552837264       20.8964035737
H    1.0       24.6401406617       23.0362591106       20.6579839940
O    8.0       23.3328083160       21.4754422164       21.2387914485
C    6.0       23.1379368776       23.7310403382       22.0912781269
H    1.0       23.2545567930       24.7799175647       21.7887033081
O    8.0       23.9502891324       23.4870437013       23.2501280563
H    1.0       24.1073303638       22.5100557813       23.3042719302
C    6.0       21.6426402704       23.4940336852       22.4149795013
H    1.0       21.5336392790       22.4664222127       22.7887515086
O    8.0       21.2503822690       24.4240644411       23.4306453752
H    1.0       22.0180979405       24.4590032578       24.0466456201
C    6.0       20.7543648939       23.6450705625       21.1448308508
H    1.0       20.6442353477       24.7088608913       20.8954853477
C    6.0       21.3460852335       22.9037261467       19.9147689184
H    1.0       21.2162006514       21.8252838150       20.0541140917
O    8.0       22.7521068386       23.2163817564       19.7752813592
C    6.0       20.6432569954       23.3014187672       18.6009902380
H    1.0       20.8177899657       24.3674314927       18.4027505577
H    1.0       19.5605770006       23.1542906053       18.7113442151
O    8.0       21.1362503200       22.5011908213       17.5245012393
H    1.0       22.1108220551       22.6260036558       17.5175474022
C    6.0       25.0898912916       17.7159605442       21.2904785513
H    1.0       25.7636171709       16.8517896813       21.2237327613
O    8.0       23.7125977380       17.3046088469       21.4172109611
C    6.0       25.4662164619       18.6294735520       22.4872285694
H    1.0       26.4774322422       19.0113652498       22.2952710333
O    8.0       25.4751541116       17.9131295103       23.7306595561
H    1.0       24.5611341445       17.5584787182       23.8715741952
C    6.0       24.5074980116       19.8426509288       22.5577562267
H    1.0       23.4969195649       19.4743155416       22.7810278435
O    8.0       24.9395846666       20.7294401405       23.5938819065
H    1.0       25.1605185167       20.1464580221       24.3544756792
C    6.0       24.4712763583       20.5932733659       21.2025400896
H    1.0       25.4147712075       21.1436961465       21.0912160159
C    6.0       24.2834644130       19.6348159079       19.9929175057
H    1.0       23.2513357134       19.2626277444       19.9988627081
O    8.0       25.2023670474       18.5180958364       20.0952685823
C    6.0       24.5269183566       20.3193686290       18.6297165283
H    1.0       23.7826857041       21.1137138646       18.4896204338
H    1.0       24.3713887054       19.5817692540       17.8311083272
O    8.0       25.8483029072       20.8624525885       18.5535460465
H    1.0       26.4630129645       20.1131003370       18.7177641612
C    6.0       21.2538805799       14.0758843827       22.1750455908
H    1.0       20.7997477402       13.1135834374       22.4433692143
O    8.0       20.3369012193       14.9163009315       21.4446674196
C    6.0       21.7175692325       14.8325330650       23.4453101664
H    1.0       22.4806910768       14.2122045828       23.9332027880
O    8.0       20.6340623216       15.0541447256       24.3625434918
H    1.0       19.9210028597       14.4143839084       24.1246219959
C    6.0       22.3629553146       16.1814848236       23.0583161165