$$$$
! Edit this basic GAMESS input file as needed.
! Conformer was generated by a VeraChem VCPack run 
! and contains    146 atoms.
!
 $contrl scftyp=rhf runtyp=optimize nzvar=0
  maxit=200 icharg=0 $end
 $system mwords=50 $end
 $basis gbasis=pm3 $end
 $statpt nstep=200 $end
 $guess guess=huckel $end
 $data
VM2 Rank=1      G=547.799           E=354.410           -TS=193.389             
C1
C    6.0       16.1679292763       14.9886271105       20.6231731845
H    1.0       15.1072898368       14.8767403239       20.3632651384
O    8.0       16.5083822358       16.3640370156       20.9006401682
C    6.0       16.5515307582       14.1001706185       21.8338686903
H    1.0       16.4226954760       13.0562021087       21.5193829327
O    8.0       15.7126057450       14.3438625801       22.9720878559
H    1.0       15.8668081416       15.2817752446       23.2506022741
C    6.0       18.0413661900       14.3061035327       22.1985537597
H    1.0       18.1580104849       15.3311037097       22.5781300464
O    8.0       18.4011000382       13.3682372807       23.2190898825
H    1.0       17.6246511326       13.3397536468       23.8236748623
C    6.0       18.9671458203       14.1424076726       20.9584239337
H    1.0       19.1240407101       13.0749478869       20.7532857896
C    6.0       18.4115591275       14.8175605971       19.6738662449
H    1.0       18.5787822193       15.8980019409       19.7475669232
O    8.0       16.9956151907       14.5466438934       19.5285031941
C    6.0       19.1229220559       14.3119955776       18.4020225277
H    1.0       18.9120266790       13.2425015478       18.2684601575
H    1.0       20.2082888384       14.4261130060       18.5259387188
O    8.0       18.6805189025       15.0571635992       17.2656495621
H    1.0       17.6995897658       14.9938150335       17.2638308489
C    6.0       15.0280771162       20.0946699023       21.8072736923
H    1.0       14.4251304764       20.9680992589       22.0855149037
O    8.0       16.2999028508       20.4815346781       21.2451544659
C    6.0       15.2802467855       19.2000933702       23.0472554122
H    1.0       14.2986043820       18.8809669243       23.4210829594
O    8.0       15.9704825886       19.9185791612       24.0828297176
H    1.0       15.8384935336       20.8809340533       23.9044388418
C    6.0       16.0849228546       17.9385278854       22.6606614815
H    1.0       17.0963507824       18.2589285684       22.3885369267
O    8.0       16.1530049466       17.0676525008       23.7925617302
H    1.0       16.3896328145       17.6577133843       24.5435389947
C    6.0       15.4702126898       17.2018341565       21.4421250902
H    1.0       14.6024488895       16.6195060197       21.7795758096
C    6.0       15.0527105329       18.1688255282       20.2984010994
H    1.0       15.9640966736       18.5249003636       19.8008839838
O    8.0       14.3225822138       19.2996110571       20.8319446580
C    6.0       14.1690644495       17.4984173130       19.2230608630
H    1.0       14.7485574321       16.7101731194       18.7243336680
H    1.0       13.9113614197       18.2459045159       18.4608201609
O    8.0       12.9816218476       16.9469458205       19.7992917139
H    1.0       12.5218386817       17.6907867322       20.2486740241
C    6.0       18.5350484830       23.9821509653       20.8505167672
H    1.0       18.8957271393       24.9882739301       20.6000130161
O    8.0       19.6006938233       23.1317870694       21.3119726011
C    6.0       17.4462288902       24.0358859290       21.9520369597
H    1.0       16.6145675506       24.6335919099       21.5567277472
O    8.0       17.9388084701       24.6572230815       23.1499463659
H    1.0       18.7672101639       24.1821026575       23.4141475656
C    6.0       16.9075874146       22.6168326318       22.2617208849
H    1.0       17.7195650102       22.0362943358       22.7214330921
O    8.0       15.8171823353       22.7360225258       23.1822513378
H    1.0       16.0982623256       23.4343820472       23.8168752730
C    6.0       16.4681137542       21.8848672046       20.9600785481
H    1.0       15.5369854146       22.3268364886       20.5809103094
C    6.0       17.5497931852       21.9782800048       19.8513911715
H    1.0       18.4094200803       21.3647621681       20.1468464871
O    8.0       17.9484251685       23.3613336669       19.6875055683
C    6.0       17.0422068061       21.4720280807       18.4842202114
H    1.0       16.2161626608       22.1112425443       18.1449510411
H    1.0       16.6498925154       20.4532788740       18.5981954631
O    8.0       18.1085272082       21.4806416506       17.5304385492
H    1.0       18.4629525847       22.3978512652       17.5359499824
C    6.0       23.5939100183       22.8894097109       22.0646621706
H    1.0       24.6654229303       22.9946158435       22.2784901951
O    8.0       23.2560920879       21.5507350280       21.6458418235
C    6.0       22.7591044129       23.2431282887       23.3197189047
H    1.0       22.9398861203       24.3013669272       23.5491796275
O    8.0       23.1467671591       22.4421345689       24.4471734040
H    1.0       23.7279170434       21.7179363394       24.1059816571
C    6.0       21.2521218281       23.0650690829       23.0309939058
H    1.0       21.0679439970       21.9920008875       22.9132720298
O    8.0       20.4901798118       23.5538105372       24.1386064251
H    1.0       20.9388400458       23.1864412213       24.9330794777
C    6.0       20.8129721044       23.7851046937       21.7290144884
H    1.0       20.6511973930       24.8470796345       21.9575952046
C    6.0       21.8234179414       23.6365651794       20.5530713472
H    1.0       21.6988940634       22.6330148506       20.1253244535
O    8.0       23.1875308060       23.7957284008       21.0192752312
C    6.0       21.5939272595       24.6515481570       19.4113505665
H    1.0       20.6134305119       24.4628529131       18.9547699331
H    1.0       22.3518032693       24.4858130761       18.6339302188
O    8.0       21.6633859809       25.9963953972       19.8933764727
H    1.0       22.5503390959       26.0966418692       20.3055772115
C    6.0       24.8867328860       17.8178622499       20.8887072307
H    1.0       25.5254960869       16.9736767031       20.5988398222
O    8.0       23.5246424279       17.3931565203       21.1063021315
C    6.0       25.4430151265       18.5280299058       22.1557230308
H    1.0       26.4459089847       18.8945284990       21.9006959105
O    8.0       25.5493188188       17.6390800384       23.2776168793
H    1.0       24.6269063880       17.3670799339       23.5151685312
C    6.0       24.5732551684       19.7514946836       22.5286861356
H    1.0       23.5913589654       19.3814042140       22.8546084988
O    8.0       25.1968517900       20.4713222514       23.5965052491
H    1.0       25.5177720635       19.7803569379       24.2191000548
C    6.0       24.3572586904       20.6873187754       21.3121809391
H    1.0       25.2764388644       21.2522209503       21.1065934412
C    6.0       23.9506947632       19.9108884802       20.0330251210
H    1.0       22.9241229505       19.5486424038       20.1556407104
O    8.0       24.8601037612       18.8002289152       19.8316721824
C    6.0       23.9963776924       20.7895604981       18.7666168755
H    1.0       25.0399526782       21.0419130098       18.5354718579
H    1.0       23.4608322348       21.7286528916       18.9540940899
O    8.0       23.3891305982       20.0951470103       17.6747378211
H    1.0       23.8633625542       19.2380068878       17.5971219944
C    6.0       21.2087444889       14.0543920410       21.9497838138
H    1.0       20.8290972611       13.0697493495       22.2515221224
O    8.0       20.2111887836       14.8137716273       21.2386286300
C    6.0       21.6755003812       14.8593714964       23.1921999380
H    1.0       22.4727361563       14.2776397278       23.6730489237
O    8.0       20.6089092199       15.0640211123       24.1327324020
H    1.0       19.9060577344       14.4012888582       23.9279929950
C    6.0       22.2609223381       16.2255671755       22.7724363005
H    1.0       21.4376555747       16.8269174862       22.3694235590
O    8.0       22.8166034576       16.8704617311       23.9227689932
H    1.0       22.1325564647       16.7583717500       24.6207698053
C    6.0       23.3348048667       16.0785451917       21.6671154986
H    1.0       24.2547246233       15.6864024794       22.1199696802
C    6.0       22.8764294833       15.1364242014       20.5186111441
H    1.0       22.0957877467       15.6493097081       19.9409782221
O    8.0       22.3466800331       13.9054177954       21.0734720357
C    6.0       24.0095645300       14.7617795617       19.5374221144
H    1.0       24.3400834545       15.6666245222       19.0105230574
H    1.0       23.6087928024       14.0732614871       18.7814456950
O    8.0       25.1117415293       14.1599760312       20.2224529012
H    1.0       24.7515058659       13.3715572925       20.6862762855
N    7.0       19.2958124428       18.8625321364       16.8799636829
H    1.0       18.9451370644       19.8352280113       16.8947295975
H    1.0       20.2688430672       18.8910455704       16.5606768425
H    1.0       18.7528088585       18.3556531410       16.1743026163
C    6.0       19.1650469708       18.2337240481       18.2492828236
H    1.0       19.4283805521       17.1755764317       18.1728192889
H    1.0       18.1149641266       18.3091628736       18.5438695468
C    6.0       20.0510353023       18.9178346115       19.3029056235
H    1.0       21.0871813844       18.5739737839       19.1875798955
H    1.0       20.0536797628       20.0018121499       19.1264810081
C    6.0       19.5451332044       18.6384121164       20.7335883054
H    1.0       19.5968359682       17.5637900327       20.9528678515
H    1.0       18.4886427852       18.9270982797       20.7968212906
C    6.0       20.3507818889       19.4253995525       21.7872772726
H    1.0       21.3949550531       19.0883864350       21.7865371216
H    1.0       20.3624886277       20.4874496955       21.5133592529
C    6.0       19.7633916418       19.2664795076       23.2052963022
H    1.0       19.7020745294       18.2089635553       23.4949691927
H    1.0       20.3913471421       19.7813931184       23.9438474935
H    1.0       18.7556157562       19.6974768230       23.2656496147
 $end
$$$$
! Edit this basic GAMESS input file as needed.
! Conformer was generated by a VeraChem VCPack run 
! and contains    146 atoms.
!
 $contrl scftyp=rhf runtyp=optimize nzvar=0
  maxit=200 icharg=0 $end
 $system mwords=50 $end
 $basis gbasis=pm3 $end
 $statpt nstep=200 $end
 $guess guess=huckel $end
 $data
VM2 Rank=2      G=548.054           E=354.918           -TS=193.136             
C1
C    6.0       16.1662942071       14.9264375900       20.7021663860
H    1.0       15.1065110682       14.7964758148       20.4497321053
O    8.0       16.4905190196       16.3110707095       20.9568990482
C    6.0       16.5664006489       14.0531698322       21.9180563865
H    1.0       16.4540714114       13.0052519633       21.6103155388
O    8.0       15.7227756788       14.2886701435       23.0539922769
H    1.0       15.8715263937       15.2262409820       23.3360323078
C    6.0       18.0540207006       14.2843602243       22.2756242821
H    1.0       18.1592205577       15.3160634937       22.6399432579
O    8.0       18.4310584167       13.3657676902       23.3073004433
H    1.0       17.6579997967       13.3345581813       23.9159764780
C    6.0       18.9745486831       14.1138986421       21.0325588145
H    1.0       19.1391805942       13.0454092433       20.8390608673
C    6.0       18.4062704913       14.7688187177       19.7429443080
H    1.0       18.5631783075       15.8516558030       19.8032765824
O    8.0       16.9921936154       14.4819434690       19.6076059029
C    6.0       19.1166373415       14.2552677524       18.4737641103
H    1.0       18.9119538137       13.1832331088       18.3513779159
H    1.0       20.2016760227       14.3772551442       18.5928383322
O    8.0       18.6660953456       14.9865464459       17.3316661656
H    1.0       17.6851618790       14.9222890671       17.3362458215
C    6.0       15.0251777018       20.0452484971       21.8975727159
H    1.0       14.4215641375       20.9150294968       22.1858026334
O    8.0       16.2916387164       20.4388223769       21.3294412542
C    6.0       15.2875902993       19.1441145847       23.1293386553
H    1.0       14.3086632937       18.8282206755       23.5128888708
O    8.0       15.9920180730       19.8565386665       24.1596021513
H    1.0       15.8672219841       20.8200073431       23.9817657111
C    6.0       16.0816311923       17.8799255788       22.7283499566
H    1.0       17.0942513689       18.1962719199       22.4551892375
O    8.0       16.1483750292       17.0038706342       23.8556388642
H    1.0       16.3941961630       17.5886784526       24.6079098084
C    6.0       15.4590768681       17.1545320593       21.5046439949
H    1.0       14.5825954784       16.5795516396       21.8324335024
C    6.0       15.0537984470       18.1356485130       20.3696316236
H    1.0       15.9659366782       18.4919145407       19.8733925915
O    8.0       14.3169551477       19.2527484330       20.9234517246
C    6.0       14.1581249752       17.4729366084       19.3030569921
H    1.0       13.2236367706       17.1353362622       19.7710269197
H    1.0       14.6692915002       16.5911715309       18.8949039312
O    8.0       13.8868944534       18.4026908423       18.2527166318
H    1.0       13.5493029272       19.2158786076       18.6908774191
C    6.0       18.4877022770       23.9535099633       20.8728278438
H    1.0       18.8364205770       24.9611734516       20.6118493316
O    8.0       19.5683490604       23.1117467843       21.3148418006
C    6.0       17.4196682989       24.0030591705       21.9950639630
H    1.0       16.5748674966       24.5908292845       21.6129547057
O    8.0       17.9286807092       24.6348180764       23.1804973873
H    1.0       18.7622814867       24.1638592869       23.4356027886
C    6.0       16.9012225080       22.5802426116       22.3208508827
H    1.0       17.7286312543       22.0088596499       22.7642081655
O    8.0       15.8297405175       22.6890477722       23.2646531440
H    1.0       16.1173608120       23.3901828126       23.8931346975
C    6.0       16.4413077871       21.8407258817       21.0310260634
H    1.0       15.4987411879       22.2731152254       20.6694520457
C    6.0       17.4984858607       21.9383278910       19.8994812518
H    1.0       18.3686336497       21.3324646296       20.1791539676
O    8.0       17.8829016215       23.3242368865       19.7236062828
C    6.0       16.9676909779       21.4237166032       18.5440263645
H    1.0       16.1287865354       22.0540446065       18.2201361145
H    1.0       16.5871988214       20.4012779394       18.6667660019
O    8.0       18.0152091097       21.4419020513       17.5694847152
H    1.0       18.3609341752       22.3624040560       17.5677755161
C    6.0       23.5688697665       22.8889299994       22.0182054658
H    1.0       24.6427530096       22.9966305875       22.2185065682
O    8.0       23.2297219777       21.5507892535       21.5981930914
C    6.0       22.7488164677       23.2367452716       23.2846677701
H    1.0       22.9280579414       24.2953673165       23.5135862463
O    8.0       23.1532059810       22.4358276790       24.4062515458
H    1.0       23.7452785150       21.7234173636       24.0591900914
C    6.0       21.2392707238       23.0527557518       23.0145507481
H    1.0       21.0588069167       21.9791018166       22.8964068887
O    8.0       20.4896016399       23.5347484362       24.1333871356
H    1.0       20.9511674007       23.1679706846       24.9207474326
C    6.0       20.7799584915       23.7736417490       21.7199272128
H    1.0       20.6124759137       24.8336882698       21.9532784074
C    6.0       21.7773124119       23.6358880954       20.5314234134
H    1.0       21.6520054417       22.6341405978       20.0997024229
O    8.0       23.1464532277       23.7981017912       20.9816752341
C    6.0       21.5294152499       24.6558849363       19.3980845219
H    1.0       20.5438046091       24.4658019930       18.9532114888
H    1.0       22.2778744825       24.4970789631       18.6101694052
O    8.0       21.6000371853       25.9984647150       19.8862241785
H    1.0       22.4916764402       26.0997991546       20.2879254366
C    6.0       24.8663481804       17.8188062694       20.8465467613
H    1.0       25.5043196884       16.9753059962       20.5529906969
O    8.0       23.5104725304       17.3893546619       21.0913726711
C    6.0       25.4406336396       18.5425728750       22.0976402347
H    1.0       26.4373502644       18.9112622899       21.8223468107
O    8.0       25.5700475630       17.6641069217       23.2253833503
H    1.0       24.6530221639       17.3903923199       23.4811414382
C    6.0       24.5718776716       19.7653749376       22.4750361337
H    1.0       23.5976961698       19.3938740037       22.8219620635
O    8.0       25.2121236149       20.4967965492       23.5249766166
H    1.0       25.5490403485       19.8122572614       24.1462881210
C    6.0       24.3293966806       20.6893637169       21.2543027708
H    1.0       25.2416945479       21.2572110942       21.0272884882
C    6.0       23.9046292614       19.8994360534       19.9893084953
H    1.0       22.8821976993       19.5328102344       20.1325631916
O    8.0       24.8164745755       18.7918944728       19.7817892510
C    6.0       23.9236179075       20.7674681805       18.7149027378
H    1.0       24.9615229652       21.0249071821       18.4646303136
H    1.0       23.3846174929       21.7044580924       18.9032826720
O    8.0       23.3035642477       20.0596461429       17.6389559427
H    1.0       23.7815562366       19.2045572636       17.5617354665
C    6.0       21.2247462736       14.0491601258       22.0020680291
H    1.0       20.8532650962       13.0662176376       22.3191639213
O    8.0       20.2138529943       14.7984357540       21.2993664005
C    6.0       21.7052937610       14.8679326775       23.2297241478
H    1.0       22.5111026504       14.2940804222       23.7057143608
O    8.0       20.6495937638       15.0773122750       24.1815999971
H    1.0       19.9427863531       14.4159029886       23.9860513761
C    6.0       22.2794398337       16.2321642252       22.7883201440
H    1.0       21.4478839283       16.8267707047       22.3923935411
O    8.0       22.8504523009       16.8898672991       23.9238233845
H    1.0       22.1772233238       16.7833957357       24.6330856763
C    6.0       23.3367451350       16.0793197159       21.6678115040
H    1.0       24.2656785391       15.6964605673       22.1100556685
C    6.0       22.8658616113       15.1237664085       20.5355990276
H    1.0       22.0744383202       15.6274294141       19.9645639635
O    8.0       22.3500769494       13.8960960640       21.1104417785
C    6.0       23.9859193267       14.7443299551       19.5413226939
H    1.0       24.3041515131       15.6452228226       19.0002865170
H    1.0       23.5771234796       14.0462623403       18.7985135369
O    8.0       25.1011152749       14.1546553374       20.2157352226
H    1.0       24.7516478620       13.3694182476       20.6929983121
N    7.0       19.1896322310       18.8204332963       16.9112326695
H    1.0       18.8382170161       19.7928636804       16.9302744874
H    1.0       20.1560658073       18.8485805638       16.5725557800
H    1.0       18.6324414174       18.3116872924       16.2180648855
C    6.0       19.0858471875       18.1953284584       18.2845974343
H    1.0       19.3503298605       17.1376161733       18.2064400485
H    1.0       18.0409591671       18.2691075691       18.5979870369
C    6.0       19.9895821707       18.8851899764       19.3195774251
H    1.0       21.0249426978       18.5455655392       19.1856307521
H    1.0       19.9844829499       19.9686231747       19.1402009552
C    6.0       19.5118933416       18.6075036182       20.7602896957
H    1.0       19.5773007583       17.5344067776       20.9831069909
H    1.0       18.4541046676       18.8867990408       20.8407325842
C    6.0       20.3280393932       19.4064513647       21.7968072120
H    1.0       21.3750031764       19.0785350548       21.7807517149
H    1.0       20.3259614703       20.4672561054       21.5178258808
C    6.0       19.7646785295       19.2495060570       23.2247865059
H    1.0       18.7534051407       19.6701168818       23.2983796110
H    1.0       19.7189159717       18.1931412511       23.5213529521
H    1.0       20.3985606805       19.7752346605       23.9505465712
 $end
$$$$
! Edit this basic GAMESS input file as needed.
! Conformer was generated by a VeraChem VCPack run 
! and contains    146 atoms.
!
 $contrl scftyp=rhf runtyp=optimize nzvar=0
  maxit=200 icharg=0 $end
 $system mwords=50 $end
 $basis gbasis=pm3 $end
 $statpt nstep=200 $end
 $guess guess=huckel $end
 $data
VM2 Rank=3      G=548.207           E=356.052           -TS=192.156             
C1
C    6.0       16.1866968816       15.0090272367       20.5569816165
H    1.0       15.1317852734       14.8962854734       20.2751029142
O    8.0       16.5154569511       16.3822004067       20.8585024585
C    6.0       16.5513417892       14.1048421164       21.7623783846
H    1.0       16.4345176402       13.0649482375       21.4302094357
O    8.0       15.6890368639       14.3265544215       22.8874549282
H    1.0       15.8376246615       15.2588589803       23.1868631264
C    6.0       18.0328492890       14.3132265748       22.1583747462
H    1.0       18.1386104352       15.3353060487       22.5487655210
O    8.0       18.3777266504       13.3685171787       23.1777401563
H    1.0       17.5899631171       13.3308681083       23.7669396549
C    6.0       18.9807795661       14.1639181577       20.9335146246
H    1.0       19.1382887586       13.0991008049       20.7154952090
C    6.0       18.4495369089       14.8600650521       19.6500019201
H    1.0       18.6118316796       15.9396106609       19.7462042436
O    8.0       17.0375685818       14.5868436551       19.4720635321
C    6.0       19.1878749210       14.3793819198       18.3839041753
H    1.0       18.9779692728       13.3134077188       18.2233769426
H    1.0       20.2704401890       14.4883051090       18.5338946384
O    8.0       18.7723264820       15.1494890378       17.2540290104
H    1.0       17.7915931571       15.0884080203       17.2285779507
C    6.0       15.0144527019       20.0904870913       21.8208882851
H    1.0       14.4064458291       20.9565787959       22.1111997261
O    8.0       16.2891304373       20.4928947655       21.2762362702
C    6.0       15.2571137766       19.1726516074       23.0457031645
H    1.0       14.2726458963       18.8434732952       23.4030231791
O    8.0       15.9343194645       19.8715844095       24.1029224253
H    1.0       15.8173567952       20.8375101915       23.9327838481
C    6.0       16.0689106844       17.9210702535       22.6433354525
H    1.0       17.0817749155       18.2493229185       22.3870311635
O    8.0       16.1285729255       17.0302136481       23.7600115419
H    1.0       16.3543060803       17.6078543914       24.5239271328
C    6.0       15.4687191335       17.2059870321       21.4049352072
H    1.0       14.5992997783       16.6146585234       21.7217848175
C    6.0       15.0602447747       18.1940067822       20.2758770819
H    1.0       15.9757956742       18.5623477579       19.7947356036
O    8.0       14.3208088347       19.3121901337       20.8236913979
C    6.0       14.1899273335       17.5418146575       19.1787264684
H    1.0       14.7766868722       16.7641683586       18.6719156690
H    1.0       13.9388015389       18.3027725331       18.4277144157
O    8.0       12.9975576683       16.9772730085       19.7316584147
H    1.0       12.5318805126       17.7114747871       20.1907273165
C    6.0       18.5142975644       23.9973209920       20.9411648608
H    1.0       18.8756322435       25.0085991428       20.7133851201
O    8.0       19.5787764744       23.1334639400       21.3812024932
C    6.0       17.4362967006       24.0287421804       22.0517472839
H    1.0       16.6011305301       24.6354433166       21.6781282100
O    8.0       17.9424726971       24.6222544754       23.2581705723
H    1.0       18.7984599805       24.1732198948       23.4762059017
C    6.0       16.9020803787       22.6027840526       22.3318990924
H    1.0       17.7178915377       22.0113600357       22.7703654201
O    8.0       15.8192013241       22.6995792780       23.2639425705
H    1.0       16.1072146970       23.3806607188       23.9140845341
C    6.0       16.4498138415       21.9024363231       21.0176606697
H    1.0       15.5102054300       22.3498143534       20.6666914537
C    6.0       17.5066869609       22.0271019087       19.8855481278
H    1.0       18.3684251731       21.3941067218       20.1296176708
O    8.0       17.9119869154       23.4127895982       19.7689777510
C    6.0       16.9388334434       21.5842810660       18.5168594565
H    1.0       16.2061825744       22.3308353186       18.1821366336
H    1.0       16.4052809344       20.6325598305       18.6393723204
O    8.0       17.9776877546       21.4296676139       17.5412504412
H    1.0       17.5557302431       21.5246346092       16.6597625382
C    6.0       23.6198936792       22.9098766190       21.9750280002
H    1.0       24.6974566171       23.0401340703       22.1384087522
O    8.0       23.2833055372       21.5447010567       21.6560472828
C    6.0       22.8317132153       23.3255535156       23.2411703568
H    1.0       23.0094410236       24.3964469492       23.4048667330
O    8.0       23.2754113577       22.5915167371       24.3932849101
H    1.0       23.7921378434       21.8144385085       24.0645019928
C    6.0       21.3158979716       23.1187301039       23.0237774540
H    1.0       21.1358384524       22.0397638180       22.9645764753
O    8.0       20.5949681169       23.6568451413       24.1359333616
H    1.0       21.0793832511       23.3345483394       24.9289573929
C    6.0       20.8240069430       23.7762092372       21.7080927052
H    1.0       20.6972066567       24.8521248565       21.8883182293
C    6.0       21.7767690141       23.5465757936       20.4987635082
H    1.0       21.6377984835       22.5152434548       20.1483601200
O    8.0       23.1591554287       23.7435112615       20.8918510418
C    6.0       21.4888705281       24.4800670058       19.3019103604
H    1.0       20.4873782382       24.2610234865       18.9080130766
H    1.0       22.2077926139       24.2598068229       18.5014165712
O    8.0       21.5795449461       25.8550440075       19.6862638965
H    1.0       22.4849612588       25.9812463969       20.0480134866
C    6.0       24.8967799881       17.7994824147       20.9280355249
H    1.0       25.5335639881       16.9519914461       20.6436241727
O    8.0       23.5355135588       17.3793381094       21.1558469296
C    6.0       25.4572198705       18.5197120393       22.1876676067
H    1.0       26.4635120853       18.8752728207       21.9306338781
O    8.0       25.5525547941       17.6410755083       23.3188762495
H    1.0       24.6282823543       17.3695238295       23.5498612955
C    6.0       24.5965865566       19.7537007348       22.5476175428
H    1.0       23.6143700152       19.3927071205       22.8827388489
O    8.0       25.2269539859       20.4855349227       23.6030591056
H    1.0       25.5388924985       19.8028434964       24.2389923942
C    6.0       24.3787533112       20.6753463110       21.3210187375
H    1.0       25.2995464748       21.2320720225       21.1010790599
C    6.0       23.9549806503       19.8824477856       20.0591656882
H    1.0       22.9326633208       19.5210984928       20.2099584477
O    8.0       24.8637757640       18.7709574036       19.8612249915
C    6.0       23.9711785257       20.7384826633       18.7765523141
H    1.0       25.0091556564       20.9832203375       18.5142149463
H    1.0       23.4432069809       21.6824208819       18.9602641715
O    8.0       23.3330934506       20.0260089205       17.7135299343
H    1.0       23.8110767781       19.1714936478       17.6313484093
C    6.0       21.2025690298       14.0530621236       21.9640786139
H    1.0       20.8096258086       13.0709144215       22.2567305447
O    8.0       20.2208782410       14.8270202345       21.2466337068
C    6.0       21.6618623293       14.8476170993       23.2155205566
H    1.0       22.4488087806       14.2573056293       23.7027999508
O    8.0       20.5846017439       15.0552503467       24.1433330965
H    1.0       19.8775706726       14.4022083217       23.9223307311
C    6.0       22.2623958881       16.2112379886       22.8082992849
H    1.0       21.4472295524       16.8218764945       22.4023533257
O    8.0       22.8158126523       16.8465507433       23.9652388796
H    1.0       22.1260421811       16.7385511243       24.6581098517
C    6.0       23.3437075663       16.0631955921       21.7104911123
H    1.0       24.2604818530       15.6709031076       22.1696252268
C    6.0       22.8938299408       15.1252634619       20.5548980785
H    1.0       22.1237719289       15.6441433311       19.9685078642
O    8.0       22.3490007149       13.8970512334       21.1005782723
C    6.0       24.0356714129       14.7443184560       19.5862992694
H    1.0       24.3759039396       15.6468524689       19.0616987137
H    1.0       23.6397359897       14.0568326756       18.8268364022
O    8.0       25.1276566121       14.1380548534       20.2835570454