$$$$
! Edit this basic GAMESS input file as needed.
! Conformer was generated by a VeraChem VCPack run 
! and contains    151 atoms.
!
 $contrl scftyp=rhf runtyp=optimize nzvar=0
  maxit=200 icharg=0 $end
 $system mwords=50 $end
 $basis gbasis=pm3 $end
 $statpt nstep=200 $end
 $guess guess=huckel $end
 $data
VM2 Rank=1      G=580.659           E=379.028           -TS=201.631             
C1
C    6.0       16.2009013048       15.1251739547       21.5128652226
H    1.0       15.1114406352       15.0095386714       21.4489758227
O    8.0       16.6111093448       16.4815640662       21.2424825148
C    6.0       16.6993126632       14.7153755768       22.9209290558
H    1.0       16.4592733737       13.6534569656       23.0615289376
O    8.0       16.0580392096       15.4835105306       23.9480135068
H    1.0       16.5889556075       15.3046778463       24.7562497114
C    6.0       18.2321409356       14.8745972120       23.0171821634
H    1.0       18.4566514353       15.9435084536       22.9369166421
O    8.0       18.6998676474       14.3655253772       24.2724506280
H    1.0       19.6862538700       14.3304935067       24.2148913185
C    6.0       18.9568671894       14.1455920305       21.8604841369
H    1.0       18.9540574542       13.0688413881       22.0756010123
C    6.0       18.3037927772       14.4094093375       20.4734162990
H    1.0       18.5586678566       15.4318761060       20.1654374910
O    8.0       16.8611601245       14.2684578134       20.5570308401
C    6.0       18.7977426860       13.4472454178       19.3702700971
H    1.0       19.8737943291       13.5959442108       19.2154661336
H    1.0       18.2950942524       13.7036293513       18.4281319568
O    8.0       18.5322442649       12.0852132994       19.7185113281
H    1.0       17.5640227182       12.0271628351       19.8789607105
C    6.0       15.0122022910       20.2181381323       20.3616474040
H    1.0       14.4169218219       21.0455816285       19.9541299596
O    8.0       16.1893529087       20.6955812395       21.0438164052
C    6.0       14.1752764629       19.3858113603       21.3675408017
H    1.0       13.2950632146       19.0098180002       20.8307324945
O    8.0       13.7400482550       20.2220408149       22.4529495202
H    1.0       14.5402921733       20.6765185857       22.8169900112
C    6.0       14.9787897536       18.1575349262       21.8782573792
H    1.0       15.7925789980       18.5285743958       22.5136375335
O    8.0       14.1326540018       17.2866805498       22.6386280355
H    1.0       14.7353893690       16.6940370343       23.1520701703
C    6.0       15.6074309589       17.3608655969       20.7010610534
H    1.0       14.8230155084       16.8010691763       20.1741721637
C    6.0       16.3270978857       18.2755320774       19.6779621862
H    1.0       17.2418309190       18.6781163758       20.1331894739
O    8.0       15.4330086215       19.3454937178       19.2938758824
C    6.0       16.7133047382       17.5147770119       18.3922278402
H    1.0       15.8010058143       17.1709725417       17.8865894918
H    1.0       17.3013552510       16.6269871019       18.6568044018
O    8.0       17.4745468152       18.3640098001       17.5314945372
H    1.0       16.9405925053       19.1807270656       17.4152615394
C    6.0       18.3222927622       24.1700041555       21.7665538178
H    1.0       18.6741254220       25.2010842776       21.8970675585
O    8.0       19.4067282744       23.2207112984       21.8109647865
C    6.0       17.3081120747       23.7927085178       22.8778427410
H    1.0       16.4457585981       24.4659228670       22.7843838324
O    8.0       17.8873506935       23.9345076131       24.1872427610
H    1.0       17.9373109628       24.8941595783       24.3839929458
C    6.0       16.8071110720       22.3437332157       22.6721147611
H    1.0       17.6589982582       21.6716163832       22.8267055772
O    8.0       15.7785847978       22.0556650147       23.6247882549
H    1.0       16.1454538767       22.3524141280       24.4868361811
C    6.0       16.2741795425       22.1213478067       21.2356484880
H    1.0       15.2907199809       22.6036522663       21.1573907723
C    6.0       17.2334082899       22.6853985031       20.1486908671
H    1.0       18.1145707695       22.0322033157       20.0923526080
O    8.0       17.6461751654       24.0296410595       20.4992505241
C    6.0       16.6032847666       22.7462156411       18.7391610829
H    1.0       16.3908312023       21.7257771637       18.3954246877
H    1.0       17.3357029712       23.1773969120       18.0436927895
O    8.0       15.4037851745       23.5258500859       18.7422069998
H    1.0       15.6546838736       24.4146238484       19.0791947300
C    6.0       23.5049237684       22.7644754623       21.7674937041
H    1.0       24.5955033499       22.8856888182       21.7785447540
O    8.0       23.1229926732       21.4111921451       21.4464937279
C    6.0       22.9116910266       23.1430718553       23.1471333859
H    1.0       23.1466700391       24.2012524063       23.3212528729
O    8.0       23.4870568022       22.3583553375       24.2010693062
H    1.0       23.0245608442       22.6684691240       25.0130722195
C    6.0       21.3723222543       22.9954580132       23.1428004713
H    1.0       21.1267790236       21.9323513979       23.0345055397
O    8.0       20.8355953874       23.4906390197       24.3749384331
H    1.0       19.8532211117       23.4143669533       24.3055794723
C    6.0       20.7360762669       23.7549419546       21.9524874579
H    1.0       20.7316163542       24.8283917417       22.1830191572
C    6.0       21.4783063307       23.5076947045       20.6087705215
H    1.0       21.2443188086       22.4902947684       20.2696034205
O    8.0       22.9107392803       23.6435045665       20.7895511096
C    6.0       21.0547273053       24.4869292714       19.4916570903
H    1.0       19.9865829875       24.3504282663       19.2785766964
H    1.0       21.6059751082       24.2361379117       18.5754571001
O    8.0       21.3130189695       25.8422110317       19.8706059304
H    1.0       22.2708211117       25.8872083414       20.0880717669
C    6.0       24.8517186564       17.6824835743       20.7518485848
H    1.0       25.4894744506       16.8632568357       20.3958819319
O    8.0       23.6801969888       17.1838534926       21.4299932362
C    6.0       25.6427848108       18.5921676774       21.7292768559
H    1.0       26.5272883846       18.9585276053       21.1922563217
O    8.0       26.0611784645       17.8568334331       22.8884406524
H    1.0       26.4100799219       18.5383297808       23.5053067619
C    6.0       24.8095519040       19.8217343229       22.1676539454
H    1.0       24.0018125045       19.4567858614       22.8083626247
O    8.0       25.6352021589       20.7194427352       22.9195632529
H    1.0       25.0190168074       21.3139713814       23.4128397506
C    6.0       24.1705087726       20.5519324908       20.9540945971
H    1.0       24.9392115895       21.1227750803       20.4163111832
C    6.0       23.4981190586       19.5629120604       19.9659443958
H    1.0       22.5969746983       19.1507999982       20.4398464612
O    8.0       24.4200200724       18.4954874821       19.6415432030
C    6.0       23.0749427658       20.2289190302       18.6375326316
H    1.0       22.3640000954       21.0374645162       18.8500417552
H    1.0       22.5526776659       19.4848845665       18.0214329911
O    8.0       24.2100466498       20.7435324278       17.9353192209
H    1.0       24.8444707776       19.9960044050       17.8620346612
C    6.0       21.3699661034       13.7394956626       21.7389451388
H    1.0       21.0034680534       12.7055165470       21.7646919137
O    8.0       20.2908796645       14.6913293681       21.8332652138
C    6.0       22.3491202825       13.9910186493       22.9139502024
H    1.0       23.1762801321       13.2763500242       22.8137264670
O    8.0       21.7004619723       13.7956639477       24.1789697363
H    1.0       22.3482564813       14.1208652230       24.8435545632
C    6.0       22.9386500347       15.4187758311       22.8479202044
H    1.0       22.1235250386       16.1193036811       23.0588590691
O    8.0       23.9755948729       15.5657229455       23.8256034272
H    1.0       24.4396230528       16.4108372035       23.6137955921
C    6.0       23.5100281321       15.7514340024       21.4485357660
H    1.0       24.4686458827       15.2274153054       21.3375240680
C    6.0       22.5444925083       15.3419839818       20.2990023076
H    1.0       21.6878793261       16.0291721544       20.2998237042
O    8.0       22.0848717787       13.9844123331       20.5099081013
C    6.0       23.1868419226       15.3823442359       18.8938509152
H    1.0       23.4285632143       16.4192768764       18.6325330054
H    1.0       22.4490342795       15.0301293262       18.1606362036
O    8.0       24.3634689068       14.5701341993       18.8392753508
H    1.0       24.0835620592       13.6643941411       19.0992380363
C    6.0       18.2404282758       19.3708723590       24.2232071398
H    1.0       18.6657453238       20.3161343284       24.5786594071
H    1.0       17.1894126531       19.6069450049       24.0128113435
C    6.0       18.8923881857       18.9471295114       22.8814495546
H    1.0       18.1747532403       18.3120639460       22.3497625315
H    1.0       19.0289131806       19.8340536033       22.2485299072
C    6.0       20.2237714751       18.1635209644       22.9625186831
H    1.0       20.4818699473       17.8384413444       21.9456582699
H    1.0       20.0899724549       17.2364789418       23.5275651573
C    6.0       21.4335739391       18.9421586837       23.5260687941
H    1.0       22.3055151215       18.2852561568       23.4459100965
H    1.0       21.6337760043       19.7985483585       22.8758129165
C    6.0       21.3528942013       19.4239963872       24.9926068628
H    1.0       20.7136489821       20.3126323410       25.0531155793
C    6.0       20.8341123725       18.3526763834       25.9864886555
H    1.0       20.9898433682       17.3433163143       25.5869650779
H    1.0       21.4493284987       18.3978097850       26.8950236571
C    6.0       19.3584537293       18.5393572391       26.4300058511
H    1.0       19.2342560929       19.5424448162       26.8601712139
H    1.0       19.1660873221       17.8382964581       27.2532492278
C    6.0       18.2708660827       18.3061200460       25.3490644141
H    1.0       17.2981945779       18.3372176208       25.8584126308
H    1.0       18.3426643203       17.2925273032       24.9368511267
O    8.0       22.6687616317       19.7996532328       25.3836684361
H    1.0       22.9395066004       20.5463339846       24.8048258641
 $end
