$$$$
! Edit this basic GAMESS input file as needed.
! Conformer was generated by a VeraChem VCPack run 
! and contains    152 atoms.
!
 $contrl scftyp=rhf runtyp=optimize nzvar=0
  maxit=200 icharg=0 $end
 $system mwords=50 $end
 $basis gbasis=pm3 $end
 $statpt nstep=200 $end
 $guess guess=huckel $end
 $data
VM2 Rank=1      G=566.369           E=364.910           -TS=201.458             
C1
C    6.0       16.2810350522       15.1182007753       21.2631384269
H    1.0       15.2376286222       14.8365175630       21.0737431905
O    8.0       16.4354344735       16.5428788897       21.4097269491
C    6.0       16.7821653410       14.4516046253       22.5684240446
H    1.0       16.6926120006       13.3652782206       22.4380088789
O    8.0       15.9842144565       14.8579122385       23.6920183758
H    1.0       15.6515419163       15.7713697263       23.5041603838
C    6.0       18.2731589832       14.7789505153       22.8204892494
H    1.0       18.3506695879       15.8525372882       23.0322295579
O    8.0       18.7274377987       14.0282929556       23.9514691597
H    1.0       17.9872250655       14.0803188407       24.5982654868
C    6.0       19.1340519659       14.4676516774       21.5660460775
H    1.0       19.2174986273       13.3803093046       21.4352156225
C    6.0       18.5217034533       15.0710687643       20.2754761072
H    1.0       18.6133991364       16.1643415664       20.3114062849
O    8.0       17.1296868536       14.6781640496       20.1818419079
C    6.0       19.2374088311       14.5607082500       19.0070536030
H    1.0       19.0477880993       13.4852342321       18.8907425630
H    1.0       20.3201842605       14.6956305614       19.1226045336
O    8.0       18.7842709884       15.2792632928       17.8586839498
H    1.0       17.8082674989       15.1793893539       17.8315205066
C    6.0       14.6106123518       20.1969506562       20.7844556832
H    1.0       13.9491262740       21.0341618881       20.5270982720
O    8.0       15.9349645771       20.6401229518       21.1446204602
C    6.0       14.0435423104       19.3903723650       21.9785050014
H    1.0       13.0751531934       18.9752725790       21.6703629015
O    8.0       13.8540191379       20.2285680564       23.1293596984
H    1.0       14.6606753751       20.7968854118       23.2211342153
C    6.0       14.9878236279       18.2125411312       22.3152428739
H    1.0       15.9308608120       18.6375536126       22.6791530384
O    8.0       14.4021662383       17.3969027294       23.3340834582
H    1.0       14.0354746588       18.0318726758       23.9893708174
C    6.0       15.2979653234       17.3550861089       21.0621277606
H    1.0       14.4132655077       16.7509770132       20.8212253301
C    6.0       15.6829160380       18.2150135865       19.8258012376
H    1.0       16.6897427717       18.6255410066       19.9704500042
O    8.0       14.7233618161       19.2888321802       19.6694093937
C    6.0       15.6790644819       17.4034475163       18.5151267683
H    1.0       14.6688851038       17.0145904678       18.3298465777
H    1.0       16.3550568881       16.5470712126       18.6177414948
O    8.0       16.1070892870       18.2285724585       17.4305210288
H    1.0       15.5302753484       19.0236364248       17.4513605587
C    6.0       18.3868593550       23.9668650964       21.2469264540
H    1.0       18.8273776612       24.9718950014       21.2166570267
O    8.0       19.4074406264       22.9443710350       21.2335988778
C    6.0       17.4767338158       23.7923897787       22.4935932658
H    1.0       16.6519425297       24.5098200578       22.3925027055
O    8.0       18.1723128336       24.0638986992       23.7188326357
H    1.0       18.8808125005       23.3773043722       23.8044843516
C    6.0       16.8686082896       22.3706159594       22.5142941517
H    1.0       17.6861215338       21.6497261893       22.6420059185
O    8.0       15.9497709088       22.2569171053       23.6054217994
H    1.0       16.3996491160       22.6887872620       24.3655049360
C    6.0       16.1450185709       22.0622895520       21.1801973927
H    1.0       15.1987182693       22.6190828248       21.1657048768
C    6.0       16.9964404959       22.4346549106       19.9337489405
H    1.0       17.8111925316       21.7045888405       19.8402203583
O    8.0       17.5506936170       23.7652588494       20.0877323116
C    6.0       16.1920152089       22.4114631272       18.6149991637
H    1.0       15.8463524321       21.3874861478       18.4235801115
H    1.0       16.8599890023       22.6896540134       17.7888918200
O    8.0       15.0766706055       23.3056041369       18.6745057243
H    1.0       15.4473366855       24.1944051984       18.8720547781
C    6.0       23.4632379419       22.3832858418       22.0352729445
H    1.0       24.5009549771       22.5107499810       22.3669272667
O    8.0       23.3197750786       21.2454724481       21.1591358564
C    6.0       22.5149519090       22.2118072030       23.2540860517
H    1.0       22.6125085960       23.1173322592       23.8670801600
O    8.0       22.8540096755       21.0673625789       24.0536824321
H    1.0       23.8204741554       20.9084175661       23.9365067057
C    6.0       21.0457066244       22.1006475638       22.7904476336
H    1.0       20.9447952878       21.1742697224       22.2139608845
O    8.0       20.2021533867       22.0506911219       23.9446005708
H    1.0       20.6644147174       21.4311021917       24.5527436979
C    6.0       20.6569453107       23.2826872169       21.8695960546
H    1.0       20.5730747332       24.1910983896       22.4808538724
C    6.0       21.7044938850       23.5036041995       20.7431733915
H    1.0       21.6389682777       22.6636578852       20.0384768939
O    8.0       23.0362041205       23.5588991548       21.3128559602
C    6.0       21.4797157888       24.8070646101       19.9443416757
H    1.0       20.5225852704       24.7386037589       19.4103105832
H    1.0       22.2699071633       24.8983750902       19.1871293355
O    8.0       21.4824332471       25.9494553692       20.8056608835
H    1.0       22.3500968858       25.9438992071       21.2678777569
C    6.0       25.1957852884       17.6349051908       20.5317538874
H    1.0       25.8202033503       16.7756263502       20.2551657647
O    8.0       23.8551712837       17.2255776612       20.8834606821
C    6.0       25.8340150433       18.4511670612       21.6843061651
H    1.0       26.7630579352       18.8846852255       21.2913149426
O    8.0       26.1590363785       17.6381789365       22.8207354334
H    1.0       25.2997472057       17.3461066242       23.2163465956
C    6.0       24.9011954978       19.6179496473       22.0865845350
H    1.0       23.9787632078       19.1884975423       22.4997695633
O    8.0       25.5629516754       20.4017794736       23.0863803117
H    1.0       26.0400947726       19.7481313644       23.6472214520
C    6.0       24.5128985208       20.4893819307       20.8542632600
H    1.0       25.3474527016       21.1571078045       20.6024186524
C    6.0       24.1520550175       19.6430647613       19.5987113237
H    1.0       23.1393558129       19.2418055342       19.7242674860
O    8.0       25.0934069721       18.5527613976       19.4230248179
C    6.0       24.1661924284       20.4903300885       18.3101073850
H    1.0       25.1906874408       20.8325288054       18.1114795943
H    1.0       23.5379251797       21.3795061810       18.4554469224
O    8.0       23.6714109730       19.7187167031       17.2139993251
H    1.0       24.1849873217       18.8801803342       17.2172119629
C    6.0       21.4305760501       14.2454065427       22.3618870298
H    1.0       20.9894881984       13.3405807200       22.7995238547
O    8.0       20.4288790109       15.0759026247       21.7393028310
C    6.0       22.1539438056       15.0648388348       23.4575445007
H    1.0       22.9418340769       14.4228121841       23.8725123893
O    8.0       21.2534638962       15.4449348375       24.5114531955
H    1.0       20.4269916887       14.9169349920       24.3913340766
C    6.0       22.8244241595       16.3208243852       22.8566132341
H    1.0       22.0333884960       17.0045880789       22.5312266592
O    8.0       23.6037834015       16.9458065808       23.8786901495
H    1.0       23.0101381212       16.9645967747       24.6632221839
C    6.0       23.6951570739       15.9923111132       21.6144514705
H    1.0       24.6561884605       15.5776464593       21.9459450453
C    6.0       22.9978205150       15.0022407924       20.6389718077
H    1.0       22.2078766304       15.5484498216       20.1072167652
O    8.0       22.4122154172       13.8926515683       21.3648261069
C    6.0       23.9556924662       14.4206301295       19.5758780140
H    1.0       24.3312964707       15.2389256297       18.9472171458
H    1.0       23.3901373176       13.7408672918       18.9245518305
O    8.0       25.0476404423       13.7282284067       20.1877291469
H    1.0       24.6483249943       13.0358944259       20.7603749670
C    6.0       19.9898904483       19.1471053996       19.2879055326
H    1.0       19.7676095013       20.2219723766       19.2823734490
H    1.0       20.8060610708       18.9688957412       18.5752531795
H    1.0       19.1036546522       18.6092640885       18.9247248140
C    6.0       20.3884161073       18.6724026596       20.7004027807
H    1.0       21.2947674311       19.2013084201       21.0229902969
H    1.0       20.6428084093       17.6046202905       20.6668031794
C    6.0       19.2591870603       18.9114488995       21.7249351917
H    1.0       18.9626897877       19.9682634910       21.7071018939
H    1.0       18.3761072967       18.3304601019       21.4374711447
C    6.0       19.6888183300       18.5159631898       23.1532743377
H    1.0       20.5744425599       19.0947333156       23.4499853314
H    1.0       19.9830785642       17.4606127674       23.1635407920
C    6.0       18.5574931553       18.7273196601       24.1800671933
H    1.0       18.2288862764       19.7758883708       24.1626854465
H    1.0       17.6932000887       18.1117845658       23.9001699944
C    6.0       19.0067958199       18.3453517770       25.6053357065
H    1.0       19.8637003850       18.9648684277       25.9018113291
H    1.0       19.3453772370       17.3003824227       25.6174688061
C    6.0       17.8629506990       18.5257652120       26.6173412892
H    1.0       17.5368640667       19.5694226910       26.6221574691
H    1.0       17.0139142961       17.9006670108       26.3272765114
N    7.0       18.2593679585       18.1508043337       28.0304019855
H    1.0       18.5546798726       17.1711694262       28.0941163501
H    1.0       17.4832123711       18.2745539692       28.6892060888
H    1.0       19.0375539618       18.7241389756       28.3715871399
 $end
