$$$$
! Edit this basic GAMESS input file as needed.
! Conformer was generated by a VeraChem VCPack run 
! and contains    146 atoms.
!
 $contrl scftyp=rhf runtyp=optimize nzvar=0
  maxit=200 icharg=0 $end
 $system mwords=50 $end
 $basis gbasis=pm3 $end
 $statpt nstep=200 $end
 $guess guess=huckel $end
 $data
VM2 Rank=1      G=492.062           E=304.705           -TS=187.357             
C1
C    6.0       16.2300820071       15.0823706528       20.4299031237
H    1.0       15.1919516913       14.9814131537       20.0881211083
O    8.0       16.5336617502       16.4415165875       20.8112282900
C    6.0       16.5290176638       14.1238108191       21.6123463895
H    1.0       16.4346678843       13.0994445595       21.2299056398
O    8.0       15.5825096293       14.3018149933       22.6767029874
H    1.0       15.7821406778       15.1772294529       23.0920182410
C    6.0       17.9924656462       14.3159960626       22.0930979645
H    1.0       18.0802785281       15.3224106006       22.5256060112
O    8.0       18.3263494076       13.3358475391       23.0827826255
H    1.0       19.0988378349       13.7034505178       23.5785653556
C    6.0       18.9905766640       14.2087625386       20.9044049005
H    1.0       19.1246235847       13.1524637481       20.6352306543
C    6.0       18.5373036566       14.9811257954       19.6354077810
H    1.0       18.6989900328       16.0552165860       19.7922728633
O    8.0       17.1370939196       14.7169430173       19.3696674496
C    6.0       19.3402157972       14.5512342568       18.3900184806
H    1.0       19.1409715837       13.4921395938       18.1787650700
H    1.0       20.4135492361       14.6547319856       18.5978152232
O    8.0       18.9800837835       15.3613767220       17.2699926378
H    1.0       17.9973322464       15.3664263626       17.2435429136
C    6.0       14.9407582773       20.0781515903       21.8726454691
H    1.0       14.3225947977       20.9319211854       22.1770653882
O    8.0       16.2268815193       20.5024984031       21.3720807190
C    6.0       15.1712245985       19.1301198998       23.0750679601
H    1.0       14.1893779240       18.7572357358       23.3939785900
O    8.0       15.7694390083       19.8624249531       24.1588338440
H    1.0       16.3116988445       19.2304260683       24.6982929072
C    6.0       16.0253414905       17.9062580162       22.6491879897
H    1.0       17.0429043329       18.2542631633       22.4317488912
O    8.0       16.0545404994       16.9399781865       23.7071206605
H    1.0       16.6243886891       17.3172082244       24.4269864802
C    6.0       15.4643866021       17.2304878965       21.3672159927
H    1.0       14.5999441859       16.6127972079       21.6444075716
C    6.0       15.0532747045       18.2459500869       20.2651121966
H    1.0       15.9694771337       18.6505033635       19.8161480861
O    8.0       14.2759778536       19.3231942795       20.8395614823
C    6.0       14.2194082469       17.6168246048       19.1268839304
H    1.0       14.8343148777       16.8745936667       18.6009277725
H    1.0       13.9645090120       18.4017038791       18.4020980668
O    8.0       13.0303545408       17.0032944670       19.6330805206
H    1.0       12.5450222975       17.7059375293       20.1202819001
C    6.0       18.4548569532       24.0131430693       21.0112164436
H    1.0       18.7947509596       25.0313028831       20.7827716201
O    8.0       19.5405823731       23.1688071208       21.4366547567
C    6.0       17.3901411792       24.0313119513       22.1378189159
H    1.0       16.5479392519       24.6414658948       21.7865134814
O    8.0       17.9183842368       24.6010549756       23.3440359007
H    1.0       17.2262815900       24.4283294268       24.0215069215
C    6.0       16.8618899128       22.6048299088       22.4230789186
H    1.0       17.6913687510       22.0176975213       22.8386705919
O    8.0       15.7996237216       22.6790747829       23.3814340207
H    1.0       15.7156338375       21.7683412659       23.7602256346
C    6.0       16.3867010522       21.9109130782       21.1155430493
H    1.0       15.4470784970       22.3629243066       20.7713160636
C    6.0       17.4475595230       22.0308845658       19.9892351992
H    1.0       18.3116765593       21.4111408109       20.2622580876
O    8.0       17.8550431803       23.4136883697       19.8440317524
C    6.0       16.9356927486       21.5505485793       18.6131996227
H    1.0       16.6458349412       20.4947721993       18.6851978385
H    1.0       17.7594019562       21.6149821107       17.8898152341
O    8.0       15.8262773719       22.3391803512       18.1727044457
H    1.0       16.1251740815       23.2746596138       18.2161142516
C    6.0       23.6385355502       22.8978474125       21.6670861790
H    1.0       24.7235782794       23.0547520421       21.7113286721
O    8.0       23.3002503142       21.4986733172       21.5895959995
C    6.0       22.9638523224       23.5026369095       22.9226929030
H    1.0       23.1635330502       24.5820771310       22.9155190279
O    8.0       23.4944516932       22.9331920638       24.1272767147
H    1.0       22.8820865501       23.2371982515       24.8346270212
C    6.0       21.4327260813       23.3017414200       22.8714620702
H    1.0       21.2277095026       22.2282977143       22.9731037325
O    8.0       20.8166352619       24.0203862024       23.9471401114
H    1.0       19.8467763690       24.0394404958       23.7544109115
C    6.0       20.8378906067       23.7832299486       21.5254553572
H    1.0       20.7753006350       24.8793356209       21.5467875219
C    6.0       21.6619153810       23.3220898218       20.2895707251
H    1.0       21.4864733361       22.2488427398       20.1384871603
O    8.0       23.0746535661       23.5582147044       20.5145881703
C    6.0       21.2705335020       24.0481368800       18.9835389567
H    1.0       20.2296950347       23.8052230418       18.7337751330
H    1.0       21.8986996724       23.6672417248       18.1671889559
O    8.0       21.4306156360       25.4639030659       19.1131175578
H    1.0       22.3678394016       25.6106515921       19.3712417749
C    6.0       24.9153576264       17.7012549725       21.1524051700
H    1.0       25.5597620668       16.8390465616       20.9378876308
O    8.0       23.5629172900       17.2922061272       21.4345275595
C    6.0       25.4640561488       18.5164185641       22.3539503126
H    1.0       26.4715769775       18.8575237042       22.0824861665
O    8.0       25.5423025148       17.7228044442       23.5450878281
H    1.0       25.7989682683       18.3579820042       24.2511900648
C    6.0       24.5951853515       19.7681431162       22.6196739789
H    1.0       23.6105984188       19.4323301955       22.9736694568
O    8.0       25.2206615670       20.5807847904       23.6205565437
H    1.0       24.6010261221       21.3308953898       23.8030101440
C    6.0       24.3868743157       20.5935433612       21.3258077411
H    1.0       25.3163932540       21.1233424555       21.0789868841
C    6.0       23.9735971865       19.7106170457       20.1185234904
H    1.0       22.9466482050       19.3576944685       20.2779010831
O    8.0       24.8750994859       18.5805818993       20.0091917952
C    6.0       24.0112720873       20.4693305102       18.7738097190
H    1.0       23.3215454467       21.3216076075       18.8222949483
H    1.0       23.6500951062       19.7992413889       17.9824096761
O    8.0       25.3355255610       20.9216590523       18.4754002315
H    1.0       25.9111965176       20.1265544637       18.5282418104
C    6.0       21.2129349469       13.9263772479       21.8955873279
H    1.0       20.8008002428       12.9260981227       22.0795510882
O    8.0       20.2330293810       14.8092466992       21.3140437410
C    6.0       21.7312419667       14.5431462093       23.2180891153
H    1.0       22.5347056194       13.8926622478       23.5875189280
O    8.0       20.6992422447       14.6174270067       24.2105757842
H    1.0       21.0709163997       15.2053170259       24.9063105555
C    6.0       22.3351166025       15.9438140371       22.9733255593
H    1.0       21.5251801005       16.6250008335       22.6790355736
O    8.0       22.9554537413       16.4022175428       24.1801359817
H    1.0       23.6695451677       17.0276628300       23.9091984020
C    6.0       23.3799343343       15.9203451169       21.8312948789
H    1.0       24.3091223512       15.4794620812       22.2171662478
C    6.0       22.8911492777       15.1300908571       20.5827924094
H    1.0       22.1202635043       15.7278995174       20.0793135899
O    8.0       22.3316245655       13.8538071919       20.9859956331
C    6.0       24.0056323587       14.8477604971       19.5507262806
H    1.0       24.3558534477       15.8000661076       19.1311213734
H    1.0       23.5799039341       14.2654118517       18.7226324850
O    8.0       25.0960320118       14.1389538435       20.1466777532
H    1.0       24.7161679693       13.3127509714       20.5202731516
C    6.0       20.4804609235       19.5750258215       18.7630744776
H    1.0       21.0176040962       19.4737433159       17.8222350484
H    1.0       20.0466358789       20.5456643974       18.9908027064
C    6.0       20.3606213779       18.5425875312       19.6025727475
H    1.0       20.8031890073       17.5795885062       19.3524325967
C    6.0       19.6246629368       18.5969066000       20.9236593527
H    1.0       19.5454305111       17.5834007336       21.3344981579
H    1.0       18.5962709096       18.9414828066       20.7558400444
C    6.0       20.3292661417       19.5179298447       21.9448916289
H    1.0       21.3503732088       19.1590048687       22.1268852260
H    1.0       20.4251355356       20.5192879827       21.5083047433
C    6.0       19.5705300627       19.6352478297       23.2878798387
H    1.0       18.5260258022       19.9121759828       23.0996742085
H    1.0       20.0058962989       20.4554652148       23.8738106992
C    6.0       19.6216854400       18.3434608406       24.1441580309
H    1.0       19.1800330317       17.4975439510       23.6063256860
H    1.0       20.6630432895       18.0824142916       24.3632943950
C    6.0       18.8880075451       18.4864345765       25.4732922051
O    8.0       17.6861070823       18.2941165304       25.4819503457
O    8.0       19.5296633550       18.8056480354       26.4545132594
 $end
