$$$$
! Edit this basic GAMESS input file as needed.
! Conformer was generated by a VeraChem VCPack run 
! and contains    148 atoms.
!
 $contrl scftyp=rhf runtyp=optimize nzvar=0
  maxit=200 icharg=0 $end
 $system mwords=50 $end
 $basis gbasis=pm3 $end
 $statpt nstep=200 $end
 $guess guess=huckel $end
 $data
VM2 Rank=1      G=497.019           E=304.927           -TS=192.092             
C1
C    6.0       16.3395852347       15.1621096208       21.0185784476
H    1.0       15.2847220722       14.9668833780       20.7888714648
O    8.0       16.5624527736       16.5426873681       21.3702813725
C    6.0       16.7967786556       14.2702999685       22.2024172608
H    1.0       16.6213540935       13.2271617703       21.9088806494
O    8.0       16.0492534308       14.5538210491       23.3932423272
H    1.0       16.5158789466       14.0567910595       24.1024070996
C    6.0       18.3096982067       14.4341306563       22.4804691180
H    1.0       18.4832939824       15.4484442871       22.8658477821
O    8.0       18.7225787447       13.4599446788       23.4472244303
H    1.0       19.7029414776       13.5517441911       23.5471428045
C    6.0       19.1331853855       14.2610499951       21.1818363886
H    1.0       19.1033824342       13.2056270020       20.8801913118
C    6.0       18.5780599593       15.1283886379       20.0230235652
H    1.0       18.7399826842       16.1886803063       20.2566889783
O    8.0       17.1644720491       14.8444628257       19.8768368034
C    6.0       19.2555716418       14.8070832844       18.6738731197
H    1.0       19.1396271580       13.7372864932       18.4553634524
H    1.0       20.3292658386       15.0190858577       18.7476523282
O    8.0       18.6773014861       15.5933059626       17.6307825268
H    1.0       17.7075619882       15.4518965261       17.6944972212
C    6.0       14.7037418155       20.2763402858       21.2808990655
H    1.0       13.9833964911       21.0960076237       21.1647433884
O    8.0       16.0301935847       20.7649849387       21.5510433591
C    6.0       14.2864604917       19.3476903990       22.4503998025
H    1.0       13.2865994783       18.9586399134       22.2180846145
O    8.0       14.2382872109       20.0613704187       23.6941011816
H    1.0       14.1128307399       19.3625920662       24.3750451002
C    6.0       15.2485224180       18.1420757997       22.5777518901
H    1.0       16.2288025498       18.5140248921       22.9069895442
O    8.0       14.7253463941       17.2182901913       23.5402097165
H    1.0       15.2935750624       16.4090473650       23.4960701697
C    6.0       15.4323656020       17.4248316594       21.2183840347
H    1.0       14.5089511052       16.8768685489       20.9894877154
C    6.0       15.7372259308       18.4184476070       20.0640834946
H    1.0       16.7411029797       18.8358660330       20.2110906016
O    8.0       14.7550351655       19.4833302710       20.0753941311
C    6.0       15.6996389440       17.7671974635       18.6646833103
H    1.0       16.4897612962       17.0095457852       18.6029225161
H    1.0       15.9254333929       18.5345760073       17.9123401539
O    8.0       14.4234056161       17.1754657915       18.4036783919
H    1.0       13.7609910521       17.8915326807       18.5239696453
C    6.0       18.4104048150       24.1161759432       21.5394856709
H    1.0       18.8480714134       25.1224711692       21.5399724263
O    8.0       19.4133071685       23.0963384868       21.3523107252
C    6.0       17.6706349684       23.8612829845       22.8758127115
H    1.0       16.8575147271       24.5954635109       22.9461012774
O    8.0       18.5463953289       24.0211446315       23.9998577823
H    1.0       18.0429726870       23.6510363212       24.7596489896
C    6.0       17.0396078437       22.4518299916       22.8909714007
H    1.0       17.8544952790       21.7182267392       22.9115784582
O    8.0       16.2194771014       22.3023137276       24.0563470729
H    1.0       15.6982245145       21.4712753129       23.9292406793
C    6.0       16.1860957250       22.1934739718       21.6251941688
H    1.0       15.2241977116       22.7091586435       21.7458714931
C    6.0       16.8754590943       22.6589815532       20.3108632759
H    1.0       17.6742604972       21.9453137539       20.0702840398
O    8.0       17.4394186302       23.9842434554       20.4803876994
C    6.0       15.9164297069       22.7136681964       19.1011028943
H    1.0       15.5464636550       21.7026192614       18.8877059414
H    1.0       16.4803167193       23.0472411566       18.2196772883
O    8.0       14.8204457448       23.5983630522       19.3521107456
H    1.0       15.2178463084       24.4703705000       19.5718345535
C    6.0       23.4659178823       22.5667789599       20.6375027851
H    1.0       24.5123725469       22.6609666190       20.3204714946
O    8.0       23.1711320575       21.2273900620       21.0811669405
C    6.0       23.1360051777       23.5799483471       21.7685332011
H    1.0       23.3044771493       24.5845072584       21.3601338546
O    8.0       24.0043093571       23.3901506928       22.8969545193
H    1.0       23.7657784666       22.5168678281       23.2971780471
C    6.0       21.6415333090       23.4822030906       22.1777736533
H    1.0       21.4850522602       22.5097898638       22.6650913090
O    8.0       21.2987888200       24.5413002227       23.0804499974
H    1.0       20.3985248880       24.3309419216       23.4316315459
C    6.0       20.7125894989       23.5582490219       20.9371191051
H    1.0       20.6802385932       24.5929393361       20.5707470247
C    6.0       21.1789046814       22.6393484429       19.7780604485
H    1.0       20.9975860660       21.5965347997       20.0654899264
O    8.0       22.5906149166       22.8506324226       19.5270850772
C    6.0       20.4253283684       22.9011387950       18.4554437631
H    1.0       19.3513228040       22.7427879602       18.6154645459
H    1.0       20.7586770919       22.1664371307       17.7102415183
O    8.0       20.6620990076       24.2306558370       17.9830855366
H    1.0       21.6390660130       24.3345722236       17.9476178227
C    6.0       24.9842966948       17.6829258034       22.2093039618
H    1.0       25.6616707006       16.8883844245       22.5471055249
O    8.0       23.7611891516       17.1454001500       21.6637608630
C    6.0       24.6376068043       18.6324650393       23.3852784046
H    1.0       25.5727469382       19.1034809903       23.7146116006
O    8.0       24.0857029914       17.8834504894       24.4791277037
H    1.0       23.4056884203       18.4527702941       24.9242478285
C    6.0       23.6861418821       19.7607592712       22.9086401589
H    1.0       22.7262806002       19.3091681919       22.6299693916
O    8.0       23.4877168891       20.7203375446       23.9558546307
H    1.0       22.8465449348       20.3090319206       24.5937550403
C    6.0       24.2574109253       20.4777605088       21.6578377961
H    1.0       25.0815993442       21.1300567323       21.9751844777
C    6.0       24.7610835551       19.4839248666       20.5727577122
H    1.0       23.8861465176       19.0040601317       20.1138561550
O    8.0       25.6100100723       18.4780973562       21.1802727936
C    6.0       25.5677212781       20.1555090768       19.4390773764
H    1.0       24.9057613767       20.8289543105       18.8787995507
H    1.0       25.9072732171       19.3787798758       18.7408029140
O    8.0       26.6868711761       20.8803379602       19.9573568137
H    1.0       27.2224742291       20.2321013917       20.4665960961
C    6.0       21.5170789814       13.7192754342       21.3220227636
H    1.0       21.1132782357       12.7102471601       21.1725136454
O    8.0       20.4708759504       14.7013713411       21.4793815773
C    6.0       22.4158000219       13.7433683153       22.5806972069
H    1.0       23.2462709390       13.0471058841       22.4052704344
O    8.0       21.6873815389       13.3275831900       23.7441713703
H    1.0       22.2901749936       13.5222694158       24.4966602845
C    6.0       23.0132644751       15.1499420959       22.8084124490
H    1.0       22.1898768820       15.8196029359       23.0891238243
O    8.0       23.9664156646       15.0804778639       23.8749031216
H    1.0       24.0940724585       16.0105648664       24.1874611420
C    6.0       23.6786660314       15.7140920778       21.5219465701
H    1.0       24.6704289781       15.2622204724       21.3881893840
C    6.0       22.8351614616       15.4674253150       20.2400254588
H    1.0       21.9891527734       16.1653739437       20.2463263362
O    8.0       22.3387732892       14.1061303100       20.2028701446
C    6.0       23.6338967772       15.7133437564       18.9410577418
H    1.0       24.0038263545       16.7474232335       18.9381394560
H    1.0       22.9563744808       15.6030097748       18.0838190068
O    8.0       24.7268744431       14.7971014723       18.8294304686
H    1.0       24.3396087342       13.8989193891       18.9291746265
C    6.0       20.7514403406       18.4751816561       25.3022803132
O    8.0       20.0760736719       18.0484323235       26.2176034129
O    8.0       21.7797441259       19.1093340551       25.4555461730
C    6.0       20.2779116243       18.2186334362       23.8748669744
H    1.0       19.5096027525       17.4370757209       23.9002264700
H    1.0       21.1255220388       17.8212387807       23.3090938478
C    6.0       19.7171773226       19.4939254318       23.1969259646
H    1.0       18.8974540692       19.8823504917       23.8156993881
H    1.0       20.4893304819       20.2749377983       23.1807485650
C    6.0       19.1928022450       19.2562064604       21.7629718221
H    1.0       18.7353527953       20.1868844740       21.4064044326
H    1.0       18.3991803409       18.5001391281       21.7846292388
C    6.0       20.2899352090       18.8249983346       20.7665279757
H    1.0       21.1674985932       19.4703240330       20.8877177827
H    1.0       20.6137652828       17.8021839615       20.9940311085
C    6.0       19.7972081082       18.9061747386       19.3063320233
H    1.0       19.4279318869       19.9185778758       19.0962363293
H    1.0       18.9508114843       18.2232276778       19.1573526705
C    6.0       20.9191206687       18.5604248697       18.3086338836
H    1.0       20.5600770723       18.6607396532       17.2764425262
H    1.0       21.2562543175       17.5266666837       18.4459852674
H    1.0       21.7807960323       19.2282983752       18.4376830382
 $end
