$$$$
! Edit this basic GAMESS input file as needed.
! Conformer was generated by a VeraChem VCPack run 
! and contains    145 atoms.
!
 $contrl scftyp=rhf runtyp=optimize nzvar=0
  maxit=200 icharg=0 $end
 $system mwords=50 $end
 $basis gbasis=pm3 $end
 $statpt nstep=200 $end
 $guess guess=huckel $end
 $data
VM2 Rank=1      G=489.175           E=301.847           -TS=187.328             
C1
C    6.0       16.3566821076       15.2321011697       21.7597360558
H    1.0       15.2976933635       15.0838133026       22.0060497615
O    8.0       16.6079947385       16.5669492681       21.2731933345
C    6.0       17.2401517989       14.9632977760       23.0036625707
H    1.0       17.0881560562       13.9138446371       23.2878769474
O    8.0       16.8806572712       15.7976319099       24.1118172519
H    1.0       17.6401678164       15.7162746731       24.7327049438
C    6.0       18.7367936968       15.1443851010       22.6682199285
H    1.0       18.9178437493       16.2022762471       22.4345542325
O    8.0       19.5102413441       14.7499897865       23.8069335569
H    1.0       20.3506521833       14.3661777802       23.4614700621
C    6.0       19.1390011198       14.3025062805       21.4309975588
H    1.0       19.2121588490       13.2478098937       21.7290043413
C    6.0       18.1299135179       14.4562246342       20.2568715521
H    1.0       18.2550987175       15.4584335043       19.8269633677
O    8.0       16.7690507213       14.3008736543       20.7356022396
C    6.0       18.3506865449       13.4319548752       19.1217250923
H    1.0       19.3347248982       13.6082406138       18.6672699192
H    1.0       17.5962202265       13.6011296162       18.3418282365
O    8.0       18.2665265042       12.0905071415       19.6117280074
H    1.0       17.3809596571       12.0055819690       20.0301904093
C    6.0       14.6748955655       20.2471669821       21.0025652800
H    1.0       13.9685422976       21.0639861389       20.8070735947
O    8.0       15.9733335459       20.7387590064       21.3841190086
C    6.0       14.1563315655       19.3340998840       22.1409528696
H    1.0       13.1908158689       18.9235621404       21.8179502507
O    8.0       13.9734826367       20.0697246152       23.3590413575
H    1.0       13.7789271104       19.3826964179       24.0356082841
C    6.0       15.1216519223       18.1488390358       22.3856011636
H    1.0       16.0577765636       18.5508614818       22.7980971200
O    8.0       14.5197249241       17.2548561335       23.3288933015
H    1.0       15.2611923841       16.7145452644       23.6997035577
C    6.0       15.4553991023       17.4067826228       21.0602943990
H    1.0       14.5869376525       16.8167067762       20.7385770214
C    6.0       15.8344961882       18.3869401112       19.9184848337
H    1.0       16.8197533905       18.8224245769       20.1310001398
O    8.0       14.8302089928       19.4269724779       19.8255231808
C    6.0       15.8990522049       17.6797209045       18.5486833365
H    1.0       14.9118393801       17.2625152377       18.3093666510
H    1.0       16.6100832439       16.8449323466       18.6051767900
O    8.0       16.3098517344       18.6038608290       17.5393242770
H    1.0       15.7125043745       19.3788379134       17.6250902370
C    6.0       18.3375955846       24.0957411527       21.5988183203
H    1.0       18.7640007824       25.1057162409       21.6460438099
O    8.0       19.3623827975       23.0878188818       21.4804070649
C    6.0       17.5036516248       23.8175094850       22.8730870278
H    1.0       16.6878880505       24.5516870892       22.8977844823
O    8.0       18.2992295767       23.9580736740       24.0581259511
H    1.0       17.7430074554       23.5796019838       24.7756902777
C    6.0       16.8720635824       22.4085328040       22.8208597282
H    1.0       17.6808196143       21.6713346194       22.8952554820
O    8.0       15.9635982615       22.2488225508       23.9172198033
H    1.0       15.4426757726       21.4281127344       23.7347315738
C    6.0       16.1196807605       22.1655147662       21.4895266707
H    1.0       15.1503035820       22.6790240566       21.5384863073
C    6.0       16.9128252003       22.6430392848       20.2406730659
H    1.0       17.7328455550       21.9344410764       20.0639802621
O    8.0       17.4523975714       23.9696676491       20.4662835699
C    6.0       16.0581833292       22.6990400275       18.9552682538
H    1.0       15.7175865160       21.6860909390       18.7057331461
H    1.0       16.6906207256       23.0441332210       18.1263521406
O    8.0       14.9360350521       23.5711104728       19.1194094158
H    1.0       15.3046119287       24.4455471240       19.3765489874
C    6.0       23.4523102082       22.6174742069       20.9210940848
H    1.0       24.5094576094       22.7453161019       20.6555255698
O    8.0       23.1629082885       21.2533410802       21.2825033985
C    6.0       23.0591539319       23.5602492049       22.0919507490
H    1.0       23.2389931677       24.5883321706       21.7528300652
O    8.0       23.8755071633       23.3054987496       23.2464192975
H    1.0       23.6643257938       22.3888054849       23.5543819565
C    6.0       21.5475996211       23.4314141009       22.4233175733
H    1.0       21.3777305575       22.4345928800       22.8514308635
O    8.0       21.1484869249       24.4389073319       23.3614978875
H    1.0       20.2203927742       24.2243045532       23.6275252706
C    6.0       20.6785225127       23.5660334840       21.1456567011
H    1.0       20.6636681579       24.6174473644       20.8291913172
C    6.0       21.2018533568       22.7036561775       19.9680652407
H    1.0       21.0195564701       21.6455048895       20.1989047460
O    8.0       22.6200964977       22.9432829308       19.7894179827
C    6.0       20.5057332495       23.0238259999       18.6265057414
H    1.0       19.4279643588       22.8453020979       18.7275614598
H    1.0       20.8829031403       22.3325363261       17.8611532769
O    8.0       20.7454728377       24.3782289780       18.2324688135
H    1.0       21.7215179382       24.4951967403       18.2470675836
C    6.0       24.9284830576       17.6271279811       22.0821625115
H    1.0       25.5740343611       16.7790759231       22.3434548358
O    8.0       23.7034955735       17.1926115038       21.4548644610
C    6.0       24.5792707454       18.4475194822       23.3502510765
H    1.0       25.5186577467       18.8445142443       23.7560961467
O    8.0       23.9679530970       17.5933745376       24.3316231257
H    1.0       23.3734402630       18.1518972209       24.8972874362
C    6.0       23.6751581355       19.6536134112       22.9856259764
H    1.0       22.6961863088       19.2619948749       22.6821554126
O    8.0       23.5291871842       20.5275300470       24.1134975332
H    1.0       22.9292609129       20.0674926090       24.7575570675
C    6.0       24.2560820014       20.4729700460       21.8031036276
H    1.0       25.0648251594       21.1087430394       22.1871407256
C    6.0       24.7891908000       19.5899208685       20.6387129726
H    1.0       23.9262083435       19.1755951170       20.1007730086
O    8.0       25.6022477765       18.5121042766       21.1641178230
C    6.0       25.6449339060       20.3618110335       19.6094295496
H    1.0       25.0113940469       21.0955692691       19.0940862406
H    1.0       26.0047943117       19.6543937319       18.8502703459
O    8.0       26.7495561513       21.0174376100       20.2389040073
H    1.0       27.2603992832       20.3150407032       20.6995638371
C    6.0       21.4319271003       13.8563062899       20.6611414113
H    1.0       21.0036990835       12.8930829849       20.3551468806
O    8.0       20.4028552370       14.8199590836       20.9722275367
C    6.0       22.3782917140       13.6900862201       21.8780996403
H    1.0       23.2172942778       13.0602934568       21.5542907156
O    8.0       21.7265821568       13.0602361454       22.9872282836
H    1.0       22.3894455889       13.0878319067       23.7141634223
C    6.0       22.9532008138       15.0600351736       22.3073622125
H    1.0       22.1229208537       15.6787011023       22.6757973156
O    8.0       23.9082700521       14.8629433029       23.3563209361
H    1.0       24.0079941019       15.7424741351       23.7993253239
C    6.0       23.6071568464       15.7988211145       21.1073403254
H    1.0       24.5941108249       15.3656567607       20.8975411269
C    6.0       22.7445009329       15.7397775666       19.8146461131
H    1.0       21.9043760091       16.4352689635       19.9278802830
O    8.0       22.2352265507       14.4000682830       19.5938213174
C    6.0       23.5286970609       16.1597917348       18.5521585898
H    1.0       23.9100986382       17.1801557165       18.6899469218
H    1.0       22.8381413360       16.1781157174       17.6984922375
O    8.0       24.6103174254       15.2590270950       18.2958144711
H    1.0       24.2134651483       14.3598335944       18.2683257283
C    6.0       20.7105670097       18.6638070036       25.5473152616
O    8.0       19.9176950248       18.6781747638       26.4679076448
O    8.0       21.8937298083       18.9236154837       25.6679037865
C    6.0       20.1934259857       18.3321208622       24.1515318192
H    1.0       19.3223027757       17.6769475486       24.2634391098
H    1.0       20.9693739251       17.7558207103       23.6365739779
C    6.0       19.8044462999       19.5933673402       23.3368309551
H    1.0       19.0445283449       20.1468508585       23.9036980387
H    1.0       20.6697823829       20.2618151204       23.2506236656
C    6.0       19.2490304801       19.2768223816       21.9280768673
H    1.0       18.8648186570       20.2048465095       21.4862433976
H    1.0       18.3936287119       18.5953984213       22.0174850102
C    6.0       20.3017316672       18.6730329682       20.9732099571
H    1.0       21.1705495174       19.3402383956       20.9109587193
H    1.0       20.6609322206       17.7151862697       21.3688890446
C    6.0       19.7260992202       18.4557191189       19.5599992990
H    1.0       18.9028191148       17.7318812628       19.5835200111
H    1.0       19.3442493499       19.3956803880       19.1411307847
H    1.0       20.4963333098       18.0703496195       18.8808090780
 $end
$$$$
! Edit this basic GAMESS input file as needed.
! Conformer was generated by a VeraChem VCPack run 
! and contains    145 atoms.
!
 $contrl scftyp=rhf runtyp=optimize nzvar=0
  maxit=200 icharg=0 $end
 $system mwords=50 $end
 $basis gbasis=pm3 $end
 $statpt nstep=200 $end
 $guess guess=huckel $end
 $data
VM2 Rank=2      G=489.424           E=301.747           -TS=187.677             
C1
C    6.0       16.3673242387       15.2617812652       21.6977116646
H    1.0       15.3040496877       15.1205600565       21.9291851996
O    8.0       16.6342181932       16.5948885354       21.2139583666
C    6.0       17.2314935393       14.9912765557       22.9545041246
H    1.0       17.0698295468       13.9434170049       23.2392340173
O    8.0       16.8601947950       15.8309030361       24.0549599520
H    1.0       17.6098018511       15.7474866951       24.6874108465
C    6.0       18.7338465885       15.1635306197       22.6389147213
H    1.0       18.9237819209       16.2202525149       22.4072858075
O    8.0       19.4902844395       14.7654226904       23.7877319868
H    1.0       20.3362775796       14.3838061239       23.4535375164
C    6.0       19.1494565549       14.3193495359       21.4074589423
H    1.0       19.2177387626       13.2651244044       21.7082570429
C    6.0       18.1549817110       14.4717379345       20.2207700487
H    1.0       18.2878795822       15.4716339351       19.7883147108
O    8.0       16.7888496076       14.3231301744       20.6843371978
C    6.0       18.3847156956       13.4423940609       19.0920558922
H    1.0       19.3735633719       13.6146534352       18.6466334231
H    1.0       17.6381258383       13.6103598803       18.3042618461
O    8.0       18.2926314941       12.1030530456       19.5864164319
H    1.0       17.4020511302       12.0215971967       19.9948335436
C    6.0       14.7293237850       20.2882053672       20.9094784828
H    1.0       14.0323070342       21.1097591139       20.7004418257
O    8.0       16.0197380050       20.7730333649       21.3246216578
C    6.0       14.1768358452       19.3704044791       22.0286952063
H    1.0       13.2189608733       18.9648221021       21.6778672978
O    8.0       13.9643687994       20.1002553279       23.2453917366
H    1.0       13.7497134092       19.4099417384       23.9125947174
C    6.0       15.1308679805       18.1805726477       22.2938274139
H    1.0       16.0610046230       18.5790898792       22.7228884998
O    8.0       14.5090464740       17.2909992455       23.2286356178
H    1.0       15.2420822050       16.7482947934       23.6124463262
C    6.0       15.4866225825       17.4358710985       20.9761537221
H    1.0       14.6237608357       16.8462003752       20.6392757034
C    6.0       15.8931499224       18.4176364888       19.8439180133
H    1.0       16.8749101536       18.8440699154       20.0873123418
O    8.0       14.9129544752       19.4786472008       19.7295082359
C    6.0       16.0028623547       17.7321076979       18.4638085851
H    1.0       16.7443051782       16.9243621478       18.5212905850
H    1.0       16.3710499009       18.4659655204       17.7346234624
O    8.0       14.7373734593       17.2108141154       18.0470829803
H    1.0       14.1025867783       17.9588803225       18.1114133489
C    6.0       18.3748928323       24.1188095181       21.6516423882
H    1.0       18.8094159208       25.1231768894       21.7329424823
O    8.0       19.3912380793       23.1080304748       21.4893024928
C    6.0       17.5447171498       23.8005013590       22.9187343010
H    1.0       16.7312456216       24.5357772217       22.9710960750
O    8.0       18.3446276898       23.8986183650       24.1050517925
H    1.0       17.7906600244       23.4955454501       24.8108701043
C    6.0       16.9088101570       22.3960261240       22.8206223689
H    1.0       17.7158730360       21.6554502181       22.8691062679
O    8.0       16.0025727465       22.2021144055       23.9131951908
H    1.0       15.4680701242       21.3986806275       23.6971074930
C    6.0       16.1531173225       22.1965523547       21.4837227535
H    1.0       15.1789122092       22.6980330036       21.5568719859
C    6.0       16.9344374459       22.7262043183       20.2480528225
H    1.0       17.7507923698       22.0238723429       20.0338780563
O    8.0       17.4811254686       24.0408483753       20.5216406447
C    6.0       16.0666984235       22.8369177400       18.9747897589
H    1.0       15.7219864768       21.8356050906       18.6855096999
H    1.0       16.6911006501       23.2164940964       18.1548975853
O    8.0       14.9476024976       23.7025037671       19.1872515329
H    1.0       15.3200665485       24.5653607136       19.4760869875
C    6.0       23.4834612759       22.6351583139       20.9481557503
H    1.0       24.5421620647       22.7618856036       20.6882400466
O    8.0       23.1888616636       21.2691983499       21.2991313231
C    6.0       23.0869469082       23.5720198156       22.1226216420
H    1.0       23.2690876072       24.6016945092       21.7896061876
O    8.0       23.8989546187       23.3106127557       23.2785919453
H    1.0       23.6843860231       22.3932414230       23.5821475785
C    6.0       21.5738845269       23.4431162798       22.4474193413
H    1.0       21.4011760721       22.4433890032       22.8675164136
O    8.0       21.1734261650       24.4438441128       23.3921728808
H    1.0       20.2515461795       24.2164210897       23.6688653116
C    6.0       20.7099297736       23.5881671796       21.1669719719
H    1.0       20.6963792950       24.6416869345       20.8574639808
C    6.0       21.2378614547       22.7340288934       19.9853038198
H    1.0       21.0519961381       21.6745211420       20.2069381076
O    8.0       22.6575059652       22.9710792874       19.8149632036
C    6.0       20.5490133451       23.0665402175       18.6429763139
H    1.0       19.4701306524       22.8916413781       18.7379924204
H    1.0       20.9271075862       22.3794379056       17.8743240555
O    8.0       20.7954608273       24.4227910358       18.2597408994
H    1.0       21.7718229203       24.5363035006       18.2805447339
C    6.0       24.9451849196       17.6353290183       22.0978232355
H    1.0       25.5900545253       16.7871623680       22.3604370770
O    8.0       23.7226379990       17.2008847312       21.4655787305
C    6.0       24.5918468414       18.4545539594       23.3656521663
H    1.0       25.5300760848       18.8505558699       23.7751331745
O    8.0       23.9767672844       17.6001351769       24.3443231991
H    1.0       23.3782221714       18.1580419402       24.9063223522
C    6.0       23.6898892539       19.6617229337       22.9994585677
H    1.0       22.7124270815       19.2712176728       22.6899514377
O    8.0       23.5388524517       20.5327854350       24.1288230147
H    1.0       22.9339918113       20.0722040654       24.7678537122
C    6.0       24.2772395786       20.4831876104       21.8217324284
H    1.0       25.0869113868       21.1149173064       22.2104721075
C    6.0       24.8114581223       19.6011036826       20.6572040340
H    1.0       23.9491034012       19.1886602935       20.1167848230
O    8.0       25.6219784825       18.5213762307       21.1828662134
C    6.0       25.6704693946       20.3738095928       19.6312776759
H    1.0       25.0392352569       21.1102335055       19.1168748829
H    1.0       26.0301783302       19.6676122573       18.8709165092
O    8.0       26.7753220198       21.0256191240       20.2643200108
H    1.0       27.2837342421       20.3210572165       20.7243674921
C    6.0       21.4490517822       13.8679892277       20.6621609927
H    1.0       21.0211618175       12.9049536873       20.3550978579
O    8.0       20.4195646185       14.8344449390       20.9630287708
C    6.0       22.3848118334       13.7023543799       21.8872912728
H    1.0       23.2238887308       13.0681202857       21.5724798664
O    8.0       21.7213012033       13.0790060380       22.9931457877
H    1.0       22.3782100065       13.1064896887       23.7254490445
C    6.0       22.9617327694       15.0712129297       22.3173269173
H    1.0       22.1311744432       15.6930908798       22.6796170722
O    8.0       23.9096518207       14.8720990117       23.3723405044
H    1.0       24.0112170269       15.7521313607       23.8138982156
C    6.0       23.6260760591       15.8062234344       21.1206451961
H    1.0       24.6136881312       15.3705568902       20.9193019673
C    6.0       22.7733942847       15.7459028071       19.8214661832
H    1.0       21.9342025996       16.4436555815       19.9262841892
O    8.0       22.2622240629       14.4071088099       19.5999515521
C    6.0       23.5686029797       16.1609042085       18.5642218008
H    1.0       23.9517852355       17.1805273681       18.7028071037
H    1.0       22.8848420483       16.1792324424       17.7051140628
O    8.0       24.6496553606       15.2565491888       18.3183656269
H    1.0       24.2505625956       14.3583691461       18.2900344334
C    6.0       20.7098447382       18.6652261393       25.5343048259
O    8.0       19.9085448196       18.6758425024       26.4476146418
O    8.0       21.8915304871       18.9259567662       25.6666007698
C    6.0       20.2059681778       18.3369914041       24.1328223051
H    1.0       19.3341974759       17.6812265738       24.2354159531
H    1.0       20.9867877389       17.7624324020       23.6234157495
C    6.0       19.8232925672       19.6001437708       23.3181341757
H    1.0       19.0596474918       20.1515001940       23.8818366714
H    1.0       20.6889243730       20.2691493865       23.2402058848
C    6.0       19.2776999902       19.2875607354       21.9044324173
H    1.0       18.8962817877       20.2166712494       21.4622693275
H    1.0       18.4220341974       18.6055309863       21.9867167240
C    6.0       20.3373907038       18.6871206254       20.9552346743
H    1.0       21.2040953818       19.3575667789       20.8974878344
H    1.0       20.6980625031       17.7310756921       21.3539269524
C    6.0       19.7702594028       18.4662015912       19.5391806351
H    1.0       18.9543820626       17.7343426661       19.5607482888
H    1.0       19.3843020956       19.4041282249       19.1198283221
H    1.0       20.5476567851       18.0872928547       18.8643506077
 $end
$$$$
! Edit this basic GAMESS input file as needed.
! Conformer was generated by a VeraChem VCPack run 
! and contains    145 atoms.
!
 $contrl scftyp=rhf runtyp=optimize nzvar=0
  maxit=200 icharg=0 $end
 $system mwords=50 $end
 $basis gbasis=pm3 $end
 $statpt nstep=200 $end
 $guess guess=huckel $end
 $data
VM2 Rank=3      G=489.522           E=302.002           -TS=187.520             
C1
C    6.0       16.3698323091       15.2875308369       21.6669760706
H    1.0       15.3062048037       15.1419438640       21.8940702621
O    8.0       16.6356027797       16.6263055124       21.1985648712
C    6.0       17.2311134693       15.0047546608       22.9231015995
H    1.0       17.0702078243       13.9536548347       23.1960721313
O    8.0       16.8556145343       15.8319113026       24.0315627468
H    1.0       17.6035819191       15.7426064647       24.6651276325
C    6.0       18.7340907029       15.1824885449       22.6134999742
H    1.0       18.9232738818       16.2420177562       22.3943483820
O    8.0       19.4882114063       14.7723026558       23.7596093340
H    1.0       20.3371837420       14.3992055916       23.4232756216
C    6.0       19.1539522980       14.3524331623       21.3739249489
H    1.0       19.2225467968       13.2950533040       21.6633632433
C    6.0       18.1626418396       14.5168349357       20.1862189330
H    1.0       18.2952537387       15.5217788734       19.7655098528
O    8.0       16.7955323689       14.3608474228       20.6443977292
C    6.0       18.3969429824       13.5006830467       19.0465364805
H    1.0       19.3866636016       13.6795037960       18.6056618466
H    1.0       17.6521449391       13.6764151949       18.2587408001
O    8.0       18.3056579269       12.1556868067       19.5254749635
H    1.0       17.4141791452       12.0683064324       19.9306879388
C    6.0       14.7236181754       20.3185790931       20.9292398736
H    1.0       14.0258559303       21.1413414555       20.7276397763
O    8.0       16.0118802998       20.8003828518       21.3542886484
C    6.0       14.1694114773       19.3870809150       22.0361670771
H    1.0       13.2135964472       18.9833593588       21.6776623076
O    8.0       13.9514194093       20.1028538562       23.2602420267
H    1.0       13.7367806374       19.4046145706       23.9191497642
C    6.0       15.1253505281       18.1965160118       22.2909997885
H    1.0       16.0532341430       18.5923319944       22.7273761571
O    8.0       14.5027916960       17.2951432260       23.2139592145
H    1.0       15.2360079433       16.7500969229       23.5940918123
C    6.0       15.4870613319       17.4674899379       20.9661784052
H    1.0       14.6266197826       16.8797451106       20.6198840218
C    6.0       15.8949239378       18.4629080209       19.8463053858
H    1.0       16.8748907208       18.8890468292       20.0975122372
O    8.0       14.9122983291       19.5226494827       19.7408552150
C    6.0       16.0106490170       17.7933886727       18.4588546272
H    1.0       16.7536634173       16.9866413156       18.5095617696
H    1.0       16.3797254613       18.5363312371       17.7393437194
O    8.0       14.7476304153       17.2741757426       18.0320885940
H    1.0       14.1110475800       18.0201092074       18.1030299684
C    6.0       18.3638305366       24.1449223240       21.7210268921
H    1.0       18.7970609761       25.1488030569       21.8144265466
O    8.0       19.3815627086       23.1366064957       21.5581201312
C    6.0       17.5261659478       23.8156456544       22.9799247050
H    1.0       16.7120335142       24.5500556973       23.0341196873
O    8.0       18.3210786865       23.9046282129       24.1704186017
H    1.0       17.7642204564       23.4964574297       24.8709627836
C    6.0       16.8922121529       22.4115427737       22.8665172244
H    1.0       17.6993762092       21.6707782464       22.9147478908
O    8.0       15.9785256530       22.2086780084       23.9512114250
H    1.0       15.4477049133       21.4051836221       23.7263466744
C    6.0       16.1458820734       22.2226011016       21.5228939912
H    1.0       15.1718521094       22.7249627784       21.5922027099
C    6.0       16.9370494482       22.7592991441       20.2963617250
H    1.0       17.7547909718       22.0574769800       20.0844107661
O    8.0       17.4818413174       24.0733686456       20.5812800300
C    6.0       16.0792107763       22.8762260244       19.0169641910
H    1.0       15.7344165841       21.8766763581       18.7217978543
H    1.0       16.7104209599       23.2564669063       18.2026740925
O    8.0       14.9605922873       23.7437329477       19.2241349073
H    1.0       15.3321404358       24.6038658965       19.5219991019
C    6.0       23.4704974058       22.6788422496       20.9909436948
H    1.0       24.5267919567       22.8126511229       20.7248649395
O    8.0       23.1827683368       21.3077898787       21.3276154978
C    6.0       23.0780353640       23.6001800326       22.1788742109
H    1.0       23.2547578008       24.6342966250       21.8569155519
O    8.0       23.8965456088       23.3292489666       23.3278656842
H    1.0       23.6853939432       22.4084720942       23.6234443810
C    6.0       21.5670458994       23.4613036170       22.5084506437
H    1.0       21.4000883010       22.4570833637       22.9201196611
O    8.0       21.1638573052       24.4522910782       23.4622964524
H    1.0       20.2430512552       24.2192469231       23.7379568898
C    6.0       20.6989396258       23.6146040903       21.2319631903
H    1.0       20.6870606677       24.6694903684       20.9265539985
C    6.0       21.2182486658       22.7686924808       20.0421608463
H    1.0       21.0338244615       21.7055208631       20.2482784575
O    8.0       22.6336753681       23.0269671691       19.8688131788
C    6.0       20.5197151831       23.1411422010       18.7176258632
H    1.0       20.7567202662       24.1830623523       18.4642405745
H    1.0       19.4327054538       23.0687087562       18.8446124836
O    8.0       20.9463505527       22.2627378663       17.6750797988
H    1.0       21.9280068572       22.2443580464       17.7209393191
C    6.0       24.9483608528       17.6711186991       22.0912582151
H    1.0       25.5955057889       16.8219498502       22.3448775956
O    8.0       23.7251132606       17.2399120211       21.4583784185
C    6.0       24.5962836711       18.4784393783       23.3670092151
H    1.0       25.5346252320       18.8728910777       23.7777220714
O    8.0       23.9853164225       17.6141971885       24.3396667189
H    1.0       23.3866923422       18.1658143834       24.9077493745
C    6.0       23.6908666310       19.6867877807       23.0134765745
H    1.0       22.7135662782       19.2968405313       22.7027813618
O    8.0       23.5402388067       20.5468016001       24.1513150027
H    1.0       22.9374804376       20.0790273197       24.7871203805
C    6.0       24.2738569465       20.5199740274       21.8415588008
H    1.0       25.0831001749       21.1501684562       22.2336052559
C    6.0       24.8068929607       19.6490857347       20.6681794990
H    1.0       23.9439173044       19.2396166675       20.1264027338
O    8.0       25.6210784675       18.5665740131       21.1824448222
C    6.0       25.6614882666       20.4326210412       19.6468386814
H    1.0       25.0273858070       21.1724997692       19.1410949067
H    1.0       26.0202341007       19.7340181541       18.8790454244
O    8.0       26.7669625253       21.0807883281       20.2825208548
H    1.0       27.2776613516       20.3731311227       20.7352151742
C    6.0       21.4551340440       13.9114557200       20.6279319460
H    1.0       21.0283140728       12.9505653447       20.3127678272
O    8.0       20.4247328387       14.8736125729       20.9389179174
C    6.0       22.3920675664       13.7363446777       21.8508032319
H    1.0       23.2313541011       13.1053366702       21.5301339893
O    8.0       21.7295981632       13.1035787568       22.9519516779
H    1.0       22.3867156189       13.1260728826       23.6842190407
C    6.0       22.9681970437       15.1020007968       22.2919492625
H    1.0       22.1374175667       15.7197172651       22.6608136390
O    8.0       23.9177847338       14.8947302563       23.3438945862
H    1.0       24.0196155482       15.7711814728       23.7924560624
C    6.0       23.6300762415       15.8483883572       21.1009802243
H    1.0       24.6179644262       15.4158465407       20.8943441600
C    6.0       22.7755682449       15.7988333591       19.8026163892
H    1.0       21.9354870641       16.4942618095       19.9152982956
O    8.0       22.2662939379       14.4612721765       19.5696671979
C    6.0       23.5680334278       16.2268622331       18.5480117099
H    1.0       23.9496621457       17.2458349898       18.6954287548
H    1.0       22.8828194770       16.2520736995       17.6902315232
O    8.0       24.6501968092       15.3266236206       18.2920396612
H    1.0       24.2525325526       14.4280878596       18.2561279484
C    6.0       20.7179601293       18.6604823191       25.5494132966