$$$$
! Edit this basic GAMESS input file as needed.
! Conformer was generated by a VeraChem VCPack run 
! and contains    143 atoms.
!
 $contrl scftyp=rhf runtyp=optimize nzvar=0
  maxit=200 icharg=0 $end
 $system mwords=50 $end
 $basis gbasis=pm3 $end
 $statpt nstep=200 $end
 $guess guess=huckel $end
 $data
VM2 Rank=1      G=538.532           E=351.358           -TS=187.174             
C1
C    6.0       16.4186637938       15.3403580503       21.8291474583
H    1.0       15.3653690816       15.2425371461       22.1210909068
O    8.0       16.6699276321       16.5870073261       21.1488829278
C    6.0       17.3361662003       15.2550366056       23.0761771576
H    1.0       17.1673523111       14.2718051110       23.5344538719
O    8.0       17.0293355374       16.2801218621       24.0351353949
H    1.0       16.1224044658       16.6111365845       23.8270733397
C    6.0       18.8241738400       15.3488253343       22.6687491381
H    1.0       19.0057194007       16.3625830444       22.2870591064
O    8.0       19.6333632072       15.1156546613       23.8251603933
H    1.0       19.2307866866       15.6794729459       24.5240579678
C    6.0       19.1795305577       14.3387733856       21.5472369132
H    1.0       19.2620152455       13.3349380579       21.9843213133
C    6.0       18.1318454122       14.3316428721       20.3983868196
H    1.0       18.2476706296       15.2589326711       19.8215719251
O    8.0       16.7900429094       14.2635694395       20.9423638828
C    6.0       18.3059026902       13.1495857905       19.4189042530
H    1.0       19.2727659822       13.2483100632       18.9078000700
H    1.0       17.5232954179       13.2089382971       18.6506890532
O    8.0       18.2362163461       11.8951810034       20.1030055280
H    1.0       17.3644287772       11.8766721819       20.5572233753
C    6.0       14.8217163926       20.2554678917       20.5711760991
H    1.0       14.1609365186       21.0879747546       20.2972400741
O    8.0       16.1425325375       20.7204632629       20.9166841940
C    6.0       14.2273964766       19.4272053740       21.7423033812
H    1.0       13.2749948120       19.0125798279       21.3868851856
O    8.0       13.9724628351       20.2321959095       22.9030060239
H    1.0       14.8498939163       20.5608997562       23.2244642970
C    6.0       15.1539463309       18.2404784134       22.1031874624
H    1.0       16.0844304091       18.6503718543       22.5208183835
O    8.0       14.4957959571       17.4303546092       23.0837584808
H    1.0       14.0541414116       18.0707592405       23.6873038857
C    6.0       15.5185835452       17.4002865955       20.8455440472
H    1.0       14.6608076116       16.7832075729       20.5463593917
C    6.0       15.9370184114       18.2895264597       19.6457871430
H    1.0       16.9249820881       18.7131901772       19.8593957146
O    8.0       14.9674201965       19.3502410925       19.4568387210
C    6.0       16.0345034278       17.4933272299       18.3284941192
H    1.0       15.0298252582       17.1748127444       18.0197574552
H    1.0       16.6356632106       16.5894882287       18.4939444779
O    8.0       16.6432202142       18.3006810846       17.3185586283
H    1.0       16.1160718591       19.1289686004       17.2743585524
C    6.0       18.4150301598       23.9473337522       22.0283048074
H    1.0       18.8456504053       24.8985562610       22.3666334315
O    8.0       19.3934160686       23.1184986201       21.3694478074
C    6.0       17.8174136152       23.1619963115       23.2234854651
H    1.0       17.0047402131       23.7715152622       23.6397811500
O    8.0       18.7959313480       22.9187677654       24.2468589002
H    1.0       19.5881282807       23.4683061433       24.0312538598
C    6.0       17.2189427891       21.8212307106       22.7422808842
H    1.0       18.0505288994       21.1875492434       22.4080040469
O    8.0       16.5445844602       21.1906748313       23.8352456362
H    1.0       17.1751115200       21.2614347330       24.5873847619
C    6.0       16.2466443046       22.0100263686       21.5491965347
H    1.0       15.2800164408       22.3623342019       21.9326270492
C    6.0       16.7818136366       22.9976782525       20.4717708699
H    1.0       17.5649107247       22.4851553389       19.8974897053
O    8.0       17.3381880313       24.1824374007       21.0967684896
C    6.0       15.7010013121       23.4561007508       19.4676638850
H    1.0       15.3550359696       22.5870961150       18.8926239277
H    1.0       16.1555411541       24.1577896683       18.7554672262
O    8.0       14.5990482256       24.0740680400       20.1382917601
H    1.0       14.9731036088       24.8264584298       20.6488528165
C    6.0       23.4772408696       22.7520543561       20.8783710609
H    1.0       24.5424273055       22.8778969579       20.6452707358
O    8.0       23.1513681325       21.3648606509       21.1124860957
C    6.0       23.0666358632       23.6199257466       22.0998031392
H    1.0       23.2472995927       24.6661236769       21.8203177571
O    8.0       23.8414003165       23.3176411142       23.2694660746
H    1.0       23.6172716001       22.3881429949       23.5282637778
C    6.0       21.5571037945       23.4667806138       22.4035759952
H    1.0       21.3847185472       22.4384780886       22.7514874083
O    8.0       21.1966071357       24.3954411222       23.4319803310
H    1.0       21.9487745607       24.3769031813       24.0669259045
C    6.0       20.6904677950       23.6972017920       21.1346445115
H    1.0       20.6215772481       24.7706876545       20.9134282399
C    6.0       21.2501927966       22.9606454746       19.8909277411
H    1.0       21.0507004071       21.8914982368       20.0160402270
O    8.0       22.6743127524       23.1997952096       19.7668597955
C    6.0       20.5775069373       23.4183869945       18.5809797217
H    1.0       20.8320760889       24.4691963901       18.3884857705
H    1.0       19.4870745632       23.3529682158       18.6910759254
O    8.0       21.0078416760       22.5882869052       17.5000811759
H    1.0       21.9889946554       22.6353686468       17.4964918705
C    6.0       24.7959343501       17.7033069073       22.1514583450
H    1.0       25.4304035847       16.8797552207       22.5035435778
O    8.0       23.6547642795       17.2188765640       21.4157184586
C    6.0       24.3057110572       18.5599433653       23.3487333042
H    1.0       25.1989230931       18.9651326975       23.8419483650
O    8.0       23.5589531102       17.7809366282       24.2969958333
H    1.0       23.7408798355       16.8295700152       24.1036788732
C    6.0       23.4460966545       19.7471237509       22.8592625278
H    1.0       22.5177471107       19.3374767184       22.4418297111
O    8.0       23.1449266620       20.5932053906       23.9730967468
H    1.0       22.8533888976       19.9741416669       24.6802282816
C    6.0       24.1616801432       20.5561718046       21.7486767433
H    1.0       24.9480028207       21.1677334599       22.2102441414
C    6.0       24.7850884745       19.6427313196       20.6555603594
H    1.0       23.9705056220       19.2167985243       20.0557107739
O    8.0       25.5438897984       18.5729074063       21.2743921110
C    6.0       25.7285692613       20.3939033084       19.6899746789
H    1.0       25.1453091384       21.1283615635       19.1190138975
H    1.0       26.1424473208       19.6753790471       18.9698325472
O    8.0       26.7836047581       21.0482676994       20.4003016372
H    1.0       27.2539489735       20.3472870087       20.9042118250
C    6.0       21.4653893916       13.7997919911       20.7891367433
H    1.0       21.0506847026       12.8156489280       20.5354259728
O    8.0       20.4233005597       14.7833406518       20.9728285406
C    6.0       22.3605713048       13.7264345889       22.0549083436
H    1.0       23.2075912647       13.0728802254       21.8083950491
O    8.0       21.6664839464       13.1720873455       23.1818127440
H    1.0       20.9532632107       13.8157793814       23.4225165644
C    6.0       22.9264753012       15.1245524260       22.4028378261
H    1.0       22.0880474024       15.7593537691       22.7221320450
O    8.0       23.8677954921       14.9884588900       23.4732989015
H    1.0       23.4664323086       14.3283780680       24.0835052785
C    6.0       23.5972710643       15.7988390362       21.1728346007
H    1.0       24.5986737493       15.3757737681       21.0166164296
C    6.0       22.7790648514       15.6356783301       19.8642087951
H    1.0       21.9178920327       16.3108230136       19.9122097676
O    8.0       22.3184001926       14.2692211061       19.7234364719
C    6.0       23.6118623564       15.9996016367       18.6160910900
H    1.0       24.3855317628       15.2357193293       18.4606022012
H    1.0       24.1210312834       16.9571467333       18.7895412506
O    8.0       22.7657105192       16.1028028158       17.4684563489
H    1.0       22.2946736251       15.2419656321       17.4000859634
N    7.0       22.0962171125       18.8162420538       16.5586479007
H    1.0       22.8503511183       19.4834844676       16.7396162798
H    1.0       21.9329019425       18.8087028987       15.5476123084
H    1.0       22.4440705440       17.8754872114       16.8113686198
C    6.0       20.8368976513       19.1551191090       17.3292342794
H    1.0       20.0812554936       18.4075002453       17.0722817252
H    1.0       20.4793284499       20.1349118714       16.9990018371
C    6.0       21.0529574527       19.1653103264       18.8518618390
H    1.0       21.6012433823       18.2655325156       19.1439178994
H    1.0       21.6848245418       20.0173078560       19.1276442803
C    6.0       19.7096028477       19.2104013969       19.6105756912
H    1.0       19.0964889934       18.3533733426       19.2984259398
H    1.0       19.1521259615       20.1174489439       19.3355058492
C    6.0       19.9013958931       19.1621517874       21.1414003084
H    1.0       18.9297894227       19.1155449161       21.6505701670
H    1.0       20.4291223611       20.0544271349       21.5028900357
H    1.0       20.4773708144       18.2762015583       21.4405870491
 $end
$$$$
! Edit this basic GAMESS input file as needed.
! Conformer was generated by a VeraChem VCPack run 
! and contains    143 atoms.
!
 $contrl scftyp=rhf runtyp=optimize nzvar=0
  maxit=200 icharg=0 $end
 $system mwords=50 $end
 $basis gbasis=pm3 $end
 $statpt nstep=200 $end
 $guess guess=huckel $end
 $data
VM2 Rank=2      G=538.541           E=350.729           -TS=187.813             
C1
C    6.0       16.2694193765       15.1604767385       21.8246519690
H    1.0       15.1982331699       15.0615007154       22.0430490708
O    8.0       16.5863212314       16.4533191476       21.2684603503
C    6.0       17.1061541869       14.9474480155       23.1114429957
H    1.0       16.9236274750       13.9204199524       23.4536834356
O    8.0       16.7265343022       15.8653921542       24.1493036101
H    1.0       15.9483205881       16.3769668127       23.8180144473
C    6.0       18.6133709845       15.0939236287       22.8057719443
H    1.0       18.7951045588       16.1453634561       22.5555808060
O    8.0       19.3692427104       14.7427576663       23.9684842448
H    1.0       18.9169215000       15.2087017906       24.7076947573
C    6.0       19.0566464430       14.2270243137       21.5992816632
H    1.0       19.1924228208       13.1919419422       21.9401537724
C    6.0       18.0567432331       14.2731320334       20.4067080763
H    1.0       18.1848608557       15.2350299293       19.8928527641
O    8.0       16.6895984276       14.1564231013       20.8773200808
C    6.0       18.2938675215       13.1596264560       19.3625450228
H    1.0       19.2780670004       13.3071693097       18.8986938639
H    1.0       17.5419321994       13.2548285540       18.5677322183
O    8.0       18.2205673535       11.8631859115       19.9623933206
H    1.0       17.3303175687       11.7995229307       20.3748090544
C    6.0       14.8984157225       20.1677946403       20.5593881429
H    1.0       14.2680012068       21.0140365170       20.2573505293
O    8.0       16.2329325397       20.6005847819       20.8987145896
C    6.0       14.2654141461       19.3959127104       21.7503382473
H    1.0       13.2945387988       19.0181349415       21.4040419333
O    8.0       14.0500854277       20.2394574649       22.8915143502
H    1.0       14.9426181623       20.5357333452       23.2028098270
C    6.0       15.1337071547       18.1764274346       22.1436670547
H    1.0       16.0767140391       18.5543155948       22.5631984465
O    8.0       14.4373803319       17.4070469841       23.1296073364
H    1.0       14.0339528543       18.0713209864       23.7337021143
C    6.0       15.4733651249       17.2945285566       20.9114398220
H    1.0       14.5955223847       16.7037412535       20.6172117949
C    6.0       15.9414472952       18.1345496289       19.6951080012
H    1.0       16.9430939215       18.5218902400       19.9102621699
O    8.0       15.0181733865       19.2285217419       19.4704797678
C    6.0       16.0179255480       17.3034814654       18.3976407631
H    1.0       15.0039125752       17.0157953000       18.0891791766
H    1.0       16.5820194029       16.3815558374       18.5895999828
O    8.0       16.6635314760       18.0611072359       17.3713715279
H    1.0       16.1601733780       18.9015638206       17.2936013481
C    6.0       18.4950642390       23.8971939270       21.9579371188
H    1.0       18.8734249880       24.8706495728       22.2955678278
O    8.0       19.5250999959       23.1209054051       21.3131620328
C    6.0       17.9179150793       23.0954695752       23.1551242227
H    1.0       17.0951842806       23.6899822166       23.5733705115
O    8.0       18.9016623471       22.8714114939       24.1775207161
H    1.0       19.6528819599       23.4884829673       24.0026960375
C    6.0       17.3416204027       21.7408260799       22.6860237384
H    1.0       18.1820607844       21.1180301832       22.3570413412
O    8.0       16.6766237524       21.1098803109       23.7847405349
H    1.0       17.3039023187       21.2015414443       24.5372506238
C    6.0       16.3661691277       21.9062056579       21.4942201141
H    1.0       15.4083333905       22.2860046929       21.8733918009
C    6.0       16.9146011294       22.8638085007       20.3979315885
H    1.0       17.7245292396       22.3493780242       19.8638978275
O    8.0       17.4254211131       24.0778350690       21.0054174317
C    6.0       15.8553747121       23.2708703068       19.3494602964
H    1.0       15.5472599806       22.3793443066       18.7874543940
H    1.0       16.3159554248       23.9640916211       18.6328689328
O    8.0       14.7191232213       23.8800002137       19.9691433023
H    1.0       15.0593068475       24.6557666273       20.4681947598
C    6.0       23.6091710339       22.8874588581       20.9402538665
H    1.0       24.6834980148       23.0061033075       20.7486220522
O    8.0       23.2571517313       21.5026141062       21.1512105119
C    6.0       23.1558924795       23.7400050576       22.1540560230
H    1.0       23.3221679498       24.7915024751       21.8856315301
O    8.0       23.9104872546       23.4433244649       23.3380092746
H    1.0       23.7068542149       22.5050129038       23.5813045529
C    6.0       21.6422368358       23.5507730130       22.4148123721
H    1.0       21.4843076476       22.5179826489       22.7564302271
O    8.0       21.2330305045       24.4680730090       23.4352709216
H    1.0       21.9671605137       24.4633162466       24.0912145827
C    6.0       20.8010376835       23.7652351522       21.1243559044
H    1.0       20.6841781204       24.8403562419       20.9329703575
C    6.0       21.4257346767       23.1028596076       19.8653560627
H    1.0       21.2475662356       22.0237909035       19.9116509989
O    8.0       22.8498535924       23.3638014491       19.8100330069
C    6.0       20.7944251318       23.6272674953       18.5598678909
H    1.0       21.0452856284       24.6891375257       18.4347356371
H    1.0       19.7012346461       23.5475175177       18.6297899565
O    8.0       21.2677841394       22.8624017780       17.4494594157
H    1.0       22.2490067653       22.9064616352       17.4859290339
C    6.0       24.7673589896       17.7776704712       22.1215426966
H    1.0       25.3726838791       16.9212069918       22.4445253195
O    8.0       23.5806327064       17.3573110265       21.4182182027
C    6.0       24.3482157954       18.6358979755       23.3431077271
H    1.0       25.2706255590       18.9930515838       23.8194066897
O    8.0       23.5915531915       17.8704426036       24.2950789200
H    1.0       23.7654496144       16.9169033918       24.1055308008
C    6.0       23.5287196556       19.8665386581       22.8919808506
H    1.0       22.5711734176       19.5024967261       22.4988906202
O    8.0       23.2936897187       20.7075408431       24.0247790094
H    1.0       22.9964741757       20.0908490981       24.7316066334
C    6.0       24.2488072275       20.6598032613       21.7702519358
H    1.0       25.0634017877       21.2441464494       22.2183416095
C    6.0       24.8133456618       19.7368255848       20.6534987889
H    1.0       23.9697939121       19.3577733325       20.0616423791
O    8.0       25.5339389786       18.6238432382       21.2386005059
C    6.0       25.7717769796       20.4633827422       19.6837051010
H    1.0       25.2122706747       21.2359115700       19.1397006267
H    1.0       26.1371842593       19.7416157167       18.9409459988
O    8.0       26.8700596233       21.0529778916       20.3854335301
H    1.0       27.3156331048       20.3203770857       20.8664346979
C    6.0       21.3639114396       13.9034865899       20.8108920328
H    1.0       20.9890944272       12.9096113222       20.5340088229
O    8.0       20.2874470474       14.8081011035       21.1295857159
C    6.0       22.3381383538       13.8225831581       22.0156692139
H    1.0       23.1856152998       13.1996020527       21.7011467255
O    8.0       21.7211145217       13.2188046504       23.1628865631
H    1.0       20.9411079640       13.7792357118       23.4061605340
C    6.0       22.8885111998       15.2254547665       22.3747925397
H    1.0       22.0537063409       15.8277302985       22.7602913902
O    8.0       23.8886398642       15.0788414217       23.3890855976
H    1.0       23.5365506606       14.3864024111       23.9940884980
C    6.0       23.4682109275       15.9501484307       21.1251003944
H    1.0       24.4406771694       15.5170268963       20.8554449153
C    6.0       22.5191302980       15.8535484602       19.9032972257
H    1.0       21.6506883142       16.4879864090       20.1044167526
O    8.0       22.1016805567       14.4794014172       19.7126136277
C    6.0       23.1742934460       16.3414037951       18.5936990390
H    1.0       23.9973836116       15.6657094117       18.3253073024
H    1.0       23.6010068081       17.3404201537       18.7528033626
O    8.0       22.1984997102       16.3896495675       17.5481815538
H    1.0       21.8176246774       15.4840575280       17.4980404278
N    7.0       20.7662201115       18.8590911890       16.7837035608
H    1.0       21.2826048833       17.9740618191       16.9224736093
H    1.0       21.2482547458       19.3753747258       16.0420259991
H    1.0       19.8346346116       18.6149416798       16.4335802174
C    6.0       20.6954220606       19.6530400887       18.0705823764
H    1.0       20.2050783779       20.6088866526       17.8642353823
H    1.0       21.7208724744       19.8554836428       18.3915192854
C    6.0       19.9423398030       18.9026188123       19.1813103113
H    1.0       18.8798464866       18.8398562363       18.9204557769
H    1.0       20.3106598469       17.8733349881       19.2312635116
C    6.0       20.1162849529       19.5870059082       20.5529752507
H    1.0       19.5754307231       20.5421928607       20.5561726627
H    1.0       21.1770252952       19.8187990880       20.7133643157
C    6.0       19.6217813450       18.7050255387       21.7172818942
H    1.0       19.7547188295       19.2206616945       22.6774551546
H    1.0       20.1899245091       17.7669492823       21.7628352244
H    1.0       18.5572922085       18.4621431901       21.6110891728
 $end
$$$$
! Edit this basic GAMESS input file as needed.
! Conformer was generated by a VeraChem VCPack run 
! and contains    143 atoms.
!
 $contrl scftyp=rhf runtyp=optimize nzvar=0
  maxit=200 icharg=0 $end
 $system mwords=50 $end
 $basis gbasis=pm3 $end
 $statpt nstep=200 $end
 $guess guess=huckel $end
 $data
VM2 Rank=3      G=538.553           E=350.433           -TS=188.119             
C1
C    6.0       16.4663373666       15.3528402945       21.8629275812
H    1.0       15.4117747756       15.2614066409       22.1523724714
O    8.0       16.7325035609       16.6145043322       21.2145945250
C    6.0       17.3769544304       15.2228492805       23.1107346277
H    1.0       17.1846314097       14.2349556422       23.5492829748
O    8.0       17.0850162561       16.2373436823       24.0856206857
H    1.0       16.1874589790       16.5924209333       23.8757324829
C    6.0       18.8689927007       15.2933906048       22.7144057400
H    1.0       19.0732827827       16.3159626844       22.3763033896
O    8.0       19.6679697493       15.0028375991       23.8644120251
H    1.0       19.2772183837       15.5515556772       24.5816220354
C    6.0       19.2117106938       14.3180224534       21.5576441743
H    1.0       19.2844713053       13.3002544601       21.9634509833
C    6.0       18.1641435259       14.3555660836       20.4091259378
H    1.0       18.2928548554       15.2949696974       19.8556760381
O    8.0       16.8219073582       14.2933673908       20.9501979673
C    6.0       18.3210540568       13.1968008039       19.3993483669
H    1.0       19.2890520516       13.2946763069       18.8902306052
H    1.0       17.5391446536       13.2870282687       18.6334223481
O    8.0       18.2335938402       11.9263609333       20.0509454508
H    1.0       17.3613283683       11.9081096247       20.5042229879
C    6.0       14.8314551355       20.2584164926       20.6176720990
H    1.0       14.1583989884       21.0787495669       20.3365530076
O    8.0       16.1357177359       20.7463688717       20.9924369601
C    6.0       14.2395684650       19.4173585122       21.7787750872
H    1.0       13.3048672114       18.9755987070       21.4093280967
O    8.0       13.9429128053       20.2204727577       22.9306925457
H    1.0       14.7951291053       20.6233875428       23.2350658277
C    6.0       15.1949673304       18.2575021648       22.1525692832
H    1.0       16.1147714316       18.6921631647       22.5687296868
O    8.0       14.5564338107       17.4382125338       23.1383338641
H    1.0       14.0985090070       18.0722232747       23.7364786854
C    6.0       15.5781336159       17.4193325106       20.8986493777
H    1.0       14.7270134526       16.7934045798       20.5985810880
C    6.0       15.9863800165       18.3083203147       19.6935621411
H    1.0       16.9740398648       18.7394994860       19.8946234315
O    8.0       15.0068367621       19.3597636157       19.5029636731
C    6.0       16.0703059995       17.5057931131       18.3787481968
H    1.0       15.0770756314       17.1070959867       18.1325020400
H    1.0       16.7478933309       16.6529593005       18.5168811807
O    8.0       16.5495723364       18.3451256330       17.3257525294
H    1.0       15.9548692800       19.1275329660       17.3126487517
C    6.0       18.3673199228       24.0397763978       21.9537498909
H    1.0       18.7981155268       25.0102921832       22.2320977694
O    8.0       19.3644469357       23.1400415693       21.4254188371
C    6.0       17.6851227800       23.3788120579       23.1779659815
H    1.0       16.8550721346       24.0303912549       23.4808711470
O    8.0       18.5927049849       23.2304813110       24.2812535457
H    1.0       19.4648790925       23.5982708129       23.9959959946
C    6.0       17.0996988429       22.0037797371       22.7897791018
H    1.0       17.9439077216       21.3398141701       22.5746983306
O    8.0       16.3555088418       21.4822597392       23.8939105105
H    1.0       16.9342836709       21.6339100144       24.6752499180
C    6.0       16.2046690131       22.0837473603       21.5246749043
H    1.0       15.2162539372       22.4617856532       21.8182355927
C    6.0       16.8040794182       22.9772770008       20.3987701175
H    1.0       17.6072858488       22.4123543900       19.9076405383
O    8.0       17.3467835356       24.2057984868       20.9473568445
C    6.0       15.7785076333       23.3582025843       19.3082354370
H    1.0       15.4455491001       22.4460632958       18.7955633346
H    1.0       16.2763857215       23.9894249524       18.5599945236
O    8.0       14.6569232256       24.0453772385       19.8701953724
H    1.0       15.0193041264       24.8344249380       20.3314477814
C    6.0       23.4527735605       22.7352559218       20.9344342645
H    1.0       24.5192198437       22.8617673010       20.7075995952
O    8.0       23.1218921339       21.3458760850       21.1457373360
C    6.0       23.0405641563       23.5843729036       22.1685455625
H    1.0       23.2351179700       24.6335818264       21.9105415581
O    8.0       23.8015604205       23.2505677352       23.3388033727
H    1.0       23.5723252532       22.3155759476       23.5722076537
C    6.0       21.5271337983       23.4426735597       22.4580440452
H    1.0       21.3422586132       22.4134308527       22.7963397007
O    8.0       21.1644043828       24.3670010998       23.4885413247
H    1.0       21.9011250014       24.3253477019       24.1400542789
C    6.0       20.6721443747       23.6935393548       21.1866647408
H    1.0       20.6257918138       24.7697554924       20.9726296778
C    6.0       21.2312342635       22.9611895492       19.9395311582
H    1.0       21.0297048322       21.8896185101       20.0487787729
O    8.0       22.6559852353       23.2017839976       19.8267475710
C    6.0       20.5719853372       23.4408116136       18.6306405296
H    1.0       20.7893030680       24.5072370717       18.4833589751
H    1.0       19.4826323526       23.3299844934       18.7112148170
O    8.0       21.0654933710       22.6710758008       17.5315223414
H    1.0       22.0434125872       22.7813100421       17.5480662192
C    6.0       24.8047950858       17.6704942299       22.1026276782
H    1.0       25.4551266562       16.8541077768       22.4420655235
O    8.0       23.6824201556       17.1746425136       21.3458182992
C    6.0       24.2898704518       18.4947810914       23.3141511579
H    1.0       25.1737375718       18.8982472198       23.8253013283
O    8.0       23.5421782085       17.6890832780       24.2386116561
H    1.0       23.7868762478       16.7471994883       24.0715196689
C    6.0       23.4212613495       19.6845973252       22.8472637583
H    1.0       22.4984380048       19.2781495062       22.4156900015
O    8.0       23.1061758783       20.5029316871       23.9780232254
H    1.0       22.8223670760       19.8645964889       24.6710050456
C    6.0       24.1350510628       20.5247689578       21.7603707972
H    1.0       24.9176845717       21.1271764345       22.2399343452
C    6.0       24.7656171300       19.6409945299       20.6474479761
H    1.0       23.9547178101       19.2161589844       20.0410112986
O    8.0       25.5403598015       18.5712748092       21.2467553393
C    6.0       25.6983329034       20.4215935104       19.6946478810
H    1.0       25.1044937632       21.1570161111       19.1359010074
H    1.0       26.1216160145       19.7211048521       18.9623097575
O    8.0       26.7447006919       21.0785243886       20.4156418151
H    1.0       27.2257034880       20.3753506000       20.9062840880
C    6.0       21.4809354088       13.7659443033       20.7749040545
H    1.0       21.0453640860       12.7878376079       20.5328812945
O    8.0       20.4596193168       14.7645923811       20.9919510268
C    6.0       22.4076834806       13.6798515253       22.0147450987
H    1.0       23.2444283355       13.0228387682       21.7434688262
O    8.0       21.7384437030       13.1237864214       23.1557678095
H    1.0       21.0214134248       13.7591817979       23.4070637838
C    6.0       22.9886557832       15.0738598124       22.3519808875
H    1.0       22.1608778431       15.7097788571       22.6962063331
O    8.0       23.9552727537       14.9263643520       23.3982230116
H    1.0       23.5685423758       14.2587502982       24.0098587984
C    6.0       23.6325012139       15.7525952295       21.1081842620
H    1.0       24.6360311714       15.3392409127       20.9402770159
C    6.0       22.8004683539       15.5788647509       19.8067800321
H    1.0       21.9529014010       16.2709501149       19.8365811926
O    8.0       22.3145045075       14.2192290783       19.6883446701
C    6.0       23.6247410924       15.9045272739       18.5450187811
H    1.0       24.4067688996       15.1445817661       18.4141029934
H    1.0       24.1202905937       16.8757312141       18.6781885852
O    8.0       22.7670079473       15.9504474689       17.4031051531
H    1.0       22.2851911658       15.0936760829       17.3870145322
N    7.0       19.7327580856       20.0981757651       17.2088140581
H    1.0       20.2669990988       20.9764372323       17.3158757442
H    1.0       18.8841480412       20.3324994551       16.6846822890
H    1.0       20.2854614438       19.4721673275       16.6169176175
C    6.0       19.3987954761       19.4702246330       18.5447414630