$$$$
! Edit this basic GAMESS input file as needed.
! Conformer was generated by a VeraChem VCPack run 
! and contains    151 atoms.
!
 $contrl scftyp=rhf runtyp=optimize nzvar=0
  maxit=200 icharg=0 $end
 $system mwords=50 $end
 $basis gbasis=pm3 $end
 $statpt nstep=200 $end
 $guess guess=huckel $end
 $data
VM2 Rank=1      G=504.823           E=307.722           -TS=197.101             
C1
C    6.0       16.2137229867       15.0525783598       21.2535810337
H    1.0       15.1303764818       14.8973853714       21.1754557688
O    8.0       16.5518356474       16.4531615903       21.2968890043
C    6.0       16.7532824918       14.3668301572       22.5336710854
H    1.0       16.5383011475       13.2940336853       22.4440720893
O    8.0       16.1130415579       14.8768170822       23.7111906092
H    1.0       16.6430316259       14.5145303657       24.4565746900
C    6.0       18.2853173570       14.5337655257       22.6509202364
H    1.0       18.5016891867       15.5930116230       22.8410945437
O    8.0       18.7687137599       13.7354155808       23.7380665463
H    1.0       19.7561531940       13.7383182365       23.6761402692
C    6.0       19.0026787443       14.1159736984       21.3436413624
H    1.0       19.0209367208       13.0193151213       21.2925860800
C    6.0       18.3240943371       14.6881833788       20.0681186088
H    1.0       18.5304800064       15.7654134839       20.0194705389
O    8.0       16.8927735751       14.4641471093       20.1243493126
C    6.0       18.8441297453       14.0503443693       18.7609288675
H    1.0       19.9139236923       14.2711626403       18.6527096682
H    1.0       18.3268954615       14.5161845700       17.9115160124
O    8.0       18.6282136709       12.6360055529       18.7574822088
H    1.0       17.6648052420       12.5070118799       18.9050249002
C    6.0       14.9246389346       20.2623115255       20.8783481141
H    1.0       14.2747961305       21.1145345916       20.6412677400
O    8.0       16.2343270511       20.6959905194       21.2910390778
C    6.0       14.3038096032       19.3932376248       22.0044623527
H    1.0       13.3229460763       19.0519905367       21.6487137886
O    8.0       14.1312157978       20.1410648979       23.2156603546
H    1.0       13.8424277070       19.4753214278       23.8798361196
C    6.0       15.1677937388       18.1413604741       22.2874791516
H    1.0       16.1165737366       18.4725358507       22.7324782703
O    8.0       14.4744317168       17.2816295686       23.2002682030
H    1.0       15.0779888149       16.5190442109       23.3851153873
C    6.0       15.4899652275       17.3729052404       20.9821666235
H    1.0       14.5859129544       16.8576004154       20.6317150039
C    6.0       16.0006457956       18.3132335231       19.8593510981
H    1.0       16.9974599566       18.6780520438       20.1355986057
O    8.0       15.0883559559       19.4294500640       19.7111425752
C    6.0       16.1131937923       17.6156772201       18.4858888066
H    1.0       16.8118018085       16.7730945210       18.5657064592
H    1.0       16.5371172998       18.3264106866       17.7638888100
O    8.0       14.8347987636       17.1554476173       18.0380490242
H    1.0       14.2393488832       17.9369723623       18.0696862978
C    6.0       18.5042588221       24.0854343479       21.8585568442
H    1.0       18.9119448370       25.0872376806       22.0443615173
O    8.0       19.5176017825       23.1705100819       21.3991489037
C    6.0       17.8713199599       23.5150885979       23.1503911382
H    1.0       17.0392573921       24.1751699230       23.4280006651
O    8.0       18.8187865326       23.4760477054       24.2264300647
H    1.0       18.3906417930       22.9138997406       24.9107903284
C    6.0       17.2937711691       22.1043758419       22.8960448095
H    1.0       18.1306011995       21.4220864167       22.6964049265
O    8.0       16.5685270868       21.6737980271       24.0536500401
H    1.0       15.9243410592       20.9923177156       23.7440879542
C    6.0       16.3572804662       22.0814829354       21.6632685003
H    1.0       15.3902786801       22.5145101109       21.9530616665
C    6.0       16.9426326356       22.8458781558       20.4402586952
H    1.0       17.7521765871       22.2385161311       20.0141472873
O    8.0       17.4658111138       24.1329360618       20.8570917403
C    6.0       15.9148209170       23.1015837462       19.3154328637
H    1.0       15.6031366285       22.1396898774       18.8876185590
H    1.0       16.4047462257       23.6698918803       18.5133969561
O    8.0       14.7770982738       23.8165287262       19.8062364238
H    1.0       15.1224815464       24.6529685202       20.1903856670
C    6.0       23.5379977477       22.7791702496       20.6711220839
H    1.0       24.5903216260       22.8588941025       20.3694571143
O    8.0       23.1967222048       21.4256496044       21.0428286156
C    6.0       23.2146533460       23.7508213266       21.8386489863
H    1.0       23.3547590375       24.7708920379       21.4588350920
O    8.0       24.1095516261       23.5477837618       22.9424163597
H    1.0       23.8784902000       22.6711778168       23.3386305002
C    6.0       21.7273415162       23.6040375145       22.2592495827
H    1.0       21.5927114478       22.5979568000       22.6801931842
O    8.0       21.3748846056       24.5857186773       23.2415229261
H    1.0       20.5425130841       24.2614500429       23.6653624088
C    6.0       20.7835241478       23.7462409810       21.0327029339
H    1.0       20.6866001889       24.8054550738       20.7595840026
C    6.0       21.2657600011       22.9503244777       19.7916310419
H    1.0       21.0657919580       21.8900621636       19.9792964229
O    8.0       22.6837095633       23.1536223422       19.5721023023
C    6.0       20.5258509916       23.3418960677       18.4938596283
H    1.0       19.4492871630       23.1764363506       18.6300447263
H    1.0       20.8609363049       22.6793704245       17.6845179051
O    8.0       20.7759036730       24.7085763859       18.1530023510
H    1.0       21.7537883317       24.8071762455       18.1292571205
C    6.0       24.8243362553       17.7838525642       22.1555582635
H    1.0       25.4697372877       16.9621645452       22.4908834472
O    8.0       23.5836174401       17.2920148148       21.6075219693
C    6.0       24.5105717133       18.7320764608       23.3421775870
H    1.0       25.4673414835       19.1298080369       23.7043498036
O    8.0       23.8790108645       17.9952007337       24.4036241578
H    1.0       23.2991624580       18.6184969633       24.9136703554
C    6.0       23.6477592170       19.9353988275       22.8800831807
H    1.0       22.6473175570       19.5617709612       22.6294551621
O    8.0       23.5648798072       20.9061406670       23.9313214076
H    1.0       22.9826656804       20.5201732610       24.6358096558
C    6.0       24.2424519254       20.6185684177       21.6194301019
H    1.0       25.1046409721       21.2260535843       21.9249217199
C    6.0       24.6803426462       19.6009942566       20.5311355938
H    1.0       23.7766320736       19.1666070238       20.0835201507
O    8.0       25.4845232886       18.5561991166       21.1310004866
C    6.0       25.5049500042       20.2348353051       19.3888188855
H    1.0       24.8739038899       20.9524955068       18.8478260616
H    1.0       25.7854728958       19.4463756280       18.6775862980
O    8.0       26.6738180558       20.8873655626       19.8933487770
H    1.0       27.1734612752       20.2056146242       20.3953887583
C    6.0       21.4226805079       13.7813193576       21.1595947192
H    1.0       21.0780818773       12.7602109199       20.9532774358
O    8.0       20.3248854571       14.6786393147       21.4195587093
C    6.0       22.3640149883       13.7982424141       22.3895242529
H    1.0       23.2292741085       13.1660373217       22.1513144023
O    8.0       21.7084338022       13.2830158666       23.5566050335
H    1.0       22.3288523688       13.4799905607       24.2943063586
C    6.0       22.8800907858       15.2294585281       22.6681312948
H    1.0       22.0236035490       15.8423522445       22.9800948084
O    8.0       23.8486293675       15.1810803409       23.7223400014
H    1.0       23.9239958495       16.1078888286       24.0619177209
C    6.0       23.4915593943       15.8702778667       21.3918751305
H    1.0       24.4772046601       15.4296577869       21.1915715921
C    6.0       22.5914387447       15.6746312563       20.1406039129
H    1.0       21.7105220918       16.3225876449       20.2364602864
O    8.0       22.1697421993       14.2923600897       20.0365879255
C    6.0       23.3108551995       16.0417829104       18.8237240965
H    1.0       23.6468877388       17.0855678866       18.8761819727
H    1.0       22.5920926534       15.9672945018       17.9967866983
O    8.0       24.4266199028       15.1775090326       18.5901434202
H    1.0       24.0766467546       14.2610900882       18.6562490716
C    6.0       20.6720808513       19.5282718272       25.5852527595
O    8.0       19.9436968161       19.3804459335       26.5465259498
O    8.0       21.8874362120       19.5448779791       25.6510884224
C    6.0       20.0320223055       19.6839967763       24.2097462186
H    1.0       20.6234940423       20.4072027135       23.6384550151
H    1.0       19.0375383841       20.1203882375       24.3525041402
C    6.0       19.9129569497       18.3383784985       23.4496526767
H    1.0       20.8951149173       17.8492320279       23.4056715650
H    1.0       19.2608244592       17.6708324077       24.0291046645
C    6.0       19.3385219706       18.4871101345       22.0218041741
H    1.0       18.4412424949       19.1183520409       22.0423699601
H    1.0       19.0176697271       17.4977938014       21.6755928675
C    6.0       20.3640990128       19.0451092388       21.0110641561
H    1.0       20.6776324181       20.0532173541       21.3088446267
H    1.0       21.2605948084       18.4155693812       21.0319063553
C    6.0       19.7964834598       19.0826605292       19.5759442904
H    1.0       19.0521319562       19.8872711211       19.5039876740
H    1.0       19.2740872005       18.1414017449       19.3602404207
C    6.0       20.9020449635       19.2843937882       18.5182164742
H    1.0       21.5113613342       20.1628787266       18.7608281425
H    1.0       21.5811600293       18.4230095959       18.5321712788
C    6.0       20.3081905237       19.4434898164       17.1051456492
H    1.0       19.6447575170       20.3164580159       17.0543725923
H    1.0       21.1058460882       19.5796668023       16.3636561367
H    1.0       19.7285119998       18.5555485570       16.8214299854
 $end
