$$$$
! Edit this basic GAMESS input file as needed.
! Conformer was generated by a VeraChem VCPack run 
! and contains    148 atoms.
!
 $contrl scftyp=rhf runtyp=optimize nzvar=0
  maxit=200 icharg=0 $end
 $system mwords=50 $end
 $basis gbasis=pm3 $end
 $statpt nstep=200 $end
 $guess guess=huckel $end
 $data
VM2 Rank=1      G=497.019           E=304.927           -TS=192.092             
C1
C    6.0       16.3395852347       15.1621096208       21.0185784476
H    1.0       15.2847220722       14.9668833780       20.7888714648
O    8.0       16.5624527736       16.5426873681       21.3702813725
C    6.0       16.7967786556       14.2702999685       22.2024172608
H    1.0       16.6213540935       13.2271617703       21.9088806494
O    8.0       16.0492534308       14.5538210491       23.3932423272
H    1.0       16.5158789466       14.0567910595       24.1024070996
C    6.0       18.3096982067       14.4341306563       22.4804691180
H    1.0       18.4832939824       15.4484442871       22.8658477821
O    8.0       18.7225787447       13.4599446788       23.4472244303
H    1.0       19.7029414776       13.5517441911       23.5471428045
C    6.0       19.1331853855       14.2610499951       21.1818363886
H    1.0       19.1033824342       13.2056270020       20.8801913118
C    6.0       18.5780599593       15.1283886379       20.0230235652
H    1.0       18.7399826842       16.1886803063       20.2566889783
O    8.0       17.1644720491       14.8444628257       19.8768368034
C    6.0       19.2555716418       14.8070832844       18.6738731197
H    1.0       19.1396271580       13.7372864932       18.4553634524
H    1.0       20.3292658386       15.0190858577       18.7476523282
O    8.0       18.6773014861       15.5933059626       17.6307825268
H    1.0       17.7075619882       15.4518965261       17.6944972212
C    6.0       14.7037418155       20.2763402858       21.2808990655
H    1.0       13.9833964911       21.0960076237       21.1647433884
O    8.0       16.0301935847       20.7649849387       21.5510433591
C    6.0       14.2864604917       19.3476903990       22.4503998025
H    1.0       13.2865994783       18.9586399134       22.2180846145
O    8.0       14.2382872109       20.0613704187       23.6941011816
H    1.0       14.1128307399       19.3625920662       24.3750451002
C    6.0       15.2485224180       18.1420757997       22.5777518901
H    1.0       16.2288025498       18.5140248921       22.9069895442
O    8.0       14.7253463941       17.2182901913       23.5402097165
H    1.0       15.2935750624       16.4090473650       23.4960701697
C    6.0       15.4323656020       17.4248316594       21.2183840347
H    1.0       14.5089511052       16.8768685489       20.9894877154
C    6.0       15.7372259308       18.4184476070       20.0640834946
H    1.0       16.7411029797       18.8358660330       20.2110906016
O    8.0       14.7550351655       19.4833302710       20.0753941311
C    6.0       15.6996389440       17.7671974635       18.6646833103
H    1.0       16.4897612962       17.0095457852       18.6029225161
H    1.0       15.9254333929       18.5345760073       17.9123401539
O    8.0       14.4234056161       17.1754657915       18.4036783919
H    1.0       13.7609910521       17.8915326807       18.5239696453
C    6.0       18.4104048150       24.1161759432       21.5394856709
H    1.0       18.8480714134       25.1224711692       21.5399724263
O    8.0       19.4133071685       23.0963384868       21.3523107252
C    6.0       17.6706349684       23.8612829845       22.8758127115
H    1.0       16.8575147271       24.5954635109       22.9461012774
O    8.0       18.5463953289       24.0211446315       23.9998577823
H    1.0       18.0429726870       23.6510363212       24.7596489896
C    6.0       17.0396078437       22.4518299916       22.8909714007
H    1.0       17.8544952790       21.7182267392       22.9115784582
O    8.0       16.2194771014       22.3023137276       24.0563470729
H    1.0       15.6982245145       21.4712753129       23.9292406793
C    6.0       16.1860957250       22.1934739718       21.6251941688
H    1.0       15.2241977116       22.7091586435       21.7458714931
C    6.0       16.8754590943       22.6589815532       20.3108632759
H    1.0       17.6742604972       21.9453137539       20.0702840398
O    8.0       17.4394186302       23.9842434554       20.4803876994
C    6.0       15.9164297069       22.7136681964       19.1011028943
H    1.0       15.5464636550       21.7026192614       18.8877059414
H    1.0       16.4803167193       23.0472411566       18.2196772883
O    8.0       14.8204457448       23.5983630522       19.3521107456
H    1.0       15.2178463084       24.4703705000       19.5718345535
C    6.0       23.4659178823       22.5667789599       20.6375027851
H    1.0       24.5123725469       22.6609666190       20.3204714946
O    8.0       23.1711320575       21.2273900620       21.0811669405
C    6.0       23.1360051777       23.5799483471       21.7685332011
H    1.0       23.3044771493       24.5845072584       21.3601338546
O    8.0       24.0043093571       23.3901506928       22.8969545193
H    1.0       23.7657784666       22.5168678281       23.2971780471
C    6.0       21.6415333090       23.4822030906       22.1777736533
H    1.0       21.4850522602       22.5097898638       22.6650913090
O    8.0       21.2987888200       24.5413002227       23.0804499974
H    1.0       20.3985248880       24.3309419216       23.4316315459
C    6.0       20.7125894989       23.5582490219       20.9371191051
H    1.0       20.6802385932       24.5929393361       20.5707470247
C    6.0       21.1789046814       22.6393484429       19.7780604485
H    1.0       20.9975860660       21.5965347997       20.0654899264
O    8.0       22.5906149166       22.8506324226       19.5270850772
C    6.0       20.4253283684       22.9011387950       18.4554437631
H    1.0       19.3513228040       22.7427879602       18.6154645459
H    1.0       20.7586770919       22.1664371307       17.7102415183
O    8.0       20.6620990076       24.2306558370       17.9830855366
H    1.0       21.6390660130       24.3345722236       17.9476178227
C    6.0       24.9842966948       17.6829258034       22.2093039618
H    1.0       25.6616707006       16.8883844245       22.5471055249
O    8.0       23.7611891516       17.1454001500       21.6637608630
C    6.0       24.6376068043       18.6324650393       23.3852784046
H    1.0       25.5727469382       19.1034809903       23.7146116006
O    8.0       24.0857029914       17.8834504894       24.4791277037
H    1.0       23.4056884203       18.4527702941       24.9242478285
C    6.0       23.6861418821       19.7607592712       22.9086401589
H    1.0       22.7262806002       19.3091681919       22.6299693916
O    8.0       23.4877168891       20.7203375446       23.9558546307
H    1.0       22.8465449348       20.3090319206       24.5937550403
C    6.0       24.2574109253       20.4777605088       21.6578377961
H    1.0       25.0815993442       21.1300567323       21.9751844777
C    6.0       24.7610835551       19.4839248666       20.5727577122
H    1.0       23.8861465176       19.0040601317       20.1138561550
O    8.0       25.6100100723       18.4780973562       21.1802727936
C    6.0       25.5677212781       20.1555090768       19.4390773764
H    1.0       24.9057613767       20.8289543105       18.8787995507
H    1.0       25.9072732171       19.3787798758       18.7408029140
O    8.0       26.6868711761       20.8803379602       19.9573568137
H    1.0       27.2224742291       20.2321013917       20.4665960961
C    6.0       21.5170789814       13.7192754342       21.3220227636
H    1.0       21.1132782357       12.7102471601       21.1725136454
O    8.0       20.4708759504       14.7013713411       21.4793815773
C    6.0       22.4158000219       13.7433683153       22.5806972069
H    1.0       23.2462709390       13.0471058841       22.4052704344
O    8.0       21.6873815389       13.3275831900       23.7441713703
H    1.0       22.2901749936       13.5222694158       24.4966602845
C    6.0       23.0132644751       15.1499420959       22.8084124490
H    1.0       22.1898768820       15.8196029359       23.0891238243
O    8.0       23.9664156646       15.0804778639       23.8749031216
H    1.0       24.0940724585       16.0105648664       24.1874611420
C    6.0       23.6786660314       15.7140920778       21.5219465701
H    1.0       24.6704289781       15.2622204724       21.3881893840
C    6.0       22.8351614616       15.4674253150       20.2400254588
H    1.0       21.9891527734       16.1653739437       20.2463263362
O    8.0       22.3387732892       14.1061303100       20.2028701446
C    6.0       23.6338967772       15.7133437564       18.9410577418
H    1.0       24.0038263545       16.7474232335       18.9381394560
H    1.0       22.9563744808       15.6030097748       18.0838190068
O    8.0       24.7268744431       14.7971014723       18.8294304686
H    1.0       24.3396087342       13.8989193891       18.9291746265
C    6.0       20.7514403406       18.4751816561       25.3022803132
O    8.0       20.0760736719       18.0484323235       26.2176034129
O    8.0       21.7797441259       19.1093340551       25.4555461730
C    6.0       20.2779116243       18.2186334362       23.8748669744
H    1.0       19.5096027525       17.4370757209       23.9002264700
H    1.0       21.1255220388       17.8212387807       23.3090938478
C    6.0       19.7171773226       19.4939254318       23.1969259646
H    1.0       18.8974540692       19.8823504917       23.8156993881
H    1.0       20.4893304819       20.2749377983       23.1807485650
C    6.0       19.1928022450       19.2562064604       21.7629718221
H    1.0       18.7353527953       20.1868844740       21.4064044326
H    1.0       18.3991803409       18.5001391281       21.7846292388
C    6.0       20.2899352090       18.8249983346       20.7665279757
H    1.0       21.1674985932       19.4703240330       20.8877177827
H    1.0       20.6137652828       17.8021839615       20.9940311085
C    6.0       19.7972081082       18.9061747386       19.3063320233
H    1.0       19.4279318869       19.9185778758       19.0962363293
H    1.0       18.9508114843       18.2232276778       19.1573526705
C    6.0       20.9191206687       18.5604248697       18.3086338836
H    1.0       20.5600770723       18.6607396532       17.2764425262
H    1.0       21.2562543175       17.5266666837       18.4459852674
H    1.0       21.7807960323       19.2282983752       18.4376830382
 $end
$$$$
! Edit this basic GAMESS input file as needed.
! Conformer was generated by a VeraChem VCPack run 
! and contains    148 atoms.
!
 $contrl scftyp=rhf runtyp=optimize nzvar=0
  maxit=200 icharg=0 $end
 $system mwords=50 $end
 $basis gbasis=pm3 $end
 $statpt nstep=200 $end
 $guess guess=huckel $end
 $data
VM2 Rank=2      G=497.177           E=305.142           -TS=192.035             
C1
C    6.0       16.3321605036       15.2293683775       21.5987911006
H    1.0       15.2550806579       15.0878356362       21.7540651513
O    8.0       16.6398156499       16.5863821027       21.2172893086
C    6.0       17.1107839809       14.8691462204       22.8890833975
H    1.0       16.9134641574       13.8102238727       23.1011477736
O    8.0       16.6858337251       15.6520239916       24.0116760254
H    1.0       17.3892388860       15.5112968106       24.6857877875
C    6.0       18.6328979206       15.0285520836       22.6811359797
H    1.0       18.8545470077       16.0922079757       22.5250130888
O    8.0       19.3077784010       14.5469892066       23.8485672045
H    1.0       20.2063806528       14.2563607243       23.5610826274
C    6.0       19.1140465289       14.2535811878       21.4301818513
H    1.0       19.1385401213       13.1813120775       21.6670440853
C    6.0       18.2060735534       14.5083656281       20.1934785204
H    1.0       18.3835644678       15.5338949597       19.8428643501
O    8.0       16.8096408103       14.3528253263       20.5546902737
C    6.0       18.4979386962       13.5535064410       19.0147740435
H    1.0       19.5202255013       13.7310751516       18.6549485175
H    1.0       17.8145187383       13.7930151494       18.1890724029
O    8.0       18.3435683448       12.1863561401       19.4072615838
H    1.0       17.4245123708       12.1002670787       19.7456735753
C    6.0       14.7758404111       20.3059072949       20.9070407584
H    1.0       14.0851437766       21.1295754636       20.6855659202
O    8.0       16.0473715583       20.7874882189       21.3788737195
C    6.0       14.1847689036       19.3745826286       21.9949425395
H    1.0       13.2316552694       18.9867472742       21.6125615414
O    8.0       13.9502673892       20.0885345349       23.2177056894
H    1.0       13.7112519871       19.3912911980       23.8689741869
C    6.0       15.1167670778       18.1684818917       22.2670368115
H    1.0       16.0345593694       18.5471341433       22.7388246189
O    8.0       14.4509915555       17.2640232844       23.1559833098
H    1.0       15.1573958573       16.6806748152       23.5299897196
C    6.0       15.5144146654       17.4479665634       20.9486693343
H    1.0       14.6576757344       16.8790830479       20.5637361644
C    6.0       15.9775283092       18.4496649790       19.8576936008
H    1.0       16.9474164353       18.8666678499       20.1558114695
O    8.0       15.0053503815       19.5149947439       19.7220348588
C    6.0       16.1504281158       17.7934120636       18.4699570671
H    1.0       16.8880071935       16.9835220468       18.5445091608
H    1.0       16.5525867775       18.5418971633       17.7742908232
O    8.0       14.9051847689       17.2832355068       17.9844281215
H    1.0       14.2685493337       18.0306918075       18.0354352085
C    6.0       18.3851834709       24.1551541215       21.6884314149
H    1.0       18.8067187414       25.1653484336       21.7653033660
O    8.0       19.4146824984       23.1562195688       21.5388360939
C    6.0       17.5547294953       23.8354906648       22.9553907244
H    1.0       16.7360143024       24.5651588179       23.0040873811
O    8.0       18.3551632480       23.9445802458       24.1407773696
H    1.0       17.8023351682       23.5484733844       24.8512005725
C    6.0       16.9295183396       22.4254058410       22.8625729828
H    1.0       17.7434463358       21.6931238801       22.9262025664
O    8.0       16.0141561110       22.2281442709       23.9471097640
H    1.0       15.4885100210       21.4204219473       23.7263850595
C    6.0       16.1833133743       22.2124801156       21.5217330662
H    1.0       15.2086982024       22.7144594438       21.5855661649
C    6.0       16.9714145827       22.7348653734       20.2870197643
H    1.0       17.7973702470       22.0390098017       20.0885553788
O    8.0       17.4997112651       24.0580028844       20.5539090218
C    6.0       16.1180298745       22.8280511588       19.0024614131
H    1.0       15.7955608050       21.8210025426       18.7087489069
H    1.0       16.7460917030       23.2178601891       18.1902139933
O    8.0       14.9809704162       23.6738281404       19.1985414368
H    1.0       15.3341068703       24.5449466879       19.4866536274
C    6.0       23.4822788910       22.6777216151       20.9046740234
H    1.0       24.5392361591       22.7893426952       20.6307456899
O    8.0       23.1666715437       21.3107492705       21.2362386688
C    6.0       23.1171511074       23.6009531883       22.0994952199
H    1.0       23.2897092588       24.6347304538       21.7741754044
O    8.0       23.9581601662       23.3282908362       23.2312328136
H    1.0       23.7376936739       22.4141842123       23.5402793956
C    6.0       21.6117568231       23.4630431028       22.4546264481
H    1.0       21.4456009424       22.4500754677       22.8464762025
O    8.0       21.2277785775       24.4338145162       23.4371209760
H    1.0       20.3007870747       24.2141155660       23.7023844056
C    6.0       20.7234513132       23.6494841348       21.1969656861
H    1.0       20.7030291569       24.7134083848       20.9258731532
C    6.0       21.2247455443       22.8368829055       19.9741025293
H    1.0       21.0249922187       21.7742550388       20.1560410072
O    8.0       22.6461663011       23.0541126068       19.7914209295
C    6.0       20.5229287578       23.2285367285       18.6551079771
H    1.0       19.4432587333       23.0639595995       18.7581101828
H    1.0       20.8814897909       22.5657043429       17.8562691189
O    8.0       20.7830164992       24.5949238698       18.3203335964
H    1.0       21.7611264335       24.6937080653       18.3285301768
C    6.0       24.9289690724       17.6519921341       22.0460173805
H    1.0       25.6008609894       16.8254308281       22.3098103540
O    8.0       23.6942001640       17.1713629935       21.4745730873
C    6.0       24.6065401601       18.5014566431       23.3027488651
H    1.0       25.5537063624       18.9169685691       23.6701909122
O    8.0       24.0368497914       17.6664535796       24.3239375972
H    1.0       23.4497668940       18.2321286250       24.8894361617
C    6.0       23.6814455238       19.6926321676       22.9382247409
H    1.0       22.7008674371       19.2915436502       22.6541871316
O    8.0       23.5451974896       20.5756110895       24.0597654786
H    1.0       22.9482889364       20.1221358481       24.7112330527
C    6.0       24.2443952447       20.4951830345       21.7354295361
H    1.0       25.0864113534       21.1052600835       22.0884981859
C    6.0       24.7100810493       19.5827571230       20.5662726071
H    1.0       23.8186439240       19.1545679076       20.0883748167
O    8.0       25.5527474267       18.5202453344       21.0769574366
C    6.0       25.5074855192       20.3300362146       19.4741500785
H    1.0       24.8482387536       21.0593027251       18.9849832626
H    1.0       25.8177126230       19.6070048253       18.7078940168
O    8.0       26.6508109419       20.9893894390       20.0261416489
H    1.0       27.1813235696       20.2921924329       20.4721329906
C    6.0       21.4498238459       13.7900718004       20.8274165668
H    1.0       21.0235466052       12.8135834123       20.5634860418
O    8.0       20.4218074774       14.7641636000       21.1076965765
C    6.0       22.3966002527       13.6779472677       22.0491136257
H    1.0       23.2347373229       13.0326663554       21.7549633826
O    8.0       21.7401665803       13.1014678315       23.1840785718
H    1.0       22.3965531624       13.1734022597       23.9137381667
C    6.0       22.9723384362       15.0650851019       22.4188779477
H    1.0       22.1430658357       15.6939078870       22.7716615760
O    8.0       23.9379502354       14.9094911193       23.4650185721
H    1.0       24.0536409654       15.8084354859       23.8626981458
C    6.0       23.6152962524       15.7614517675       21.1877296978
H    1.0       24.6073546764       15.3314372664       20.9963318311
C    6.0       22.7559941976       15.6374149209       19.8981114249
H    1.0       21.9119968483       16.3336066350       19.9789144966
O    8.0       22.2502846920       14.2887325835       19.7371509508
C    6.0       23.5480632161       15.9956830946       18.6209596652
H    1.0       23.9342665127       17.0195546843       18.7139601917
H    1.0       22.8618942257       15.9777733495       17.7637430143
O    8.0       24.6265229793       15.0792475845       18.4112309243
H    1.0       24.2259793343       14.1814282150       18.4265188301
C    6.0       20.8077737572       18.5341618480       25.5384148750
O    8.0       21.9425172696       18.9618737361       25.6442215931
O    8.0       20.0603500036       18.3586655741       26.4802229617
C    6.0       20.2882840355       18.2325188570       24.1364440997
H    1.0       19.5167265120       17.4603944773       24.2262056968
H    1.0       21.1106625473       17.8043865869       23.5539003641
C    6.0       19.7039825277       19.4847011978       23.4344609854
H    1.0       18.8698158894       19.8623311020       24.0411979788
H    1.0       20.4565049988       20.2844278998       23.4144575100
C    6.0       19.1952311776       19.2131821779       21.9996291842
H    1.0       18.6272606524       20.0896077219       21.6682562500
H    1.0       18.4945119904       18.3697562799       22.0044531256
C    6.0       20.3284198667       18.9590552833       20.9823535835
H    1.0       21.0813977863       19.7464872711       21.0888990372
H    1.0       20.8294923862       18.0080373400       21.2027098579
C    6.0       19.8024584075       18.9548518394       19.5310060158
H    1.0       19.1598764072       19.8304940721       19.3672952584
H    1.0       19.1809011251       18.0641989435       19.3691933685
C    6.0       20.9500012633       18.9870788381       18.5022717709
H    1.0       20.5519434942       18.9960597969       17.4796478747
H    1.0       21.5954315126       18.1097755580       18.6059547843
H    1.0       21.5703259382       19.8832030195       18.6332020342
 $end
$$$$
! Edit this basic GAMESS input file as needed.
! Conformer was generated by a VeraChem VCPack run 
! and contains    148 atoms.
!
 $contrl scftyp=rhf runtyp=optimize nzvar=0
  maxit=200 icharg=0 $end
 $system mwords=50 $end
 $basis gbasis=pm3 $end
 $statpt nstep=200 $end
 $guess guess=huckel $end
 $data
VM2 Rank=3      G=497.210           E=304.981           -TS=192.229             
C1
C    6.0       16.2006711003       15.0445788184       21.3293254116
H    1.0       15.1142786972       14.8977251166       21.2834942114
O    8.0       16.5536251112       16.4422207855       21.2974760289
C    6.0       16.7641853017       14.4122527639       22.6261698581
H    1.0       16.5441324877       13.3374383676       22.5874832891
O    8.0       16.1509577993       14.9747550051       23.7939766607
H    1.0       16.6987655117       14.6465840572       24.5423190638
C    6.0       18.2985873160       14.5782808171       22.7025259500
H    1.0       18.5205520936       15.6440312744       22.8404256065
O    8.0       18.8038711917       13.8277356337       23.8134484560
H    1.0       19.7881575650       13.8056795955       23.7172146587
C    6.0       18.9885230618       14.1017531251       21.4005294795
H    1.0       19.0161424433       13.0040642618       21.4044478718
C    6.0       18.2789275507       14.6061524718       20.1126565074
H    1.0       18.4887133993       15.6779739684       19.9999774282
O    8.0       16.8479775987       14.3953544414       20.2148365821
C    6.0       18.7644499686       13.8958031408       18.8297706393
H    1.0       19.8308543375       14.1097442858       18.6810781441
H    1.0       18.2244115418       14.3137479133       17.9696852670
O    8.0       18.5502033429       12.4835431079       18.9109028368
H    1.0       17.5904773892       12.3627373486       19.0868470287
C    6.0       14.9438247368       20.2491115893       20.8067043902
H    1.0       14.3015125935       21.1016995034       20.5511554139
O    8.0       16.2545633141       20.6818442847       21.2192433115
C    6.0       14.3081419120       19.4002221348       21.9401226157
H    1.0       13.3313155880       19.0542687846       21.5778172605
O    8.0       14.1200676799       20.1670617741       23.1366444093
H    1.0       13.8185357121       19.5125872884       23.8064582574
C    6.0       15.1664559510       18.1516871988       22.2532392445
H    1.0       16.1136428549       18.4885203143       22.6975145482
O    8.0       14.4643068603       17.3127466432       23.1785321970
H    1.0       15.0742464978       16.5657499044       23.4019788990
C    6.0       15.4934953968       17.3576738112       20.9642057442
H    1.0       14.5909394409       16.8363338271       20.6187927355
C    6.0       16.0104098871       18.2748209318       19.8249310112
H    1.0       17.0101110540       18.6369794864       20.0940916809
O    8.0       15.1076546975       19.3958445700       19.6543517684
C    6.0       16.1172063428       17.5496271207       18.4653647152
H    1.0       16.8065152963       16.7011690190       18.5628110962
H    1.0       16.5492934067       18.2417169200       17.7303194245
O    8.0       14.8346647186       17.0942852718       18.0243554888
H    1.0       14.2471725048       17.8823585410       18.0408036412
C    6.0       18.5088972028       24.0770357840       21.8592627275
H    1.0       18.9046421643       25.0797986266       22.0646595711
O    8.0       19.5363043851       23.1796104863       21.3968376772
C    6.0       17.8685039976       23.4809116600       23.1356007980
H    1.0       17.0296923998       24.1309935839       23.4164805373
O    8.0       18.8061870215       23.4305159819       24.2196766530
H    1.0       18.3777769536       22.8494767915       24.8880658107
C    6.0       17.3019556332       22.0707968288       22.8539977988
H    1.0       18.1438836751       21.3967481498       22.6481618234
O    8.0       16.5725563310       21.6194759191       24.0008990322
H    1.0       15.9166380216       20.9574205786       23.6746735450
C    6.0       16.3744411914       22.0621175954       21.6142433733
H    1.0       15.4048172866       22.4908933270       21.9016472068
C    6.0       16.9703117308       22.8449129323       20.4082505105
H    1.0       17.7890042720       22.2479604254       19.9847240875
O    8.0       17.4803518649       24.1299630120       20.8475204426
C    6.0       15.9540876505       23.1077951612       19.2746120398
H    1.0       15.6522593315       22.1488508573       18.8332024184
H    1.0       16.4500581006       23.6872877621       18.4843938422
O    8.0       14.8070965493       23.8114414459       19.7601562275
H    1.0       15.1437962728       24.6449657917       20.1581470569
C    6.0       23.5620527840       22.8147491376       20.7103854178
H    1.0       24.6186032216       22.8963608906       20.4243245700
O    8.0       23.2104888084       21.4550721589       21.0503759051
C    6.0       23.2254281145       23.7651759523       21.8913032526
H    1.0       23.3659208842       24.7919829031       21.5302136845
O    8.0       24.1113077806       23.5467558877       22.9991686388
H    1.0       23.8785014973       22.6636637927       23.3795116238
C    6.0       21.7341105733       23.6068015833       22.2937304672
H    1.0       21.5970600716       22.5923522125       22.6931878488
O    8.0       21.3686872794       24.5681027605       23.2912350590
H    1.0       20.5316031560       24.2344050461       23.6982088915
C    6.0       20.8030740508       23.7722251267       21.0602060821
H    1.0       20.7023777698       24.8374006628       20.8128822830
C    6.0       21.3027225379       23.0113554057       19.8037958462
H    1.0       21.0994715741       21.9460127961       19.9571796872
O    8.0       22.7239552826       23.2165405215       19.6085260703
C    6.0       20.5801331155       23.4440282051       18.5091994294
H    1.0       19.5010972937       23.2806398548       18.6284950139
H    1.0       20.9212150369       22.8037106913       17.6847661180
O    8.0       20.8409604825       24.8186782390       18.2108186751
H    1.0       21.8195982969       24.9131030176       18.2025877301
C    6.0       24.8114314882       17.7860981253       22.1330967122
H    1.0       25.4554840402       16.9610405564       22.4626266833
O    8.0       23.5698083910       17.2995580715       21.5824858104
C    6.0       24.4990942195       18.7264180531       23.3262493752
H    1.0       25.4568654703       19.1184040946       23.6919986060
O    8.0       23.8656754479       17.9835142882       24.3823299352
H    1.0       23.2689199189       18.5997455218       24.8817162292
C    6.0       23.6411704318       19.9367387720       22.8724024600
H    1.0       22.6406509327       19.5700228459       22.6114481199
O    8.0       23.5565645964       20.8954860826       23.9341181837
H    1.0       22.9618093389       20.5062472085       24.6264853197
C    6.0       24.2454148223       20.6303648379       21.6222592690
H    1.0       25.1129775269       21.2253809575       21.9370090714
C    6.0       24.6754168011       19.6195360035       20.5246896213
H    1.0       23.7684681725       19.1946453703       20.0742894550
O    8.0       25.4738885648       18.5643358692       21.1142000028
C    6.0       25.5032368547       20.2594323017       19.3880911383
H    1.0       24.8771788796       20.9885878745       18.8567235332
H    1.0       25.7759656113       19.4768581062       18.6674029351
O    8.0       26.6783280906       20.8965146537       19.8980383531
H    1.0       27.1725185678       20.2050780950       20.3922049480
C    6.0       21.4043109988       13.7864672635       21.1397093956
H    1.0       21.0597224500       12.7663418156       20.9281672437
O    8.0       20.3070087993       14.6779690924       21.4191438376
C    6.0       22.3606661212       13.7974095663       22.3583462686
H    1.0       23.2241133326       13.1684504448       22.1054329062
O    8.0       21.7206109312       13.2735364253       23.5301864828
H    1.0       22.3518025003       13.4629880003       24.2606959852
C    6.0       22.8776398436       15.2278942062       22.6404182466
H    1.0       22.0236631339       15.8366127139       22.9666497036
O    8.0       23.8581720528       15.1738762505       23.6832122006
H    1.0       23.9305079231       16.0973074035       24.0324941637
C    6.0       23.4729187335       15.8785715195       21.3611905491
H    1.0       24.4554115279       15.4387248866       21.1444389680
C    6.0       22.5556277185       15.6914858134       20.1213794064
H    1.0       21.6751508373       16.3374285069       20.2350684405
O    8.0       22.1351976407       14.3091183488       20.0114009625