$$$$
! Edit this basic GAMESS input file as needed.
! Conformer was generated by a VeraChem VCPack run 
! and contains    143 atoms.
!
 $contrl scftyp=rhf runtyp=optimize nzvar=0
  maxit=200 icharg=0 $end
 $system mwords=50 $end
 $basis gbasis=pm3 $end
 $statpt nstep=200 $end
 $guess guess=huckel $end
 $data
VM2 Rank=1      G=487.611           E=306.038           -TS=181.573             
C1
C    6.0       16.1794725469       15.1446704415       21.8347336952
H    1.0       15.1060789171       14.9440514146       21.9416143498
O    8.0       16.4430633476       16.5461914028       21.6257322675
C    6.0       16.9320180196       14.6738751747       23.1050482446
H    1.0       16.7562197737       13.5949705859       23.2060028219
O    8.0       16.4454894793       15.3399290664       24.2782711769
H    1.0       17.0946071528       15.1100404335       24.9806872779
C    6.0       18.4560078013       14.8927196612       22.9656940946
H    1.0       18.6489962486       15.9735325569       22.9751815143
O    8.0       19.1319438028       14.2660301551       24.0627671368
H    1.0       20.0782324627       14.1740423707       23.7926232094
C    6.0       18.9945496751       14.3070731179       21.6373816596
H    1.0       19.0471393324       13.2149473822       21.7409847325
C    6.0       18.1143387648       14.6810164642       20.4105950407
H    1.0       18.2552703399       15.7485697991       20.1947082462
O    8.0       16.7203652689       14.4200062538       20.7102868811
C    6.0       18.4648751046       13.8928313106       19.1286596257
H    1.0       19.4764745317       14.1655516078       18.8020066508
H    1.0       17.7742694534       14.1948475875       18.3299547144
O    8.0       18.3795995509       12.4819190119       19.3497484002
H    1.0       17.4626716724       12.3076200048       19.6584834418
C    6.0       14.6738426068       20.2233485499       20.9576115428
H    1.0       13.9969242848       21.0558431593       20.7286742480
O    8.0       16.0338908498       20.6700035216       21.1387632116
C    6.0       14.2125977225       19.5068745991       22.2515628239
H    1.0       13.2030094935       19.1158671160       22.0700074634
O    8.0       14.1759322493       20.4107592592       23.3642394662
H    1.0       14.0502921830       19.8315102159       24.1494546770
C    6.0       15.1359859775       18.3109501501       22.5754710899
H    1.0       16.1256536422       18.7102137146       22.8311727557
O    8.0       14.6033822214       17.5780124360       23.6855414579
H    1.0       15.2581547131       16.8654588491       23.8940742832
C    6.0       15.2966923200       17.3739120811       21.3527711437
H    1.0       14.3790663911       16.7839799813       21.2279677300
C    6.0       15.5829710830       18.1456698689       20.0354299859
H    1.0       16.6089594581       18.5298867070       20.0696216738
O    8.0       14.6546425157       19.2497528302       19.8923353440
C    6.0       15.4548587540       17.2589125423       18.7775360832
H    1.0       16.1639091255       16.4241457491       18.8521637401
H    1.0       15.7359939263       17.8524881038       17.8974679407
O    8.0       14.1211456296       16.7619059825       18.6343247102
H    1.0       13.5340950356       17.5503441100       18.6563873758
C    6.0       18.5571791696       23.9315049495       20.6254289258
H    1.0       19.0015141371       24.9003109361       20.3636875571
O    8.0       19.5675166245       22.9900264265       21.0407852604
C    6.0       17.4885494224       24.0969134110       21.7422525278
H    1.0       16.7108211803       24.7608534672       21.3438623398
O    8.0       18.0527258423       24.7070796360       22.9134026431
H    1.0       18.6679385890       24.0426508479       23.3126546630
C    6.0       16.8178350752       22.7359664044       22.0720740446
H    1.0       17.5680216181       22.0853409901       22.5437441487
O    8.0       15.7056655735       22.9273266684       22.9557909790
H    1.0       15.3083080448       22.0355460856       23.1132785909
C    6.0       16.3079575439       22.0394838949       20.7848232119
H    1.0       15.4084018973       22.5632731246       20.4355974304
C    6.0       17.3608492916       22.0336372365       19.6455688005
H    1.0       18.1632839463       21.3367212989       19.9172384097
O    8.0       17.8973886737       23.3693209734       19.4719188483
C    6.0       16.7835943412       21.5840749037       18.2851526329
H    1.0       16.4019694167       20.5592429896       18.3763534734
H    1.0       17.5964659615       21.5660912009       17.5470119901
O    8.0       15.7404430099       22.4630045340       17.8532274173
H    1.0       16.1271398337       23.3668213743       17.8586973210
C    6.0       23.4847463763       22.6940463141       22.3266488131
H    1.0       24.4975525628       22.8504584241       22.7191100063
O    8.0       23.3563558884       21.4077615851       21.6827226167
C    6.0       22.4417235442       22.8012389356       23.4696755400
H    1.0       22.5041186478       23.8199499332       23.8735824878
O    8.0       22.7527205385       21.8688539896       24.5182888597
H    1.0       21.9059801829       21.4534804207       24.8306868763
C    6.0       21.0062586835       22.6042302772       22.9189291369
H    1.0       20.9111478685       21.5711272519       22.5694592514
O    8.0       20.0442526286       22.8659035686       23.9491823511
H    1.0       20.0816082800       22.0915413558       24.5676042237
C    6.0       20.7282214377       23.5290044066       21.7062938387
H    1.0       20.5545822441       24.5482591564       22.0754770533
C    6.0       21.8909972787       23.5349221452       20.6731946714
H    1.0       21.8837671243       22.5735175554       20.1424111086
O    8.0       23.1602386232       23.7079981818       21.3519767847
C    6.0       21.7705519061       24.6505833707       19.6111315412
H    1.0       20.8792190180       24.4658478167       18.9971469805
H    1.0       22.6415417387       24.5975647610       18.9442110674
O    8.0       21.6909831203       25.9420097629       20.2212344169
H    1.0       22.4980559294       26.0351198035       20.7748763567
C    6.0       25.1889865373       17.7412016703       21.2769960825
H    1.0       25.8596414625       16.8872016836       21.1196037272
O    8.0       23.8077758786       17.3312251556       21.3661692525
C    6.0       25.5775749540       18.4857317152       22.5762155063
H    1.0       26.5997691473       18.8633957754       22.4428034387
O    8.0       25.5456651978       17.6099125225       23.7112427421
H    1.0       25.6422266726       18.2080509672       24.4864183292
C    6.0       24.6523808646       19.6999025339       22.8189444757
H    1.0       23.6464302176       19.3194108290       23.0467420855
O    8.0       25.1578039401       20.4415785127       23.9351240660
H    1.0       24.4015865948       20.9900660278       24.2609467580
C    6.0       24.5531580149       20.6109942217       21.5627645496
H    1.0       25.4502111295       21.2401358648       21.4908191065
C    6.0       24.3954632039       19.8089181007       20.2400670014
H    1.0       23.3663514287       19.4373142608       20.1854877832
O    8.0       25.3142263109       18.6886307952       20.1972195191
C    6.0       24.6454767559       20.6712459523       18.9833963364
H    1.0       23.9454731903       21.5175220570       18.9840957862
H    1.0       24.4316811005       20.0660855512       18.0922627043
O    8.0       25.9943994802       21.1463217178       18.9473360493
H    1.0       26.5645872545       20.3501361889       19.0367329321
C    6.0       21.3186892906       14.0095272208       20.9393054187
H    1.0       20.9110234575       13.0236821442       20.6810527617
O    8.0       20.2980298250       14.8884771315       21.4485913015
C    6.0       22.4287665836       13.8758625206       22.0144556632
H    1.0       23.2013152865       13.2121777150       21.6048751765
O    8.0       21.9139254435       13.3100309177       23.2283724598
H    1.0       22.6538082220       13.3876863195       23.8718359703
C    6.0       23.0884761259       15.2430993370       22.3183908491
H    1.0       22.3465110423       15.8769224663       22.8243854953
O    8.0       24.2225959898       15.0399246615       23.1702241656
H    1.0       24.5958478986       15.9354023969       23.3668756838
C    6.0       23.5266992432       15.9615355449       21.0176061276
H    1.0       24.4054242465       15.4526095781       20.5998775644
C    6.0       22.3992557784       15.9726976694       19.9534455052
H    1.0       21.5931562558       16.6275675441       20.3058469208
O    8.0       21.8965869930       14.6269953462       19.7695461982
C    6.0       22.8689801647       16.4888424394       18.5754618766
H    1.0       23.2378611950       17.5169778401       18.6823212575
H    1.0       22.0055885656       16.5186754773       17.8976174706
O    8.0       23.8946635393       15.6500888567       18.0359159096
H    1.0       23.5308588661       14.7368752936       18.0458673188
C    6.0       19.4393834194       19.8018442624       25.2434584079
O    8.0       20.4775190967       20.4370567173       25.3041026927
O    8.0       18.6409745170       19.7498493442       26.1578010915
C    6.0       19.0578433801       19.1555366200       23.9593757072
H    1.0       18.0562600290       18.7373393431       23.9229503118
C    6.0       19.8657675489       19.0920566153       22.8772212230
H    1.0       20.8840125337       19.4749740995       22.9197028819
C    6.0       19.4317933839       18.5183525239       21.5477869701
H    1.0       18.3562846123       18.6832349322       21.4167166774
H    1.0       19.5928422361       17.4355901790       21.5395788608
C    6.0       20.1967416870       19.1599896547       20.3739228596
H    1.0       20.1011324923       20.2527645292       20.4202732980
H    1.0       21.2640928036       18.9348738860       20.4769900415
C    6.0       19.6873046753       18.6491008015       19.0109123989
H    1.0       18.6368325972       18.9249057986       18.8578232554
H    1.0       20.2740043358       19.0845362062       18.1920566751
H    1.0       19.7667548540       17.5566052760       18.9446495241
 $end
$$$$
! Edit this basic GAMESS input file as needed.
! Conformer was generated by a VeraChem VCPack run 
! and contains    143 atoms.
!
 $contrl scftyp=rhf runtyp=optimize nzvar=0
  maxit=200 icharg=0 $end
 $system mwords=50 $end
 $basis gbasis=pm3 $end
 $statpt nstep=200 $end
 $guess guess=huckel $end
 $data
VM2 Rank=2      G=487.885           E=306.126           -TS=181.759             
C1
C    6.0       16.2008129613       15.1305629060       21.7607205919
H    1.0       15.1261149153       14.9236237400       21.8379608960
O    8.0       16.4651388159       16.5399220473       21.6154697736
C    6.0       16.9292403127       14.6122451676       23.0265899171
H    1.0       16.7525241938       13.5303003483       23.0839205399
O    8.0       16.4196172668       15.2349481187       24.2139253608
H    1.0       17.0519735914       14.9749260875       24.9210585177
C    6.0       18.4554840616       14.8372439337       22.9247709093
H    1.0       18.6465607908       15.9172254229       22.9781405134
O    8.0       19.1123093320       14.1705683207       24.0099095555
H    1.0       20.0655038219       14.0991364847       23.7583058454
C    6.0       19.0203960889       14.3031005599       21.5859482732
H    1.0       19.0702999661       13.2077027930       21.6474979436
C    6.0       18.1648188426       14.7265185157       20.3580378357
H    1.0       18.3080980664       15.8021183834       20.1889155433
O    8.0       16.7658420031       14.4522366983       20.6193690599
C    6.0       18.5412263072       13.9909605060       19.0523982620
H    1.0       19.5587408274       14.2764969544       18.7568629115
H    1.0       17.8662849006       14.3251202487       18.2531264392
O    8.0       18.4524190861       12.5722732339       19.2144923262
H    1.0       17.5299580339       12.3860183147       19.4987706228
C    6.0       14.7076335954       20.2318642718       20.9812912455
H    1.0       14.0282015790       21.0654984127       20.7642318150
O    8.0       16.0696419626       20.6781724103       21.1470717424
C    6.0       14.2608551155       19.5108991109       22.2779566458
H    1.0       13.2472389780       19.1251602031       22.1079851829
O    8.0       14.2426420460       20.4098809942       23.3951062040
H    1.0       14.1285191035       19.8273855568       24.1796617109
C    6.0       15.1827783007       18.3092129792       22.5840357361
H    1.0       16.1774934612       18.7024775575       22.8282622939
O    8.0       14.6615415993       17.5717755237       23.6966017146
H    1.0       15.2995471388       16.8355996138       23.8724119054
C    6.0       15.3232148314       17.3777535149       21.3552618927
H    1.0       14.3989962541       16.7966901750       21.2379534332
C    6.0       15.6030858264       18.1561504466       20.0407082644
H    1.0       16.6307107571       18.5369574157       20.0716189362
O    8.0       14.6762943499       19.2633807831       19.9116225683
C    6.0       15.4629253923       17.2789423465       18.7774105814
H    1.0       16.1741343913       16.4449876484       18.8374181078
H    1.0       15.7335844392       17.8798685678       17.8990486786
O    8.0       14.1285193617       16.7808672250       18.6446221345
H    1.0       13.5406353968       17.5683529247       18.6758060577
C    6.0       18.5827302354       23.9447140733       20.6174410262
H    1.0       19.0263987942       24.9119718521       20.3488921487
O    8.0       19.5923964608       23.0105888444       21.0509323929
C    6.0       17.5039715639       24.1185300182       21.7232085346
H    1.0       16.7259893719       24.7730705441       21.3100328222
O    8.0       18.0550089722       24.7467769823       22.8909625137
H    1.0       18.6688327940       24.0900885935       23.3048441380
C    6.0       16.8381040396       22.7578174124       22.0639618896
H    1.0       17.5887933397       22.1162326068       22.5470752451
O    8.0       15.7195408553       22.9520474013       22.9389719273
H    1.0       15.3352993020       22.0578662324       23.1145547482
C    6.0       16.3401689662       22.0452440125       20.7807800993
H    1.0       15.4408163690       22.5610290544       20.4193113092
C    6.0       17.4003049655       22.0325661807       19.6482970579
H    1.0       18.2032596247       21.3411943967       19.9315632787
O    8.0       17.9336228687       23.3683261452       19.4648977945
C    6.0       16.8330221541       21.5678617334       18.2887921072
H    1.0       16.4512621283       20.5438919718       18.3884668157
H    1.0       17.6511489753       21.5424632698       17.5566904578
O    8.0       15.7924336983       22.4413376040       17.8399937225
H    1.0       16.1781277221       23.3455989478       17.8400626809
C    6.0       23.4963857388       22.7334932846       22.3821034525
H    1.0       24.5049770839       22.8944427295       22.7834730417
O    8.0       23.3738141419       21.4397509510       21.7530536577
C    6.0       22.4409747411       22.8565360652       23.5119907113
H    1.0       22.4985039955       23.8809163049       23.9020554540
O    8.0       22.7411261622       21.9392944376       24.5768388700
H    1.0       21.8910777228       21.5287522537       24.8866525244
C    6.0       21.0117123741       22.6505773993       22.9488582624
H    1.0       20.9209418378       21.6126609896       22.6124692195
O    8.0       20.0391406390       22.9252316992       23.9656422856
H    1.0       20.0699737629       22.1587730052       24.5941987866
C    6.0       20.7461319021       23.5588241924       21.7210320038
H    1.0       20.5685172689       24.5830216055       22.0743446179
C    6.0       21.9196002728       23.5505285826       20.6998049188
H    1.0       21.9168120771       22.5820442839       20.1816421827
O    8.0       23.1831158568       23.7325182047       21.3883835977
C    6.0       21.8090521205       24.6516821216       19.6216841109
H    1.0       20.9218486832       24.4600468538       19.0038133958
H    1.0       22.6846224142       24.5880903293       18.9617864337
O    8.0       21.7273313007       25.9513996962       20.2136318954
H    1.0       22.5294994804       26.0501294819       20.7733811891
C    6.0       25.2075682098       17.7690808824       21.3934510117
H    1.0       25.8819615296       16.9155184564       21.2501093735
O    8.0       23.8252538984       17.3587115824       21.4543493909
C    6.0       25.5666043478       18.5114284120       22.7016852839
H    1.0       26.5941914527       18.8826899258       22.5944151797
O    8.0       25.5004732629       17.6346364488       23.8348154116
H    1.0       25.5834442568       18.2303630300       24.6132447615
C    6.0       24.6424721859       19.7314478205       22.9200251234
H    1.0       23.6315227782       19.3568855580       23.1353586199
O    8.0       25.1351703976       20.4799674540       24.0370258578
H    1.0       24.3781430471       21.0368922212       24.3463030804
C    6.0       24.5661987503       20.6346191809       21.6560448562
H    1.0       25.4691118591       21.2560863584       21.5893352863
C    6.0       24.4215079236       19.8271195534       20.3369184790
H    1.0       23.3931158932       19.4555814148       20.2649004276
O    8.0       25.3553193181       18.7193330925       20.3190906577
C    6.0       24.7046598147       20.6955249369       19.0940586066
H    1.0       25.7511553164       21.0278961094       19.1148342420
H    1.0       24.0685308131       21.5903094686       19.1255273320
O    8.0       24.4387469544       19.9488663071       17.9048000490
H    1.0       24.9279547172       19.1004403179       17.9981944410
C    6.0       21.3603548075       14.0320834451       20.9271333542
H    1.0       20.9638969883       13.0489813727       20.6424023098
O    8.0       20.3275293214       14.8901783659       21.4482043156
C    6.0       22.4608085261       13.8829977937       22.0106132404
H    1.0       23.2429808719       13.2347272699       21.5946811263
O    8.0       21.9374349148       13.2864543559       23.2061530931
H    1.0       22.6688433136       13.3572688623       23.8599682727
C    6.0       23.1057543340       15.2487068148       22.3515605694
H    1.0       22.3525286533       15.8652162374       22.8622700645
O    8.0       24.2326362770       15.0398313635       23.2118324498
H    1.0       24.5887476721       15.9357307071       23.4365547289
C    6.0       23.5507216684       15.9978866923       21.0708893416
H    1.0       24.4340618947       15.5017080006       20.6476674017
C    6.0       22.4295638757       16.0281871096       20.0006736530
H    1.0       21.6143083105       16.6625209347       20.3685203059
O    8.0       21.9441331771       14.6824337531       19.7778352434
C    6.0       22.8955427300       16.5922119236       18.6402722643
H    1.0       23.2106213149       17.6341613321       18.7747470094
H    1.0       22.0422388316       16.5965450125       17.9491985956
O    8.0       23.9694178150       15.8171660554       18.0989843208
H    1.0       23.6450820088       14.8901612639       18.0629108032
C    6.0       19.4230779581       19.8775313724       25.2987171785
O    8.0       18.6189178434       19.8367202146       26.2085949512
O    8.0       20.4592543590       20.5161056218       25.3569523402
C    6.0       19.0517421494       19.2104198701       24.0222671833
H    1.0       18.0520798349       18.7879798001       23.9866631806
C    6.0       19.8667125001       19.1330710807       22.9462773444
H    1.0       20.8830727868       19.5207891414       22.9897487342
C    6.0       19.4456836118       18.5363077289       21.6225164039
H    1.0       18.3692486285       18.6881544148       21.4812144792
H    1.0       19.6182015392       17.4550023724       21.6305575692
C    6.0       20.2125936460       19.1708876293       20.4457174930
H    1.0       20.1126147452       20.2635175564       20.4821656946
H    1.0       21.2810789046       18.9530666041       20.5545492047
C    6.0       19.7117883493       18.6474370190       19.0841985763
H    1.0       19.7916910016       17.5546004777       19.0276580288
H    1.0       18.6628314029       18.9224183954       18.9209452787
H    1.0       20.3049576784       19.0756417340       18.2659555903
 $end
$$$$
! Edit this basic GAMESS input file as needed.
! Conformer was generated by a VeraChem VCPack run 
! and contains    143 atoms.
!
 $contrl scftyp=rhf runtyp=optimize nzvar=0
  maxit=200 icharg=0 $end
 $system mwords=50 $end
 $basis gbasis=pm3 $end
 $statpt nstep=200 $end
 $guess guess=huckel $end
 $data
VM2 Rank=3      G=487.913           E=305.431           -TS=182.482             
C1
C    6.0       16.3789037669       15.1712464962       20.6731500665
H    1.0       15.3380691744       15.0509626196       20.3460922825
O    8.0       16.6787645989       16.5486723009       20.9822895485
C    6.0       16.6839447145       14.2774873392       21.9055285043
H    1.0       16.5351924578       13.2351332666       21.5946419002
O    8.0       15.8146603509       14.5609438853       23.0081285340
H    1.0       16.1573486171       14.0067313146       23.7455518831
C    6.0       18.1593920663       14.4344510955       22.3418037897
H    1.0       18.3026296298       15.4621626502       22.7043223294
O    8.0       18.4546034180       13.5049491917       23.3914593880
H    1.0       19.3488096293       13.7503267042       23.7379448300
C    6.0       19.1189984581       14.2056830524       21.1465928682
H    1.0       19.1696379791       13.1340254280       20.9117998003
C    6.0       18.6862680668       14.9760045378       19.8721621826
H    1.0       18.8876043950       16.0430785844       20.0227396812
O    8.0       17.2754131880       14.7536270308       19.6219919339
C    6.0       19.4591197437       14.5044266879       18.6229289063
H    1.0       19.2069866783       13.4558025689       18.4160684230
H    1.0       20.5373834323       14.5551983441       18.8207397431
O    8.0       19.1306923605       15.3289548107       17.5037009443
H    1.0       18.1492981452       15.3763060801       17.4798888267
C    6.0       14.8820205529       20.2373348462       21.6297251598
H    1.0       14.1899957859       21.0611418465       21.8457575371
O    8.0       16.1463752265       20.7214450333       21.1326735447
C    6.0       15.1193331618       19.3865578207       22.9037130724
H    1.0       14.1471514338       18.9741572624       23.2035593896
O    8.0       15.6422068022       20.1698709089       23.9843447219
H    1.0       16.0136737618       19.5105148059       24.6151986709
C    6.0       16.0604576850       18.1977023796       22.6093757570
H    1.0       17.0574345777       18.5942917706       22.3741874190
O    8.0       16.1161136866       17.3592299139       23.7688002117
H    1.0       16.2290952718       16.4341559705       23.4448594430
C    6.0       15.5714917243       17.3765963098       21.3910650029
H    1.0       14.7041988534       16.7759970647       21.6971255971
C    6.0       15.1909429823       18.2827032735       20.1855497513
H    1.0       16.1144228316       18.7018224927       19.7642416059
O    8.0       14.3240422647       19.3592135323       20.6272884232
C    6.0       14.4628356788       17.5264878518       19.0522294824
H    1.0       15.1465642238       16.7830623392       18.6214369218
H    1.0       14.2133827649       18.2401747311       18.2556156154
O    8.0       13.2778558865       16.8863235444       19.5346228335
H    1.0       12.7236678575       17.5957566203       19.9297288908
C    6.0       18.4142278878       24.1253351954       20.7344485958
H    1.0       18.8588402943       25.1068169163       20.5251104531
O    8.0       19.4238290337       23.1415943736       21.0447829921
C    6.0       17.3977883389       24.2096073159       21.9018337855
H    1.0       16.5820705980       24.8667515596       21.5743606890
O    8.0       18.0071659056       24.7799350691       23.0705885738
H    1.0       18.6660373620       24.1198926765       23.4015669908
C    6.0       16.7909085895       22.8102217999       22.1914063413
H    1.0       17.5878946656       22.1721281191       22.5991476973
O    8.0       15.7280315394       22.9264152503       23.1443021797
H    1.0       15.6360916724       22.0319224789       23.5554495513
C    6.0       16.2478595055       22.1403712276       20.8952797659
H    1.0       15.2711205226       22.5745234579       20.6438682975
C    6.0       17.1890960210       22.3020833135       19.6687688657
H    1.0       18.0329759630       21.6115137122       19.7813290214
O    8.0       17.6857745052       23.6600685723       19.5806284154
C    6.0       16.4927466059       21.9638626642       18.3322258634
H    1.0       16.1191612342       20.9318786642       18.3747819568
H    1.0       17.2362458328       22.0124697762       17.5255438714
O    8.0       15.4161697565       22.8689656124       18.0694282154
H    1.0       15.7995376841       23.7721460663       18.1337948602
C    6.0       23.3906318649       22.6513134492       22.0446534717
H    1.0       24.4395674652       22.7513588057       22.3499993988
O    8.0       23.1303312206       21.3668161415       21.4368531514
C    6.0       22.4530019296       22.8169143175       23.2668146760
H    1.0       22.5915257693       23.8353953793       23.6518787994
O    8.0       22.8201959727       21.8800516129       24.2934906234
H    1.0       21.9912022692       21.5427580437       24.7237802703
C    6.0       20.9696949418       22.6777805748       22.8301296577
H    1.0       20.7991231772       21.6508996945       22.4888837826
O    8.0       20.1015974411       22.9734764829       23.9321074038
H    1.0       20.1647544397       22.2038483482       24.5559203221
C    6.0       20.6441366550       23.6222844936       21.6411652746
H    1.0       20.5381765532       24.6456139443       22.0250036901
C    6.0       21.7235647586       23.5842230468       20.5218104321
H    1.0       21.6268010711       22.6311950700       19.9851396066
O    8.0       23.0488078576       23.6828705543       21.0962045193
C    6.0       21.5757464880       24.7183258947       19.4829587456
H    1.0       20.6273554081       24.5897265517       18.9447176990
H    1.0       22.3839459379       24.6274873111       18.7448422054
O    8.0       21.6175755463       26.0039121138       20.1091805844
H    1.0       22.4719697377       26.0460311091       20.5937593181
C    6.0       24.9741106278       17.6448982340       21.0634633795
H    1.0       25.6574286856       16.8180381399       20.8306444011
O    8.0       23.6779116942       17.1662835369       21.4683182703
C    6.0       25.5452338109       18.5315134636       22.1983491008
H    1.0       26.5071322693       18.9300356345       21.8504078901
O    8.0       25.7536846892       17.7769667533       23.4002347184
H    1.0       25.9954237146       18.4505951113       24.0753025847
C    6.0       24.6104616762       19.7296609568       22.4913834252
H    1.0       23.6746596515       19.3348573981       22.9109021756
O    8.0       25.2485636764       20.5821241042       23.4496122935
H    1.0       24.5182025335       21.0937585824       23.8787271157
C    6.0       24.2646517801       20.5106656083       21.1905601976
H    1.0       25.1361054883       21.0927517828       20.8630433164
C    6.0       23.8336422939       19.5560299726       20.0435833834
H    1.0       22.8459920009       19.1424211771       20.2878981391
O    8.0       24.7963071988       18.4819117397       19.9018487611
C    6.0       23.7198848924       20.2654729181       18.6760596727
H    1.0       22.9795363067       21.0726972601       18.7505843250
H    1.0       23.3467363826       19.5448629504       17.9361721701
O    8.0       24.9845862096       20.7912777037       18.2623183899
H    1.0       25.6167924980       20.0395092387       18.3038760739
C    6.0       21.4086967325       13.7737815297       21.8961147347
H    1.0       20.9886092251       12.7689184797       22.0302416235
O    8.0       20.3972384757       14.7346222294       21.5365311839
C    6.0       22.0980323399       14.2395502751       23.2008139919
H    1.0       22.9243302768       13.5449605722       23.4006752879
O    8.0       21.1863385620       14.2164277883       24.3077843683
H    1.0       21.6525774989       14.7071505102       25.0215557831
C    6.0       22.6980068006       15.6541389224       23.0321776479
H    1.0       21.8689929059       16.3689907070       22.9442512229
O    8.0       23.4933353853       15.9710216253       24.1806392443
H    1.0       24.0823382286       16.7193082250       23.9168060287
C    6.0       23.5735341343       15.7603197183       21.7568650226
H    1.0       24.5532231816       15.3124779990       21.9713274688
C    6.0       22.9381266347       15.0819124779       20.5084035948
H    1.0       22.1254011135       15.7262845260       20.1469320044
O    8.0       22.4081523797       13.7769693319       20.8556886700
C    6.0       23.9289040221       14.8885643754       19.3388126275
H    1.0       24.2528573898       15.8726297143       18.9753744068
H    1.0       23.4044112940       14.3932157438       18.5107540285
O    8.0       25.0612772338       14.1135458162       19.7432505608
H    1.0       24.7050916745       13.2619615222       20.0816477671
C    6.0       19.7014734550       19.7700372160       25.3049612754
O    8.0       18.8782860873       19.6112167976       26.1848230155
O    8.0       20.5918147120       20.5997474921       25.3702884925
C    6.0       19.5268167571       18.9884514431       24.0514627469
H    1.0       18.6290164340       18.3807257461       24.0013258317