$$$$
! Edit this basic GAMESS input file as needed.
! Conformer was generated by a VeraChem VCPack run 
! and contains    145 atoms.
!
 $contrl scftyp=rhf runtyp=optimize nzvar=0
  maxit=200 icharg=0 $end
 $system mwords=50 $end
 $basis gbasis=pm3 $end
 $statpt nstep=200 $end
 $guess guess=huckel $end
 $data
VM2 Rank=1      G=489.175           E=301.847           -TS=187.328             
C1
C    6.0       16.3566821076       15.2321011697       21.7597360558
H    1.0       15.2976933635       15.0838133026       22.0060497615
O    8.0       16.6079947385       16.5669492681       21.2731933345
C    6.0       17.2401517989       14.9632977760       23.0036625707
H    1.0       17.0881560562       13.9138446371       23.2878769474
O    8.0       16.8806572712       15.7976319099       24.1118172519
H    1.0       17.6401678164       15.7162746731       24.7327049438
C    6.0       18.7367936968       15.1443851010       22.6682199285
H    1.0       18.9178437493       16.2022762471       22.4345542325
O    8.0       19.5102413441       14.7499897865       23.8069335569
H    1.0       20.3506521833       14.3661777802       23.4614700621
C    6.0       19.1390011198       14.3025062805       21.4309975588
H    1.0       19.2121588490       13.2478098937       21.7290043413
C    6.0       18.1299135179       14.4562246342       20.2568715521
H    1.0       18.2550987175       15.4584335043       19.8269633677
O    8.0       16.7690507213       14.3008736543       20.7356022396
C    6.0       18.3506865449       13.4319548752       19.1217250923
H    1.0       19.3347248982       13.6082406138       18.6672699192
H    1.0       17.5962202265       13.6011296162       18.3418282365
O    8.0       18.2665265042       12.0905071415       19.6117280074
H    1.0       17.3809596571       12.0055819690       20.0301904093
C    6.0       14.6748955655       20.2471669821       21.0025652800
H    1.0       13.9685422976       21.0639861389       20.8070735947
O    8.0       15.9733335459       20.7387590064       21.3841190086
C    6.0       14.1563315655       19.3340998840       22.1409528696
H    1.0       13.1908158689       18.9235621404       21.8179502507
O    8.0       13.9734826367       20.0697246152       23.3590413575
H    1.0       13.7789271104       19.3826964179       24.0356082841
C    6.0       15.1216519223       18.1488390358       22.3856011636
H    1.0       16.0577765636       18.5508614818       22.7980971200
O    8.0       14.5197249241       17.2548561335       23.3288933015
H    1.0       15.2611923841       16.7145452644       23.6997035577
C    6.0       15.4553991023       17.4067826228       21.0602943990
H    1.0       14.5869376525       16.8167067762       20.7385770214
C    6.0       15.8344961882       18.3869401112       19.9184848337
H    1.0       16.8197533905       18.8224245769       20.1310001398
O    8.0       14.8302089928       19.4269724779       19.8255231808
C    6.0       15.8990522049       17.6797209045       18.5486833365
H    1.0       14.9118393801       17.2625152377       18.3093666510
H    1.0       16.6100832439       16.8449323466       18.6051767900
O    8.0       16.3098517344       18.6038608290       17.5393242770
H    1.0       15.7125043745       19.3788379134       17.6250902370
C    6.0       18.3375955846       24.0957411527       21.5988183203
H    1.0       18.7640007824       25.1057162409       21.6460438099
O    8.0       19.3623827975       23.0878188818       21.4804070649
C    6.0       17.5036516248       23.8175094850       22.8730870278
H    1.0       16.6878880505       24.5516870892       22.8977844823
O    8.0       18.2992295767       23.9580736740       24.0581259511
H    1.0       17.7430074554       23.5796019838       24.7756902777
C    6.0       16.8720635824       22.4085328040       22.8208597282
H    1.0       17.6808196143       21.6713346194       22.8952554820
O    8.0       15.9635982615       22.2488225508       23.9172198033
H    1.0       15.4426757726       21.4281127344       23.7347315738
C    6.0       16.1196807605       22.1655147662       21.4895266707
H    1.0       15.1503035820       22.6790240566       21.5384863073
C    6.0       16.9128252003       22.6430392848       20.2406730659
H    1.0       17.7328455550       21.9344410764       20.0639802621
O    8.0       17.4523975714       23.9696676491       20.4662835699
C    6.0       16.0581833292       22.6990400275       18.9552682538
H    1.0       15.7175865160       21.6860909390       18.7057331461
H    1.0       16.6906207256       23.0441332210       18.1263521406
O    8.0       14.9360350521       23.5711104728       19.1194094158
H    1.0       15.3046119287       24.4455471240       19.3765489874
C    6.0       23.4523102082       22.6174742069       20.9210940848
H    1.0       24.5094576094       22.7453161019       20.6555255698
O    8.0       23.1629082885       21.2533410802       21.2825033985
C    6.0       23.0591539319       23.5602492049       22.0919507490
H    1.0       23.2389931677       24.5883321706       21.7528300652
O    8.0       23.8755071633       23.3054987496       23.2464192975
H    1.0       23.6643257938       22.3888054849       23.5543819565
C    6.0       21.5475996211       23.4314141009       22.4233175733
H    1.0       21.3777305575       22.4345928800       22.8514308635
O    8.0       21.1484869249       24.4389073319       23.3614978875
H    1.0       20.2203927742       24.2243045532       23.6275252706
C    6.0       20.6785225127       23.5660334840       21.1456567011
H    1.0       20.6636681579       24.6174473644       20.8291913172
C    6.0       21.2018533568       22.7036561775       19.9680652407
H    1.0       21.0195564701       21.6455048895       20.1989047460
O    8.0       22.6200964977       22.9432829308       19.7894179827
C    6.0       20.5057332495       23.0238259999       18.6265057414
H    1.0       19.4279643588       22.8453020979       18.7275614598
H    1.0       20.8829031403       22.3325363261       17.8611532769
O    8.0       20.7454728377       24.3782289780       18.2324688135
H    1.0       21.7215179382       24.4951967403       18.2470675836
C    6.0       24.9284830576       17.6271279811       22.0821625115
H    1.0       25.5740343611       16.7790759231       22.3434548358
O    8.0       23.7034955735       17.1926115038       21.4548644610
C    6.0       24.5792707454       18.4475194822       23.3502510765
H    1.0       25.5186577467       18.8445142443       23.7560961467
O    8.0       23.9679530970       17.5933745376       24.3316231257
H    1.0       23.3734402630       18.1518972209       24.8972874362
C    6.0       23.6751581355       19.6536134112       22.9856259764
H    1.0       22.6961863088       19.2619948749       22.6821554126
O    8.0       23.5291871842       20.5275300470       24.1134975332
H    1.0       22.9292609129       20.0674926090       24.7575570675
C    6.0       24.2560820014       20.4729700460       21.8031036276
H    1.0       25.0648251594       21.1087430394       22.1871407256
C    6.0       24.7891908000       19.5899208685       20.6387129726
H    1.0       23.9262083435       19.1755951170       20.1007730086
O    8.0       25.6022477765       18.5121042766       21.1641178230
C    6.0       25.6449339060       20.3618110335       19.6094295496
H    1.0       25.0113940469       21.0955692691       19.0940862406
H    1.0       26.0047943117       19.6543937319       18.8502703459
O    8.0       26.7495561513       21.0174376100       20.2389040073
H    1.0       27.2603992832       20.3150407032       20.6995638371
C    6.0       21.4319271003       13.8563062899       20.6611414113
H    1.0       21.0036990835       12.8930829849       20.3551468806
O    8.0       20.4028552370       14.8199590836       20.9722275367
C    6.0       22.3782917140       13.6900862201       21.8780996403
H    1.0       23.2172942778       13.0602934568       21.5542907156
O    8.0       21.7265821568       13.0602361454       22.9872282836
H    1.0       22.3894455889       13.0878319067       23.7141634223
C    6.0       22.9532008138       15.0600351736       22.3073622125
H    1.0       22.1229208537       15.6787011023       22.6757973156
O    8.0       23.9082700521       14.8629433029       23.3563209361
H    1.0       24.0079941019       15.7424741351       23.7993253239
C    6.0       23.6071568464       15.7988211145       21.1073403254
H    1.0       24.5941108249       15.3656567607       20.8975411269
C    6.0       22.7445009329       15.7397775666       19.8146461131
H    1.0       21.9043760091       16.4352689635       19.9278802830
O    8.0       22.2352265507       14.4000682830       19.5938213174
C    6.0       23.5286970609       16.1597917348       18.5521585898
H    1.0       23.9100986382       17.1801557165       18.6899469218
H    1.0       22.8381413360       16.1781157174       17.6984922375
O    8.0       24.6103174254       15.2590270950       18.2958144711
H    1.0       24.2134651483       14.3598335944       18.2683257283
C    6.0       20.7105670097       18.6638070036       25.5473152616
O    8.0       19.9176950248       18.6781747638       26.4679076448
O    8.0       21.8937298083       18.9236154837       25.6679037865
C    6.0       20.1934259857       18.3321208622       24.1515318192
H    1.0       19.3223027757       17.6769475486       24.2634391098
H    1.0       20.9693739251       17.7558207103       23.6365739779
C    6.0       19.8044462999       19.5933673402       23.3368309551
H    1.0       19.0445283449       20.1468508585       23.9036980387
H    1.0       20.6697823829       20.2618151204       23.2506236656
C    6.0       19.2490304801       19.2768223816       21.9280768673
H    1.0       18.8648186570       20.2048465095       21.4862433976
H    1.0       18.3936287119       18.5953984213       22.0174850102
C    6.0       20.3017316672       18.6730329682       20.9732099571
H    1.0       21.1705495174       19.3402383956       20.9109587193
H    1.0       20.6609322206       17.7151862697       21.3688890446
C    6.0       19.7260992202       18.4557191189       19.5599992990
H    1.0       18.9028191148       17.7318812628       19.5835200111
H    1.0       19.3442493499       19.3956803880       19.1411307847
H    1.0       20.4963333098       18.0703496195       18.8808090780
 $end
