$$$$
! Edit this basic GAMESS input file as needed.
! Conformer was generated by a VeraChem VCPack run 
! and contains    149 atoms.
!
 $contrl scftyp=rhf runtyp=optimize nzvar=0
  maxit=200 icharg=0 $end
 $system mwords=50 $end
 $basis gbasis=pm3 $end
 $statpt nstep=200 $end
 $guess guess=huckel $end
 $data
VM2 Rank=1      G=557.147           E=360.382           -TS=196.765             
C1
C    6.0       16.2713644109       15.0727593324       20.5628372674
H    1.0       15.2125877032       14.9902497003       20.2849797183
O    8.0       16.6509795580       16.4476404997       20.7950859464
C    6.0       16.5934805842       14.2077034880       21.8105533292
H    1.0       16.4194902628       13.1611652424       21.5280262189
O    8.0       15.7509739726       14.5285301059       22.9268690699
H    1.0       15.9773653741       15.4537486731       23.1982783574
C    6.0       18.0839302000       14.3527530531       22.1984056972
H    1.0       18.2445570384       15.3838417380       22.5433772610
O    8.0       18.3843848184       13.4365601409       23.2558741397
H    1.0       17.6065541061       13.4763073457       23.8576491106
C    6.0       19.0232188641       14.0991423432       20.9883574676
H    1.0       19.1377960030       13.0188241544       20.8278929087
C    6.0       18.5256946423       14.7555059686       19.6706812566
H    1.0       18.7441997677       15.8276237397       19.7233306204
O    8.0       17.0995969741       14.5657704410       19.4970146725
C    6.0       19.2354508715       14.1952319637       18.4184836427
H    1.0       20.3176866948       14.3527588189       18.5191743814
H    1.0       18.8990032119       14.7597959527       17.5388790480
O    8.0       18.9543208194       12.8031669255       18.2491554172
H    1.0       17.9745036858       12.7208158324       18.2458227735
C    6.0       15.0850900212       20.1844415060       21.7531350195
H    1.0       14.4336612138       21.0099840058       22.0662272036
O    8.0       16.2993537100       20.6684512618       21.1450179600
C    6.0       15.4507402924       19.2928087224       22.9695995738
H    1.0       14.5077676710       18.9166091414       23.3873189775
O    8.0       16.1516744588       20.0329808285       23.9821836504
H    1.0       15.9124371968       20.9832948624       23.8637326518
C    6.0       16.3019850617       18.0792726636       22.5316054270
H    1.0       17.2732685382       18.4548341927       22.1896965609
O    8.0       16.4861080753       17.2171825706       23.6578595580
H    1.0       16.7286907195       17.8248346135       24.3928110962
C    6.0       15.6437377162       17.3126846320       21.3575326112
H    1.0       14.7843132351       16.7474460683       21.7417567542
C    6.0       15.1787746770       18.2701420933       20.2256868810
H    1.0       16.0693781741       18.6727127068       19.7248691171
O    8.0       14.4016054769       19.3568030215       20.7872655913
C    6.0       14.3115308809       17.5747927253       19.1525604157
H    1.0       14.9197843726       16.8214741438       18.6344110262
H    1.0       14.0088763357       18.3202622040       18.4050282889
O    8.0       13.1591017394       16.9602578155       19.7363223770
H    1.0       12.6711335493       17.6756393710       20.2017907540
C    6.0       18.4634273530       24.1990431302       20.9474408914
H    1.0       18.8471299589       25.2111233587       20.7642277562
O    8.0       19.5077398734       23.2926438366       21.3496938263
C    6.0       17.3740309784       24.2001345966       22.0483415939
H    1.0       16.5440823006       24.8190789481       21.6831831848
O    8.0       17.8660931246       24.7576576506       23.2771831972
H    1.0       18.6878824380       24.2615052957       23.5226714240
C    6.0       16.8339265989       22.7671043690       22.2819584747
H    1.0       17.6437714137       22.1662763636       22.7189579615
O    8.0       15.7375852123       22.8407210640       23.2001457994
H    1.0       16.0105525493       23.5128803955       23.8659705190
C    6.0       16.4001408863       22.0941474760       20.9456760592
H    1.0       15.4435485976       22.5168852928       20.6106754703
C    6.0       17.4506054406       22.2832955648       19.8186186094
H    1.0       18.3183026632       21.6506450491       20.0390995496
O    8.0       17.8557782615       23.6718806621       19.7495645713
C    6.0       16.9026692565       21.8768458529       18.4345358620
H    1.0       16.1322935344       22.5945726499       18.1223173511
H    1.0       16.4280148859       20.8893702153       18.5083831322
O    8.0       17.9672530507       21.8297063362       17.4820083280
H    1.0       18.3953513754       22.7133672908       17.5034524543
C    6.0       23.4721097185       22.8332750312       22.1258154740
H    1.0       24.5443149321       22.8865407322       22.3551006659
O    8.0       23.0944971801       21.5299866572       21.6324526774
C    6.0       22.6403842206       23.1567121605       23.3915847506
H    1.0       22.8772681466       24.1879991471       23.6840082356
O    8.0       22.9695180037       22.2711356007       24.4736773650
H    1.0       23.6380890126       21.6281268505       24.1307547369
C    6.0       21.1285300311       23.0793625946       23.0846362589
H    1.0       20.8846619461       22.0252909420       22.9194232043
O    8.0       20.3865717472       23.5591688058       24.2094136165
H    1.0       20.8042027330       23.1255682586       24.9873380682
C    6.0       20.7374319022       23.8776066284       21.8132318460
H    1.0       20.6156029990       24.9341560333       22.0870942120
C    6.0       21.7529513478       23.7379834661       20.6419113401
H    1.0       21.5853800223       22.7629546471       20.1666350087
O    8.0       23.1175392161       23.8094441373       21.1256349581
C    6.0       21.5811362835       24.8162086538       19.5491818390
H    1.0       20.5939606148       24.7001634619       19.0826820313
H    1.0       22.3330899400       24.6488157287       18.7664054236
O    8.0       21.7172804591       26.1312471441       20.0950415237
H    1.0       22.6046105782       26.1643222897       20.5172366373
C    6.0       24.7933426256       17.8099923791       20.8197008652
H    1.0       25.4559028394       16.9971078518       20.4957717288
O    8.0       23.4722872769       17.3202381983       21.1237982938
C    6.0       25.3818882745       18.5503488753       22.0531401835
H    1.0       26.3550431630       18.9557796148       21.7469940261
O    8.0       25.5804326107       17.6695126775       23.1692216504
H    1.0       24.6887617033       17.3239672505       23.4281414104
C    6.0       24.4828831002       19.7407941283       22.4651201760
H    1.0       23.5307887516       19.3358065875       22.8348228937
O    8.0       25.1312795606       20.4827004638       23.5033441568
H    1.0       25.5139122686       19.8022495001       24.1025333873
C    6.0       24.1786010607       20.6608004156       21.2539634742
H    1.0       25.0781006859       21.2297244845       20.9827252941
C    6.0       23.7115872840       19.8545653631       20.0142211520
H    1.0       22.7101738145       19.4531110201       20.2101240465
O    8.0       24.6533065308       18.7814306282       19.7618668952
C    6.0       23.6454478782       20.7189150253       18.7383428940
H    1.0       24.6581525040       21.0475680049       18.4692069582
H    1.0       23.0460750738       21.6159969557       18.9349850658
O    8.0       23.0600034439       19.9680686442       17.6728080165
H    1.0       23.5860832081       19.1418813388       17.6032200775
C    6.0       21.2959144014       13.9037290910       21.8911579322
H    1.0       20.9134671260       12.9060024461       22.1425985698
O    8.0       20.2818467557       14.7315912038       21.2870956538
C    6.0       21.8383965119       14.6141186516       23.1580646958
H    1.0       22.6777897195       14.0148397802       23.5342476913
O    8.0       20.8399642251       14.7201624935       24.1852634332
H    1.0       20.0187626925       14.2877697845       23.8453203348
C    6.0       22.3727859980       16.0180068213       22.8001637437
H    1.0       21.5147104335       16.6270631959       22.4913856477
O    8.0       22.9884370126       16.5962840661       23.9553087295
H    1.0       22.3590153383       16.4103642584       24.6882903097
C    6.0       23.3792387496       15.9716108600       21.6236512922
H    1.0       24.3428021417       15.6047246956       22.0012236360
C    6.0       22.8947364487       15.0716957170       20.4497103642
H    1.0       22.0905135217       15.6003811133       19.9212400284
O    8.0       22.3932727217       13.8085114939       20.9578124358
C    6.0       23.9976013046       14.7584810709       19.4142473300
H    1.0       24.2977781964       15.6905368993       18.9176044057
H    1.0       23.5796760101       14.0984817683       18.6422294231
O    8.0       25.1304482534       14.1425482110       20.0331607989
H    1.0       24.7973027570       13.3275372705       20.4705307428
N    7.0       20.1511818050       17.9354558915       15.5719117927
H    1.0       21.0775484539       17.4997118679       15.6164624356
H    1.0       20.0976470135       18.4299056374       14.6752608126
H    1.0       19.4574199972       17.1823973424       15.5409621042
C    6.0       19.9184365700       18.8737320142       16.7383094563
H    1.0       18.9345660983       19.3358863712       16.6151279415
H    1.0       20.6748077583       19.6629017556       16.6919644749
C    6.0       19.9954566186       18.1720037485       18.1050273313
H    1.0       19.2517584781       17.3676711900       18.1468944558
H    1.0       20.9872724243       17.7159130872       18.2255712845
C    6.0       19.7423866222       19.1771061576       19.2458696411
H    1.0       18.7216192335       19.5716284677       19.1592759267
H    1.0       20.4240561397       20.0311990314       19.1245923962
C    6.0       19.9385573225       18.5575360819       20.6473418000
H    1.0       19.1820556163       17.7829598323       20.8283797436
H    1.0       20.9172367771       18.0644127403       20.6993608415
C    6.0       19.8497437248       19.6410979261       21.7419226613
H    1.0       18.8545461916       20.1027972015       21.7291029791
H    1.0       20.5684841223       20.4373185308       21.5132862138
C    6.0       20.1328405399       19.0856110872       23.1523522502
H    1.0       19.4822823235       18.2319022281       23.3836547335
H    1.0       19.9578764217       19.8577605453       23.9127723044
H    1.0       21.1762935998       18.7610169280       23.2441464440
 $end
