$$$$
! Edit this basic GAMESS input file as needed.
! Conformer was generated by a VeraChem VCPack run 
! and contains    146 atoms.
!
 $contrl scftyp=rhf runtyp=optimize nzvar=0
  maxit=200 icharg=0 $end
 $system mwords=50 $end
 $basis gbasis=pm3 $end
 $statpt nstep=200 $end
 $guess guess=huckel $end
 $data
FE Rank=1      G=534.374           E=340.922           -TS=193.453              
C1
C    6.0       16.2771024162       15.2715708511       20.4693733548
H    1.0       15.2705341910       15.0793045528       20.0762129326
O    8.0       16.3951162964       16.5983581642       21.0220025321
C    6.0       16.6200123122       14.2705844115       21.6018412966
H    1.0       16.5669929373       13.2600527721       21.1761891158
O    8.0       15.6776044014       14.3798350697       22.6814686517
H    1.0       15.4944474110       15.3435479780       22.8186124109
C    6.0       18.0623441974       14.4965292217       22.1214220621
H    1.0       18.0886134892       15.4733021373       22.6181229287
O    8.0       18.3809798746       13.4725148461       23.0703134921
H    1.0       17.5626885401       13.3638756553       23.6065382842
C    6.0       19.0819807419       14.5135768794       20.9462264693
H    1.0       19.2006689269       13.4931031373       20.5598409674
C    6.0       18.6191330100       15.4436811735       19.7934611990
H    1.0       18.6550435197       16.4797483578       20.1517917154
O    8.0       17.2600255904       15.1180589013       19.4230946890
C    6.0       19.5153921919       15.3720275879       18.5315512718
H    1.0       20.4337517541       15.9421203782       18.7237976924
H    1.0       18.9940192837       15.8704692719       17.7036260511
O    8.0       19.8534372966       14.0292322780       18.1642040379
H    1.0       20.4795358535       13.6893176624       18.8396299508
C    6.0       14.6058163241       20.3060097723       21.1305227483
H    1.0       13.9558735389       21.1884071742       21.0688715417
O    8.0       15.9754362642       20.6638284262       21.4138048872
C    6.0       14.1184455543       19.3309418946       22.2320727479
H    1.0       13.1211163109       18.9766273142       21.9404196305
O    8.0       14.0293664186       19.9808482540       23.5092814146
H    1.0       14.8822794481       20.4619952371       23.6605491536
C    6.0       15.0582725684       18.1042304806       22.3073639545
H    1.0       16.0416095410       18.4522387515       22.6447198797
O    8.0       14.5414192333       17.1515360826       23.2421275609
H    1.0       14.2606740846       17.6833645744       24.0201168233
C    6.0       15.2281922957       17.4367598976       20.9201956519
H    1.0       14.3197693704       16.8566115435       20.7112019334
C    6.0       15.4805431584       18.4578468620       19.7727677185
H    1.0       16.5102699929       18.8243317310       19.8593051705
O    8.0       14.5745833152       19.5833475369       19.8824341227
C    6.0       15.3273691357       17.8485482907       18.3582829523
H    1.0       16.1750665767       17.1759369117       18.1729195985
H    1.0       15.3885397679       18.6588970901       17.6196074692
O    8.0       14.0957415759       17.1308650537       18.2085485027
H    1.0       14.0455170515       16.8167821747       17.2794239472
C    6.0       18.5170163270       23.8569767223       22.0542935625
H    1.0       18.9803758619       24.8331422008       22.2487022882
O    8.0       19.4985793862       22.8677493182       21.6940215269
C    6.0       17.7785748207       23.3639502678       23.3203990804
H    1.0       16.9941399906       24.0965358650       23.5511203667
O    8.0       18.6847588441       23.2698850858       24.4322201780
H    1.0       19.5731111740       23.5539824431       24.1064515836
C    6.0       17.1048020156       21.9978188924       23.0575151398
H    1.0       17.8944530912       21.2564933465       22.8957818712
O    8.0       16.3314234960       21.6264066147       24.2010359374
H    1.0       16.8977871219       21.8606003510       24.9704782726
C    6.0       16.2169495097       22.0346992523       21.7891811754
H    1.0       15.2889104296       22.5704029038       22.0292169137
C    6.0       16.9267282718       22.7081318803       20.5801309507
H    1.0       17.6947175038       22.0137087300       20.2186038459
O    8.0       17.5634546940       23.9509715722       20.9753812521
C    6.0       15.9762265007       22.9990502969       19.3943242884
H    1.0       15.6844252763       22.0430983350       18.9385930079
H    1.0       16.5266179443       23.5686525167       18.6334182876
O    8.0       14.8064128985       23.7169423648       19.8063358319
H    1.0       14.2823557891       23.9196718016       19.0008677482
C    6.0       23.5359947787       22.6409960176       20.6969321097
H    1.0       24.5415231531       22.8339826034       20.3011347688
O    8.0       23.4052397980       21.2958202272       21.2012477967
C    6.0       23.2037127929       23.6091028578       21.8638044696
H    1.0       23.2509936660       24.6323075834       21.4689917555
O    8.0       24.1510695273       23.4710015712       22.9351563507
H    1.0       24.2703850241       22.5021529553       23.1051970726
C    6.0       21.7650664251       23.3588977464       22.3809871560
H    1.0       21.7434313708       22.3590686523       22.8309292865
O    8.0       21.4206456483       24.3369617893       23.3679584525
H    1.0       22.2199827740       24.4187997434       23.9353645029
C    6.0       20.7475156507       23.3911125316       21.2124277153
H    1.0       20.6484915604       24.4251193409       20.8560839722
C    6.0       21.1893585617       22.4909837655       20.0302239559
H    1.0       21.1610173763       21.4488031732       20.3656236752
O    8.0       22.5459026236       22.8324051865       19.6604837658
C    6.0       20.2777081421       22.5847820805       18.7786891914
H    1.0       19.4806517152       21.8368708474       18.8759367893
H    1.0       20.8660841445       22.3075422845       17.8938670005
O    8.0       19.6950668463       23.8819330727       18.5971353776
H    1.0       19.0544779429       24.0229912405       19.3318636224
C    6.0       25.2507942319       17.6286177409       21.3818730396
H    1.0       25.9118908335       16.7525023805       21.3645862483
O    8.0       23.8591359525       17.2466282038       21.4505006146
C    6.0       25.5853388478       18.5649053745       22.5721548282
H    1.0       26.5963186772       18.9576428610       22.4016463996
O    8.0       25.5683678232       17.8690139818       23.8264587768
H    1.0       24.6676816512       17.4706279547       23.9296417909
C    6.0       24.6075057689       19.7641380621       22.5896895866
H    1.0       23.5967775904       19.3811726300       22.7843146418
O    8.0       24.9806198896       20.6782014640       23.6258620697
H    1.0       25.1808354398       20.1133022603       24.4053973183
C    6.0       24.6025293550       20.4969136757       21.2239412818
H    1.0       25.5090027850       21.1140275349       21.1671881747
C    6.0       24.5376649850       19.5306542933       20.0037565362
H    1.0       23.5133904735       19.1468535952       19.9247737321
O    8.0       25.4402478727       18.4101711565       20.1836816599
C    6.0       24.8708347492       20.2152217247       18.6562856315
H    1.0       24.0412882842       20.8837331269       18.3895837640
H    1.0       24.9301449727       19.4436841159       17.8769752214
O    8.0       26.0945158786       20.9591080329       18.7148084542
H    1.0       26.2750290124       21.3065932972       17.8140661007
C    6.0       21.2294180819       14.1243726510       22.0540024382
H    1.0       20.7332868128       13.1711416413       22.2751978070
O    8.0       20.3394724365       15.0503169867       21.3993550536
C    6.0       21.7346972511       14.7831758456       23.3602322045
H    1.0       22.4456271195       14.0866302804       23.8237667360
O    8.0       20.6482296185       15.0389353378       24.2693990399
H    1.0       19.9401558356       14.3830203694       24.0544894115
C    6.0       22.4728058453       16.1040354756       23.0477186151
H    1.0       21.7314921057       16.8078119391       22.6567408125
O    8.0       23.0346321357       16.6151839830       24.2590762538
H    1.0       22.4371844521       16.2954907274       24.9693697925
C    6.0       23.5664954331       15.9301441480       21.9640494900
H    1.0       24.4456185078       15.4586523201       22.4230927511
C    6.0       23.0750282304       15.0874013247       20.7524591287
H    1.0       22.3857811077       15.7076941838       20.1655873693
O    8.0       22.3705471578       13.9019735913       21.1991467165
C    6.0       24.2188292772       14.6539511071       19.8046304267
H    1.0       24.5899243688       15.5437615565       19.2780005207
H    1.0       23.8078058412       13.9735903589       19.0468012137
O    8.0       25.2957674462       14.0236247896       20.5096715714
H    1.0       25.9475578058       13.7145021162       19.8430749404
N    7.0       20.1156046334       17.8170473422       25.0581084070
H    1.0       20.8230025888       18.0123409684       25.7708191482
H    1.0       20.2409373149       16.8359562350       24.7603430093
H    1.0       19.1986464739       17.8865217044       25.5053098384
C    6.0       20.2378442761       18.7628525619       23.8955205365
H    1.0       21.2401306203       18.6177342424       23.4821282337
C    6.0       20.1201713999       20.2152948932       24.3813152973
H    1.0       20.2382547523       20.9202878945       23.5538418526
H    1.0       20.8990837296       20.4424344728       25.1192919354
H    1.0       19.1454562273       20.4014808173       24.8486269427
C    6.0       19.1997243305       18.4304631956       22.7995640640
H    1.0       19.2069257694       17.3483529276       22.6291558009
H    1.0       18.1968991065       18.6771286950       23.1687324631
C    6.0       19.4306953453       19.1267474528       21.4356720310
H    1.0       19.3818789554       20.2159643064       21.5450863725
H    1.0       18.6080921870       18.8557718595       20.7617547020
C    6.0       20.7689877698       18.7292052880       20.7765563333
H    1.0       20.8459145400       17.6420178028       20.6575936999
H    1.0       21.6224751474       19.0687318693       21.3758250795
H    1.0       20.8601398549       19.1783888588       19.7797973732
 $end
$$$$
! Edit this basic GAMESS input file as needed.
! Conformer was generated by a VeraChem VCPack run 
! and contains    146 atoms.
!
 $contrl scftyp=rhf runtyp=optimize nzvar=0
  maxit=200 icharg=0 $end
 $system mwords=50 $end
 $basis gbasis=pm3 $end
 $statpt nstep=200 $end
 $guess guess=huckel $end
 $data
FE Rank=2      G=535.257           E=342.746           -TS=192.511              
C1
C    6.0       16.2139147722       15.1576676468       20.5896762729
H    1.0       15.1672483085       15.0352428492       20.2823299462
O    8.0       16.5042388879       16.5193830453       20.9673870020
C    6.0       16.5687480279       14.2208807685       21.7743696998
H    1.0       16.4528641047       13.1894196722       21.4166793715
O    8.0       15.6955101335       14.4227181390       22.8953384427
H    1.0       15.7683327181       15.3752081181       23.1579644716
C    6.0       18.0470668516       14.4157151275       22.1931490953
H    1.0       18.1546642344       15.4295279628       22.6020530680
O    8.0       18.3832926512       13.4534019027       23.1981801551
H    1.0       17.5978347750       13.4198518128       23.7903397245
C    6.0       18.9972055634       14.2776687885       20.9722320496
H    1.0       19.0882522341       13.2159740164       20.7096521070
C    6.0       18.5010450905       15.0665365054       19.7283644059
H    1.0       18.6380992598       16.1368118777       19.9232676660
O    8.0       17.0942715781       14.8068865430       19.5004852829
C    6.0       19.2874928437       14.7490342312       18.4319317342
H    1.0       20.2673011451       15.2411120605       18.4888216018
H    1.0       18.7521504575       15.1943444146       17.5828764748
O    8.0       19.4668718865       13.3438435379       18.2173452580
H    1.0       20.1612519270       13.0374770280       18.8399433622
C    6.0       14.9239491470       20.2368863513       21.6898719197
H    1.0       14.3091946232       21.1229216884       21.8945742492
O    8.0       16.2722747224       20.5954520328       21.3342679008
C    6.0       14.9799273384       19.3290262803       22.9407752364
H    1.0       13.9516299584       19.0158151857       23.1641860997
O    8.0       15.5213505479       20.0423836083       24.0673136356
H    1.0       15.4520563888       21.0060076187       23.8536413781
C    6.0       15.8266786254       18.0675003617       22.6559243046
H    1.0       16.8660796939       18.3878536343       22.5226217217
O    8.0       15.7369765163       17.1788484364       23.7735045900
H    1.0       15.6406003975       17.7611651393       24.5571109356
C    6.0       15.3899617652       17.3452887455       21.3566879409
H    1.0       14.4879915792       16.7551136076       21.5667201014
C    6.0       15.1342446071       18.3231750005       20.1732886161
H    1.0       16.1098975071       18.6695470256       19.8100930025
O    8.0       14.3612359927       19.4718632932       20.6043140227
C    6.0       14.4113324119       17.6646979980       18.9740798193
H    1.0       15.1072260937       16.9674378567       18.4880408887
H    1.0       14.1662529828       18.4446975791       18.2407310954
O    8.0       13.2257809299       16.9666605289       19.3750206356
H    1.0       12.7807516658       16.6432498212       18.5613186928
C    6.0       18.5702542725       24.0179820225       20.7897733641
H    1.0       18.9629074728       24.9997129892       20.4946610850
O    8.0       19.5990246790       23.1706497958       21.3351943212
C    6.0       17.4576150172       24.1571526524       21.8630588774
H    1.0       16.6474128720       24.7525731253       21.4224780928
O    8.0       17.9508478015       24.8233711297       23.0367884115
H    1.0       18.7797655240       24.3585045565       23.3166821575
C    6.0       16.8847378421       22.7671237120       22.2383302657
H    1.0       17.6780471413       22.2122919725       22.7519916422
O    8.0       15.7674653888       22.9272524094       23.1200983505
H    1.0       16.0418643396       23.6286424777       23.7530893793
C    6.0       16.4721139995       21.9716235628       20.9702089467
H    1.0       15.5598486923       22.4174828538       20.5528068053
C    6.0       17.5793989891       21.9759842305       19.8842348781
H    1.0       18.4292387913       21.3888006116       20.2559430404
O    8.0       18.0041198757       23.3396257312       19.6459693424
C    6.0       17.1501846410       21.3315866278       18.5406735131
H    1.0       17.2973509214       20.2464635581       18.6162906696
H    1.0       17.8214244567       21.6904291358       17.7491349453
O    8.0       15.7866016459       21.6040881067       18.1939772115
H    1.0       15.2201888968       21.1113785942       18.8287385947
C    6.0       23.5919291692       22.7861507689       22.0498862742
H    1.0       24.6683410196       22.8712745805       22.2482302850
O    8.0       23.2027863100       21.4225266529       21.7869933843
C    6.0       22.7918938774       23.2894651557       23.2732493217
H    1.0       23.0236873259       24.3533330000       23.4134421295
O    8.0       23.1627380610       22.5560146961       24.4519981635
H    1.0       23.6300705137       21.7394784238       24.1479183886
C    6.0       21.2771915725       23.1518796172       23.0100615059
H    1.0       21.0558229891       22.0811940570       22.9582432843
O    8.0       20.5382941187       23.7394072344       24.0855207336
H    1.0       20.9938570845       23.4327283862       24.9012615740
C    6.0       20.8547049524       23.7904160682       21.6641346818
H    1.0       20.7601901218       24.8755475324       21.8037677174
C    6.0       21.8292591272       23.4704949587       20.4926106613
H    1.0       21.6381064117       22.4357345709       20.1840611525
O    8.0       23.2144864567       23.5852409298       20.9103462167
C    6.0       21.6176890769       24.3613158294       19.2453093484
H    1.0       20.6704535188       24.0759580962       18.7681000739
H    1.0       22.4201883269       24.1529666212       18.5248556540
O    8.0       21.5948222830       25.7549919829       19.5766251596
H    1.0       21.5392283676       26.2604964676       18.7363097937
C    6.0       24.8932924019       17.7251490623       20.8535950010
H    1.0       25.5521352539       16.9191116628       20.5057838877
O    8.0       23.5708109938       17.2325488471       21.1522924456
C    6.0       25.4839438321       18.4368708913       22.1044127076
H    1.0       26.4432682537       18.8752212446       21.7998744577
O    8.0       25.7197259618       17.5253762043       23.1874965251
H    1.0       24.8413440177       17.1502045202       23.4491940218
C    6.0       24.5588174243       19.5927589189       22.5579189807
H    1.0       23.6089833151       19.1591620874       22.8984550007
O    8.0       25.1712742248       20.3172725462       23.6300046598
H    1.0       25.5435101219       19.6293826068       24.2260345820
C    6.0       24.2661643167       20.5475025368       21.3748867514
H    1.0       25.1849066253       21.0998301141       21.1366859909
C    6.0       23.7960181285       19.7836082756       20.1070694104
H    1.0       22.8113398903       19.3439873119       20.3127031586
O    8.0       24.7470467978       18.7267285273       19.8208646060
C    6.0       23.6369287809       20.6667758389       18.8411460400
H    1.0       22.6043329584       21.0346496181       18.8013494318
H    1.0       23.7792492713       20.0347460406       17.9543920365
O    8.0       24.5427507002       21.7768987974       18.8027062871
H    1.0       24.2374432791       22.4278223813       19.4769049871
C    6.0       21.2429785916       13.9384264424       21.8782085715
H    1.0       20.8004644746       12.9612097315       22.1108546299
O    8.0       20.2697503565       14.8480567879       21.3280038424
C    6.0       21.8514665948       14.5683839597       23.1550305105
H    1.0       22.6400431430       13.8910003916       23.5080083937
O    8.0       20.8654641020       14.7298488219       24.1885048041
H    1.0       20.0469284150       14.2648608441       23.8875755281
C    6.0       22.4939002128       15.9353100749       22.8359834450
H    1.0       21.6827855286       16.6291227605       22.5846456703
O    8.0       23.1861862273       16.4025586089       23.9975147344
H    1.0       22.5882182078       16.1791373129       24.7459015475
C    6.0       23.4563612932       15.8751416507       21.6237070704
H    1.0       24.4198956479       15.4671823866       21.9565161231
C    6.0       22.8973184448       15.0332281806       20.4395703961
H    1.0       22.1202524475       15.6279454544       19.9424329109
O    8.0       22.3083499627       13.7957538304       20.9161177415
C    6.0       23.9596060687       14.6917585157       19.3674636090
H    1.0       24.2130876749       15.6114327579       18.8230667633
H    1.0       23.5146889859       13.9965525845       18.6429079418
O    8.0       25.1443145351       14.1241799332       19.9399509072
H    1.0       25.7343618764       13.8575887638       19.2012905439
N    7.0       17.9174330087       19.1262479022       25.4525611761
H    1.0       18.2579210447       19.8982526529       26.0300665025
H    1.0       17.6461544825       18.3664493620       26.0813873951
H    1.0       17.0640434847       19.4571410224       24.9752050020
C    6.0       18.9576674189       18.6780564192       24.4641175464
H    1.0       18.5249537213       17.8339773503       23.9180755090
C    6.0       20.2123141408       18.1904388129       25.2057316521
H    1.0       20.6994944905       19.0096298419       25.7488202908
H    1.0       20.9377567071       17.7646047215       24.5082832005
H    1.0       19.9560562662       17.4034126013       25.9256266630
C    6.0       19.2783875354       19.8045088689       23.4546830590
H    1.0       18.3363197557       20.1547434261       23.0200956530
H    1.0       19.7010511760       20.6585490824       23.9981619008
C    6.0       20.2254006236       19.4118424904       22.2917993453
H    1.0       21.2107633456       19.1234580658       22.6803585360
H    1.0       20.3990958876       20.2937366399       21.6600223390
C    6.0       19.6537434667       18.2809453826       21.4105457948
H    1.0       19.4765785960       17.3698550271       21.9941715881
H    1.0       18.7034267974       18.5810808082       20.9501211569
H    1.0       20.3552205785       18.0274690270       20.6052156399
 $end
$$$$
! Edit this basic GAMESS input file as needed.
! Conformer was generated by a VeraChem VCPack run 
! and contains    146 atoms.
!
 $contrl scftyp=rhf runtyp=optimize nzvar=0
  maxit=200 icharg=0 $end
 $system mwords=50 $end
 $basis gbasis=pm3 $end
 $statpt nstep=200 $end
 $guess guess=huckel $end
 $data
FE Rank=3      G=536.394           E=343.633           -TS=192.761              
C1
C    6.0       16.1337093660       15.1118107304       20.5514581444
H    1.0       15.0687411617       15.0153752901       20.3038887675
O    8.0       16.4884684642       16.4865522663       20.8215391741
C    6.0       16.5178001137       14.2035274760       21.7521405161
H    1.0       16.3721590880       13.1644485200       21.4288852118
O    8.0       15.6983358206       14.4427216553       22.9052313825
H    1.0       15.9057272957       15.3587164522       23.2178459293
C    6.0       18.0144836943       14.3885544125       22.0932701988
H    1.0       18.1616372387       15.4242863289       22.4220106188
O    8.0       18.3944576076       13.4915160613       23.1421317734
H    1.0       17.6567097918       13.5255240658       23.7908725013
C    6.0       18.9024908252       14.1457708201       20.8493701415
H    1.0       18.9550193833       13.0631466366       20.6747371076
C    6.0       18.3728957578       14.8626350616       19.5732990237
H    1.0       18.5833180570       15.9354925837       19.6721058272
O    8.0       16.9400249212       14.6721882088       19.4379944544
C    6.0       19.0507808614       14.3778716164       18.2692633594
H    1.0       20.0870727751       14.7397650180       18.2578594460
H    1.0       18.5365744235       14.8385006278       17.4151833395
O    8.0       19.0333549722       12.9496190979       18.1493270863
H    1.0       19.4445596196       12.7184353790       17.2880007434
C    6.0       15.0926185382       20.1774706765       22.0713290868
H    1.0       14.5078261280       21.0188640404       22.4642618926
O    8.0       16.2877731030       20.6295894809       21.4027243740
C    6.0       15.4847047857       19.2130741472       23.2204773763
H    1.0       14.5511339129       18.8654150850       23.6819143787
O    8.0       16.2950049439       19.8596724602       24.2164617855
H    1.0       16.1230339935       20.8294834544       24.1444755733
C    6.0       16.2432487081       17.9847713889       22.6778686441
H    1.0       17.2115051872       18.3341614209       22.3059512466
O    8.0       16.4396802295       17.0684300197       23.7570117257
H    1.0       16.6686924779       17.6424734510       24.5225231875
C    6.0       15.5085478358       17.3038446170       21.4970000382
H    1.0       14.6720299376       16.7116377734       21.8906373223
C    6.0       14.9855155694       18.3334002044       20.4556093156
H    1.0       15.8493857830       18.7291924296       19.9056695531
O    8.0       14.3063046665       19.4294800746       21.1197093780
C    6.0       14.0225478829       17.7171599292       19.4126648571
H    1.0       14.6034932036       17.0665705499       18.7449968743
H    1.0       13.6065518835       18.5269931794       18.7984209797
O    8.0       12.9684360740       16.9646306962       20.0263398707
H    1.0       12.3573518701       16.6727686290       19.3148871207
C    6.0       18.5226508243       24.1274872415       21.0928578804
H    1.0       18.8661589151       25.1566787666       20.9289155316
O    8.0       19.6193374294       23.2288734582       21.3472104883
C    6.0       17.5881545186       24.0776866420       22.3239381084
H    1.0       16.7325608323       24.7331092917       22.1148953059
O    8.0       18.2729582019       24.5513108823       23.4951053559
H    1.0       19.2267517278       24.3071037496       23.3935991062
C    6.0       17.0481830386       22.6462448577       22.5564756632
H    1.0       17.8892569475       22.0083952997       22.8605152727
O    8.0       16.0742341134       22.6990730041       23.6046067486
H    1.0       16.4586937333       23.3130647818       24.2716188913
C    6.0       16.4355881082       22.0569000389       21.2546408975
H    1.0       15.4695370903       22.5406069376       21.0613286843
C    6.0       17.3617658203       22.2641695174       20.0246773819
H    1.0       18.2420159181       21.6239056229       20.1537734493
O    8.0       17.7917557643       23.6456062355       19.9462796242
C    6.0       16.7090928091       21.8645119008       18.6780447007
H    1.0       16.6667808301       20.7684700470       18.6225516580
H    1.0       17.3579834691       22.2050646007       17.8603945692
O    8.0       15.3925254004       22.4057273844       18.5178043742
H    1.0       14.7939546960       21.9043564633       19.1124896526
C    6.0       23.7081064012       22.7741724322       20.8346422230
H    1.0       24.7749937493       22.8790336841       20.5992439518
O    8.0       23.3712611202       21.4076758367       21.1570080772
C    6.0       23.2880477637       23.7199481559       21.9951861832
H    1.0       23.4462019193       24.7478792324       21.6436572789
O    8.0       24.0729120470       23.5147261252       23.1784686898
H    1.0       23.8525106795       22.6094989524       23.5125497519
C    6.0       21.7810113290       23.5517171915       22.3052245704
H    1.0       21.6202318596       22.5355516450       22.6889165002
O    8.0       21.3740945666       24.5088153494       23.2890265667
H    1.0       22.0770216159       24.4885997617       23.9759129515
C    6.0       20.9299895973       23.7267450676       21.0246565945
H    1.0       20.9197755561       24.7935054936       20.7657626722
C    6.0       21.4812716515       22.9052690568       19.8258609088
H    1.0       21.3159543361       21.8431926488       20.0395268670
O    8.0       22.9060992828       23.1436991368       19.6897306635
C    6.0       20.7914040245       23.1950189801       18.4689119408
H    1.0       19.8667519058       22.6061497128       18.4152320506
H    1.0       21.4455503595       22.8370107316       17.6627788705
O    8.0       20.4865104206       24.5806430325       18.2761403544
H    1.0       19.5853181107       24.7274574082       18.6393952937
C    6.0       24.6526044499       17.7434903316       22.4691514392
H    1.0       25.1750949930       16.8694478701       22.8783801927
O    8.0       23.4597900071       17.3659820015       21.7558986580
C    6.0       24.2510725831       18.7089402314       23.6103739671
H    1.0       25.1749353277       19.0219267079       24.1142874913
O    8.0       23.3764121857       18.0666979147       24.5565801523
H    1.0       23.5282398827       17.0937002662       24.4684064879
C    6.0       23.5511666836       19.9608470155       23.0402940515
H    1.0       22.5890790175       19.6339721198       22.6316607688
O    8.0       23.3321774087       20.8951325920       24.1030020061
H    1.0       23.3166428599       20.3552735649       24.9238562602
C    6.0       24.3381884199       20.6202330610       21.8798853013
H    1.0       25.1511000568       21.2302460704       22.2948762656
C    6.0       24.9050511266       19.5832354946       20.8679359243
H    1.0       24.0680227378       19.2149219459       20.2614542981
O    8.0       25.5111028189       18.4615007874       21.5587588114
C    6.0       25.9442475279       20.1807587207       19.8896295552
H    1.0       25.4215005069       20.8496345386       19.1926621398
H    1.0       26.3764410791       19.3643162577       19.2955904139
O    8.0       26.9775230754       20.9021172924       20.5717334647
H    1.0       27.6379072378       21.1830474151       19.9010749414
C    6.0       21.3376575911       13.8798178817       20.8962903546
H    1.0       21.0495777215       12.8693134069       20.5794511780
O    8.0       20.1889538096       14.7078078330       21.1696964619
C    6.0       22.1761109035       13.8212752334       22.1993851347
H    1.0       23.0719381974       13.2218833967       21.9911987932
O    8.0       21.4275222097       13.2041277402       23.2597027408
H    1.0       20.4842381354       13.4897019434       23.1619212402
C    6.0       22.6342217724       15.2395659209       22.6209189209
H    1.0       21.7391318660       15.8081990170       22.8957516720
O    8.0       23.5041685394       15.1422764942       23.7541414048
H    1.0       23.0958198910       14.4532544032       24.3259094754
C    6.0       23.3317811620       15.9687345636       21.4401858405
H    1.0       24.3106813488       15.5055286970       21.2603266779
C    6.0       22.4884805624       15.8976061499       20.1400698007
H    1.0       21.5718924117       16.4821241739       20.2898198314
O    8.0       22.1350978956       14.5203489563       19.8760611345
C    6.0       23.1997009022       16.4864738229       18.8950189977
H    1.0       23.0832374509       17.5777868091       18.9131897623
H    1.0       22.6872387308       16.1240543363       17.9939915988
O    8.0       24.5928293916       16.1567173322       18.8375661758