$$$$
! Edit this basic GAMESS input file as needed.
! Conformer was generated by a VeraChem VCPack run 
! and contains     26 atoms.
!
 $contrl scftyp=rhf runtyp=optimize nzvar=0
  maxit=200 icharg=0 $end
 $system mwords=50 $end
 $basis gbasis=pm3 $end
 $statpt nstep=200 $end
 $guess guess=huckel $end
 $data
VM2 Rank=1      G=23.712            E=-8.840            -TS=32.553              
C1
C    6.0       20.2414352106       18.6561773428       18.8059769468
H    1.0       19.6042476191       19.4967876687       18.5016586611
H    1.0       21.0557311536       18.5687602352       18.0749997824
H    1.0       19.6427651275       17.7373535602       18.7549964724
C    6.0       20.8050585221       18.8730148064       20.2263448785
H    1.0       21.4261189879       19.7797094425       20.2375262543
H    1.0       21.4644585760       18.0338113512       20.4887336009
C    6.0       19.6784656342       18.9994080570       21.2757061828
H    1.0       19.0205484453       19.8374085433       21.0067028084
H    1.0       19.0594504755       18.0916324466       21.2594912329
C    6.0       20.2389143598       19.2173971773       22.6994198006
H    1.0       20.8548537985       20.1273948992       22.7149747715
H    1.0       20.9000468412       18.3794691891       22.9575871938
C    6.0       19.1075890618       19.3422795698       23.7488100030
H    1.0       18.4279122160       20.1490367859       23.4433705234
H    1.0       18.5118988512       18.4198351391       23.7645649275
C    6.0       19.6331398466       19.6455717042       25.1687725342
H    1.0       20.2418778691       20.5538620478       25.1222520885
C    6.0       18.4605419428       19.8995823128       26.1296084659
H    1.0       17.8446634233       20.7376807334       25.7802997125
H    1.0       18.8275717666       20.1520164392       27.1320770551
H    1.0       17.8172595640       19.0147032173       26.2138062850
N    7.0       20.5228554220       18.5545690297       25.6993611882
H    1.0       20.0216769961       17.6650855210       25.7696497644
H    1.0       21.3336959214       18.4049008824       25.0931192806
H    1.0       20.8768803340       18.7814061439       26.6329762646
 $end
$$$$
! Edit this basic GAMESS input file as needed.
! Conformer was generated by a VeraChem VCPack run 
! and contains     26 atoms.
!
 $contrl scftyp=rhf runtyp=optimize nzvar=0
  maxit=200 icharg=0 $end
 $system mwords=50 $end
 $basis gbasis=pm3 $end
 $statpt nstep=200 $end
 $guess guess=huckel $end
 $data
VM2 Rank=2      G=24.182            E=-8.384            -TS=32.567              
C1
C    6.0       20.2650767267       18.6437584680       18.8025803118
H    1.0       21.1742165279       18.0291288285       18.8331772613
H    1.0       19.4028422794       17.9735506089       18.6902704920
H    1.0       20.3173159345       19.2783246227       17.9083509820
C    6.0       20.1352730604       19.5061554072       20.0759786821
H    1.0       19.2362326517       20.1338552292       20.0008525593
H    1.0       20.9939304449       20.1889173146       20.1428852660
C    6.0       20.0596946114       18.6366049355       21.3505629535
H    1.0       19.2010251767       17.9547217824       21.2782982344
H    1.0       20.9590494075       18.0089204742       21.4186103638
C    6.0       19.9302046536       19.4968272265       22.6281392212
H    1.0       19.0340191874       20.1255976747       22.5454906348
H    1.0       20.7917204202       20.1749376275       22.7022217509
C    6.0       19.8500033218       18.6221943627       23.9035967318
H    1.0       18.9534156883       17.9894079319       23.8630599499
H    1.0       20.7111720735       17.9410267017       23.9147249777
C    6.0       19.8535131827       19.4354729854       25.2183188657
H    1.0       20.7326255622       20.0872806603       25.2161301072
C    6.0       18.5968843716       20.3129634731       25.3616980835
H    1.0       17.6825766679       19.7091905665       25.3052693088
H    1.0       18.5528514392       21.0781643055       24.5782081100
H    1.0       18.5994586554       20.8366348174       26.3255918458
N    7.0       19.9973500718       18.5340231416       26.4131251504
H    1.0       19.2076621928       17.8877287421       26.4919336189
H    1.0       20.8512887535       17.9712657246       26.3607895381
H    1.0       20.0403180466       19.0709784211       27.2839329583
 $end
$$$$
! Edit this basic GAMESS input file as needed.
! Conformer was generated by a VeraChem VCPack run 
! and contains     26 atoms.
!
 $contrl scftyp=rhf runtyp=optimize nzvar=0
  maxit=200 icharg=0 $end
 $system mwords=50 $end
 $basis gbasis=pm3 $end
 $statpt nstep=200 $end
 $guess guess=huckel $end
 $data
VM2 Rank=3      G=24.223            E=-8.475            -TS=32.698              
C1
C    6.0       20.3612573769       18.7664299306       18.8988636895
H    1.0       20.3290052252       17.9289051107       18.1899531691
H    1.0       19.6207258687       19.5098422712       18.5760795441
H    1.0       21.3566916650       19.2248182200       18.8338357984
C    6.0       20.0680776889       18.2779178937       20.3332660126
H    1.0       20.8039860333       17.5117128826       20.6148336397
H    1.0       19.0813810276       17.7945080607       20.3590427042
C    6.0       20.1073530321       19.4385049320       21.3520526426
H    1.0       21.0946460456       19.9198441503       21.3202028563
H    1.0       19.3718887951       20.2026952925       21.0647136645
C    6.0       19.8141380893       18.9534872624       22.7899010149
H    1.0       20.5512810564       18.1892181747       23.0693633931
H    1.0       18.8284196769       18.4703653567       22.8097177944
C    6.0       19.8522520619       20.1238669539       23.8069709759
H    1.0       20.8255060851       20.6276745030       23.7405083195
H    1.0       19.1035185551       20.8754266981       23.5235267842
C    6.0       19.6133367677       19.7156693662       25.2800274337
H    1.0       19.6966757888       20.6232099024       25.8860556949
C    6.0       18.2039891663       19.1383273660       25.4994290545
H    1.0       18.0784231085       18.1718716160       24.9970774146
H    1.0       17.4375905263       19.8256494661       25.1202477439
H    1.0       18.0142344887       18.9865367880       26.5690697333
N    7.0       20.6675958169       18.7737962953       25.7934891763
H    1.0       20.6508596364       17.8852209619       25.2871243081
H    1.0       21.6065211263       19.1694533991       25.6917776614
H    1.0       20.5303745596       18.5639767800       26.7862465498
 $end
$$$$
! Edit this basic GAMESS input file as needed.
! Conformer was generated by a VeraChem VCPack run 
! and contains     26 atoms.
!
 $contrl scftyp=rhf runtyp=optimize nzvar=0
  maxit=200 icharg=0 $end
 $system mwords=50 $end
 $basis gbasis=pm3 $end
 $statpt nstep=200 $end
 $guess guess=huckel $end
 $data
VM2 Rank=4      G=24.303            E=-8.362            -TS=32.665              
C1
C    6.0       21.0483193422       19.5371802028       19.5910412697
H    1.0       21.6440794204       19.2909819412       18.7025641922
H    1.0       20.3767462842       20.3641434834       19.3261930037
H    1.0       21.7412035077       19.8905627146       20.3646483572
C    6.0       20.2491255455       18.3022222077       20.0653174462
H    1.0       20.9437271271       17.5004801683       20.3525220946
H    1.0       19.6638001101       17.9134885573       19.2202824121
C    6.0       19.2859883221       18.6058985653       21.2382782307
H    1.0       18.5787222841       19.3911397708       20.9375091556
H    1.0       18.6846615497       17.7079432245       21.4369505494
C    6.0       20.0116674229       19.0260410485       22.5390064643
H    1.0       20.5567603567       19.9650682100       22.3753088149
H    1.0       20.7571408915       18.2624154782       22.7973516136
C    6.0       19.0189824815       19.2155163347       23.7118004558
H    1.0       18.2492782474       19.9389044900       23.4111607202
H    1.0       18.4984463501       18.2701565680       23.9150248956
C    6.0       19.7000429675       19.7208909055       25.0022122068
H    1.0       20.2300123282       20.6495740283       24.7689917241
C    6.0       18.6460665746       20.0244536815       26.0790881543
H    1.0       19.1201765428       20.4190323813       26.9862263901
H    1.0       18.0851731145       19.1216146542       26.3514684459
H    1.0       17.9308743918       20.7767137322       25.7236520450
N    7.0       20.7278073437       18.7557970539       25.5272557721
H    1.0       21.1824767633       19.1157874002       26.3711137339
H    1.0       20.3057306027       17.8549534689       25.7673133723
H    1.0       21.4617908332       18.5784251842       24.8364552823
 $end
$$$$
! Edit this basic GAMESS input file as needed.
! Conformer was generated by a VeraChem VCPack run 
! and contains     26 atoms.
!
 $contrl scftyp=rhf runtyp=optimize nzvar=0
  maxit=200 icharg=0 $end
 $system mwords=50 $end
 $basis gbasis=pm3 $end
 $statpt nstep=200 $end
 $guess guess=huckel $end
 $data
VM2 Rank=5      G=24.328            E=-8.330            -TS=32.658              
C1
C    6.0       21.0697866183       18.0176267122       19.8286223922
H    1.0       21.6580120188       18.0075520775       18.9018924131
H    1.0       21.7716348655       17.9122099945       20.6650656014
H    1.0       20.4117697358       17.1390322439       19.8179360421
C    6.0       20.2509610293       19.3242014804       19.9348476932
H    1.0       19.6581225483       19.4456219720       19.0174562727
H    1.0       20.9325660307       20.1852781000       19.9763348368
C    6.0       19.2943031567       19.3544950348       21.1512703254
H    1.0       18.6763357208       20.2606335877       21.0852348028
H    1.0       18.6016841760       18.5034056408       21.0943634292
C    6.0       20.0281888507       19.3401963612       22.5137721147
H    1.0       20.7542591094       20.1643058779       22.5470819649
H    1.0       20.5965905796       18.4071994717       22.6136473421
C    6.0       19.0395540470       19.4756056894       23.6975415432
H    1.0       18.4433486366       20.3875367210       23.5598003657
H    1.0       18.3329635607       18.6349826074       23.6891222062
C    6.0       19.7463169216       19.5466941128       25.0687033390
H    1.0       20.4616823065       20.3745285815       25.0430874649
C    6.0       18.7246071304       19.8265579368       26.1824846936
H    1.0       17.9821355430       19.0216614839       26.2516898667
H    1.0       18.1920632979       20.7674407806       25.9957622365
H    1.0       19.2245747990       19.9149765656       27.1548979372
N    7.0       20.5342822459       18.3026226724       25.3767578988
H    1.0       21.2507124893       18.1281178278       24.6670959497
H    1.0       21.0102565089       18.3755472661       26.2803969754
H    1.0       19.9298043970       17.4777121163       25.4147011339
 $end
$$$$
! Edit this basic GAMESS input file as needed.
! Conformer was generated by a VeraChem VCPack run 
! and contains     26 atoms.
!
 $contrl scftyp=rhf runtyp=optimize nzvar=0
  maxit=200 icharg=0 $end
 $system mwords=50 $end
 $basis gbasis=pm3 $end
 $statpt nstep=200 $end
 $guess guess=huckel $end
 $data
VM2 Rank=6      G=24.406            E=-8.339            -TS=32.745              
C1
C    6.0       20.8971002641       19.5642294548       19.3397480485
H    1.0       21.6801601187       20.2087874360       19.7599771443
H    1.0       21.3060494655       19.0768503331       18.4451740848
H    1.0       20.0618516511       20.2026734690       19.0235373819
C    6.0       20.4324520439       18.5122668095       20.3691175895
H    1.0       21.2808233391       17.8684840830       20.6406002850
H    1.0       19.6755546191       17.8617991083       19.9087599671
C    6.0       19.8510155403       19.1724616043       21.6387966519
H    1.0       20.6120976547       19.8274550180       22.0831637501
H    1.0       19.0023469907       19.8129619239       21.3614212255
C    6.0       19.3868574377       18.1185422907       22.6726711228
H    1.0       20.2366612347       17.4901929165       22.9709976223
H    1.0       18.6631832801       17.4428860829       22.1960546637
C    6.0       18.7225695185       18.7435521182       23.9262553600
H    1.0       17.8185346291       19.2834218500       23.6144177389
H    1.0       18.3840008808       17.9378391869       24.5911440892
C    6.0       19.6369853172       19.7071852974       24.7157362963
H    1.0       19.9488261346       20.5135517232       24.0454206694
C    6.0       18.8677672685       20.3323422165       25.8903168795
H    1.0       19.4995027301       21.0475102741       26.4314263419
H    1.0       18.5345730501       19.5651166531       26.6004099695
H    1.0       17.9832615976       20.8739852743       25.5325569809
N    7.0       20.8932526098       19.0374202086       25.2013580515
H    1.0       21.4998656511       19.6945935450       25.6998610838
H    1.0       20.6819435781       18.2683292961       25.8425300027
H    1.0       21.4331159445       18.6507305859       24.4224748819
 $end
$$$$
! Edit this basic GAMESS input file as needed.
! Conformer was generated by a VeraChem VCPack run 
! and contains     26 atoms.
!
 $contrl scftyp=rhf runtyp=optimize nzvar=0
  maxit=200 icharg=0 $end
 $system mwords=50 $end
 $basis gbasis=pm3 $end
 $statpt nstep=200 $end
 $guess guess=huckel $end
 $data
VM2 Rank=7      G=24.407            E=-8.262            -TS=32.668              
C1
C    6.0       19.9267005407       18.4375728061       19.0848848801
H    1.0       20.9094790745       18.6605067526       18.6493751518
H    1.0       19.5851048054       17.4794570178       18.6721366628
H    1.0       19.2236724593       19.2150321040       18.7584694243
C    6.0       20.0037641126       18.3710293324       20.6249710730
H    1.0       20.6908700147       17.5659414515       20.9206453514
H    1.0       19.0138844466       18.1064515575       21.0198198638
C    6.0       20.4794652213       19.7128123880       21.2303494029
H    1.0       21.4336234844       19.9962571052       20.7649100742
H    1.0       19.7649327904       20.5078153344       20.9759993085
C    6.0       20.6775000091       19.6633631293       22.7652726013
H    1.0       21.1156409898       20.6173623634       23.0901502787
H    1.0       21.4128831189       18.8849434510       23.0087201016
C    6.0       19.3622532316       19.4201441510       23.5488688747
H    1.0       18.6078205456       20.1425281646       23.2098916473
H    1.0       18.9664117299       18.4216965317       23.3241200445
C    6.0       19.5396894763       19.5652356967       25.0757584335
H    1.0       19.9495485971       20.5591554453       25.2803107016
C    6.0       18.1813559072       19.4481975616       25.7856225771
H    1.0       18.2954162175       19.5878065093       26.8676889963
H    1.0       17.7268382210       18.4644230165       25.6138652444
H    1.0       17.4847141557       20.2143680807       25.4231286014
N    7.0       20.5172715012       18.5696449348       25.6382721573
H    1.0       20.2019401831       17.6084269208       25.4838233777
H    1.0       21.4394477023       18.6653760693       25.2048428854
H    1.0       20.6391011929       18.6939400812       26.6472884433
 $end
$$$$
! Edit this basic GAMESS input file as needed.
! Conformer was generated by a VeraChem VCPack run 
! and contains     26 atoms.
!
 $contrl scftyp=rhf runtyp=optimize nzvar=0
  maxit=200 icharg=0 $end
 $system mwords=50 $end
 $basis gbasis=pm3 $end
 $statpt nstep=200 $end
 $guess guess=huckel $end
 $data
VM2 Rank=8      G=24.519            E=-8.104            -TS=32.623              
C1
C    6.0       19.8814534944       18.9330382582       18.9777398069
H    1.0       19.2376979632       18.0472297373       18.8992084334
H    1.0       19.4704624097       19.7079511983       18.3177090962
H    1.0       20.8781573376       18.6657551017       18.6030822794
C    6.0       19.9526655218       19.4392536628       20.4341098953
H    1.0       18.9457137468       19.7349321385       20.7566387148
H    1.0       20.5790355799       20.3412820249       20.4755336041
C    6.0       20.5251861366       18.3610500037       21.3846084075
H    1.0       19.8674769717       17.4808728496       21.3858719605
H    1.0       21.4937345923       18.0205076898       20.9929867519
C    6.0       20.7323500861       18.8571900082       22.8370332731
H    1.0       21.3919956624       19.7360257934       22.8341690490
H    1.0       21.2652709284       18.0726681507       23.3900432186
C    6.0       19.4090116907       19.1992830831       23.5692351755
H    1.0       18.8911595688       20.0002000636       23.0273742447
H    1.0       18.7411377289       18.3277563239       23.5567172432
C    6.0       19.6293343230       19.6629545035       25.0258912643
H    1.0       20.3251315965       20.5076243042       25.0152562001
C    6.0       18.3034030565       20.1383751649       25.6414617720
H    1.0       17.8751543781       20.9623573012       25.0571801573
H    1.0       18.4586387467       20.5023360703       26.6646016243
H    1.0       17.5674499993       19.3252858558       25.6757905320
N    7.0       20.2545956909       18.5968553157       25.8839204056
H    1.0       19.6598224181       17.7659404397       25.9397231317
H    1.0       21.1621096006       18.3024062436       25.5137773458
H    1.0       20.4078982649       18.9286733945       26.8403689409
 $end
$$$$
! Edit this basic GAMESS input file as needed.
! Conformer was generated by a VeraChem VCPack run 
! and contains     26 atoms.
!
 $contrl scftyp=rhf runtyp=optimize nzvar=0
  maxit=200 icharg=0 $end
 $system mwords=50 $end
 $basis gbasis=pm3 $end
 $statpt nstep=200 $end
 $guess guess=huckel $end
 $data
VM2 Rank=9      G=24.618            E=-8.224            -TS=32.842              
C1
C    6.0       20.9637408301       19.5126980686       19.3554117438
H    1.0       21.7725384331       18.7714115642       19.3951097039
H    1.0       20.6617066782       19.6259288629       18.3061281905
H    1.0       21.3655761199       20.4758458852       19.6961501534
C    6.0       19.7653191673       19.0731615771       20.2229999274
H    1.0       19.3639951769       18.1257448546       19.8366598159
H    1.0       18.9607446614       19.8169153893       20.1368845126
C    6.0       20.1638137684       18.9054375623       21.7059117791
H    1.0       20.9668108578       18.1597551793       21.7867311949
H    1.0       20.5715724329       19.8550439627       22.0772613057
C    6.0       18.9620815956       18.4684601823       22.5775048040
H    1.0       18.5323215271       17.5471249500       22.1606725744
H    1.0       18.1668783598       19.2236035240       22.5214151393
C    6.0       19.3435641920       18.2052800771       24.0572889113
H    1.0       18.4475267681       17.8854604876       24.6055665790
H    1.0       20.0391039466       17.3562982194       24.0897583114
C    6.0       19.9903867963       19.4036235930       24.7915780308
H    1.0       20.8838466308       19.7066134878       24.2377521928
C    6.0       19.0391870131       20.6104674973       24.8790161989
H    1.0       18.7983676762       21.0000684239       23.8830676144
H    1.0       19.5031357589       21.4282733819       25.4439915563
H    1.0       18.1007700418       20.3406039971       25.3791765189
N    7.0       20.4599066371       19.0088714424       26.1642886046
H    1.0       19.6792171523       18.7128064235       26.7562045503
H    1.0       21.1280617873       18.2337881929       26.1263540496
H    1.0       20.9245361544       19.7878562669       26.6394122130
 $end
$$$$
! Edit this basic GAMESS input file as needed.
! Conformer was generated by a VeraChem VCPack run 
! and contains     26 atoms.
!
 $contrl scftyp=rhf runtyp=optimize nzvar=0
  maxit=200 icharg=0 $end
 $system mwords=50 $end
 $basis gbasis=pm3 $end
 $statpt nstep=200 $end
 $guess guess=huckel $end
 $data
VM2 Rank=10     G=24.750            E=-7.930            -TS=32.681              
C1
C    6.0       20.8065356233       19.7427257307       19.5401594754
H    1.0       20.8233467268       20.6352716598       20.1777557743
H    1.0       21.7813776382       19.2442925800       19.6193582595
H    1.0       20.6858150492       20.0809005265       18.5028544801
C    6.0       19.6590149919       18.7850567124       19.9336375833
H    1.0       19.6068317397       17.9728145921       19.1951635703
H    1.0       18.6983984732       19.3156644719       19.8750953202
C    6.0       19.8301874426       18.1655762455       21.3417118663
H    1.0       19.0356228226       17.4221259196       21.4945004208
H    1.0       20.7805521599       17.6159706319       21.3867758246
C    6.0       19.7736488251       19.2075130881       22.4847536826
H    1.0       18.8479265185       19.7900542370       22.3910753486
H    1.0       20.6092910555       19.9131599207       22.3884677587
C    6.0       19.8383788870       18.5328302480       23.8771706520
H    1.0       18.9669905437       17.8785110737       24.0129880826
H    1.0       20.7232291525       17.8834182787       23.9094145749
C    6.0       19.9241845503       19.5344802272       25.0515702189
H    1.0       20.7749031069       20.1995587507       24.8736955293
C    6.0       18.6526059288       20.3930262957       25.1764950859
H    1.0       18.5131094277       21.0301179998       24.2955777098
H    1.0       18.7182060220       21.0558538958       26.0480899305
H    1.0       17.7600115163       19.7657809121       25.2927633649
N    7.0       20.2034437511       18.8267914525       26.3485014356
H    1.0       21.0701218758       18.2832597374       26.3029105686
H    1.0       20.3008273729       19.4895103779       27.1229552895
H    1.0       19.4480557094       18.1808996064       26.5928775335
 $end
$$$$
! Edit this basic GAMESS input file as needed.
! Conformer was generated by a VeraChem VCPack run 
! and contains     26 atoms.
!
 $contrl scftyp=rhf runtyp=optimize nzvar=0
  maxit=200 icharg=0 $end
 $system mwords=50 $end
 $basis gbasis=pm3 $end
 $statpt nstep=200 $end
 $guess guess=huckel $end
 $data
VM2 Rank=11     G=24.854            E=-7.820            -TS=32.674              
C1
C    6.0       19.3586764946       19.5418960353       19.4492487972
H    1.0       19.5224323179       19.9142868571       18.4297145407
H    1.0       18.5544580353       18.7958221932       19.4088241089
H    1.0       19.0138333764       20.3874834089       20.0570795666
C    6.0       20.6589611566       18.9275533241       20.0156264721
H    1.0       21.4375012193       19.7008645961       20.0758334872
H    1.0       21.0302600556       18.1722330415       19.3089169809
C    6.0       20.4736344572       18.2621137440       21.4008140957
H    1.0       19.7086469013       17.4764830398       21.3308958664
H    1.0       21.4111133888       17.7572385547       21.6720142355
C    6.0       20.0943085928       19.2619221540       22.5198040769
H    1.0       19.1273708017       19.7224011119       22.2833006715
H    1.0       20.8365778389       20.0712661079       22.5551455001
C    6.0       20.0175951241       18.5705245280       23.9034950906
H    1.0       19.2329833241       17.8023244177       23.8903417084
H    1.0       20.9644488739       18.0449860997       24.0849637636
C    6.0       19.7696432623       19.5474155340       25.0758022817
H    1.0       20.5380847701       20.3259026195       25.0419655897
C    6.0       18.3886770362       20.2219783990       24.9881610012
H    1.0       18.3098643168       20.8561219072       24.0976753921
H    1.0       18.2173094041       20.8656714761       25.8597218473
H    1.0       17.5843709168       19.4766531454       24.9526096921
N    7.0       19.9265038763       18.8545962816       26.4010481845
H    1.0       19.2376581579       18.1064688343       26.5163833054
H    1.0       20.8554697301       18.4352573835       26.5001216378
H    1.0       19.8026684072       19.5063872051       27.1809783870
 $end
$$$$
! Edit this basic GAMESS input file as needed.
! Conformer was generated by a VeraChem VCPack run 
! and contains     26 atoms.
!
 $contrl scftyp=rhf runtyp=optimize nzvar=0
  maxit=200 icharg=0 $end
 $system mwords=50 $end
 $basis gbasis=pm3 $end
 $statpt nstep=200 $end
 $guess guess=huckel $end
 $data
VM2 Rank=12     G=24.877            E=-7.930            -TS=32.807              
C1
C    6.0       20.5935035810       17.7670481366       19.9358259513
H    1.0       20.3891045482       17.2484906798       18.9901773385
H    1.0       21.6695466244       17.9805057732       19.9757254871
H    1.0       20.3492960083       17.0743186582       20.7505978519
C    6.0       19.7648253767       19.0683928880       20.0287588385
H    1.0       18.6930624015       18.8255412896       20.0191198539
H    1.0       19.9512087181       19.6715737628       19.1291878783
C    6.0       20.0971523784       19.9222955207       21.2762547640
H    1.0       21.1647480027       20.1820203425       21.2685693683
H    1.0       19.5477387404       20.8712060103       21.2051636273
C    6.0       19.7376312340       19.2287298587       22.6122208660
H    1.0       20.3348347760       18.3153589175       22.7236085242
H    1.0       18.6836269593       18.9230243468       22.5835452202
C    6.0       19.9862284724       20.1639395441       23.8244167218
H    1.0       21.0297528062       20.5049145114       23.8082921704
H    1.0       19.3717410919       21.0676949265       23.7177716652
C    6.0       19.7004821198       19.5301417211       25.2065692580
H    1.0       19.9399354151       20.2825412951       25.9644573246
C    6.0       18.2177549499       19.1553509093       25.3760849793
H    1.0       18.0180444842       18.8379198023       26.4068740596
H    1.0       17.9282879615       18.3332029117       24.7108965407
H    1.0       17.5711948934       20.0154007686       25.1620140214
N    7.0       20.5904218878       18.3521014215       25.4938686211
H    1.0       20.4207842505       17.5885040763       24.8348162841
H    1.0       21.5805652282       18.6041664679       25.4263616023
H    1.0       20.4321939141       17.9849549578       26.4365239900
 $end
$$$$
! Edit this basic GAMESS input file as needed.
! Conformer was generated by a VeraChem VCPack run 
! and contains     26 atoms.
!
 $contrl scftyp=rhf runtyp=optimize nzvar=0
  maxit=200 icharg=0 $end
 $system mwords=50 $end
 $basis gbasis=pm3 $end
 $statpt nstep=200 $end
 $guess guess=huckel $end
 $data
VM2 Rank=13     G=24.877            E=-7.823            -TS=32.700              
C1
C    6.0       20.2616093703       18.3070955515       19.1273652037
H    1.0       19.8381335230       17.3927546507       18.6918388261
H    1.0       19.9745415916       19.1500548907       18.4853093819
H    1.0       21.3554342052       18.2163539558       19.1039216533
C    6.0       19.7529158989       18.5096083518       20.5704271529
H    1.0       20.0231235233       17.6302751104       21.1701074620
H    1.0       18.6554680628       18.5670162479       20.5649433436
C    6.0       20.3400734890       19.7913155375       21.2072766574
H    1.0       21.4348022612       19.7117592283       21.2575107532
H    1.0       20.1234992043       20.6470521514       20.5529109067
C    6.0       19.7754903369       20.0954276508       22.6167410019
H    1.0       18.6849065215       20.2038799002       22.5495967243
H    1.0       20.1654011937       21.0685975341       22.9459098583
C    6.0       20.1430485231       19.0208813565       23.6724763812
H    1.0       19.6466452859       18.0718993054       23.4332627115
H    1.0       21.2233167194       18.8321172687       23.6184983807
C    6.0       19.7890629034       19.4300445060       25.1204271870
H    1.0       20.2630673786       20.3939148598       25.3300734212
C    6.0       18.2707051466       19.5794364864       25.3248025858
H    1.0       17.8632018935       20.3888336448       24.7081048876
H    1.0       18.0436902481       19.8226065081       26.3700990148
H    1.0       17.7426310050       18.6524567268       25.0688253988
N    7.0       20.3550943318       18.4541905594       26.1144838301
H    1.0       21.3718846465       18.3716390429       26.0252951515
H    1.0       20.1570391618       18.7431266106       27.0766454501
H    1.0       19.9584726181       17.5190899800       25.9890445937
 $end
$$$$
! Edit this basic GAMESS input file as needed.
! Conformer was generated by a VeraChem VCPack run 
! and contains     26 atoms.
!
 $contrl scftyp=rhf runtyp=optimize nzvar=0
  maxit=200 icharg=0 $end
 $system mwords=50 $end
 $basis gbasis=pm3 $end
 $statpt nstep=200 $end
 $guess guess=huckel $end
 $data
VM2 Rank=14     G=24.881            E=-7.927            -TS=32.808              
C1
C    6.0       19.3884855781       18.1238066305       19.7280306937
H    1.0       18.9717642547       17.4802256761       20.5125992933
H    1.0       18.6336689789       18.8749087910       19.4613481505
H    1.0       19.5633567766       17.4956058798       18.8450155337
C    6.0       20.7042476095       18.7951922449       20.1829126057
H    1.0       21.1451725030       19.3252470877       19.3270969667
H    1.0       21.4311364236       18.0241693146       20.4742751786
C    6.0       20.5133449772       19.8005900112       21.3442190359
H    1.0       21.4708986336       20.3078434546       21.5261700790
H    1.0       19.8029053688       20.5815461771       21.0398206172
C    6.0       20.0323078369       19.1406628170       22.6588610707
H    1.0       20.7188138150       18.3263065785       22.9250080764
H    1.0       19.0448834252       18.6903422923       22.4997467987
C    6.0       19.9548138737       20.1689542247       23.8175210886
H    1.0       20.9352982433       20.6470064281       23.9420957958