$$$$
! Edit this basic GAMESS input file as needed.
! Conformer was generated by a VeraChem VCPack run 
! and contains    151 atoms.
!
 $contrl scftyp=rhf runtyp=optimize nzvar=0
  maxit=200 icharg=0 $end
 $system mwords=50 $end
 $basis gbasis=pm3 $end
 $statpt nstep=200 $end
 $guess guess=huckel $end
 $data
FE Rank=1      G=595.688           E=392.016           -TS=203.672              
C1
C    6.0       16.1638554052       15.0961441655       21.4482191166
H    1.0       15.0874633049       14.8906846352       21.3883015206
O    8.0       16.4245006834       16.5077536185       21.5655176111
C    6.0       16.7524782263       14.4066887291       22.6984325817
H    1.0       16.5700235557       13.3289955888       22.5951969375
O    8.0       16.0981618555       14.8873097345       23.8834195175
H    1.0       15.8687423852       15.8325970933       23.7108080475
C    6.0       18.2815295423       14.6246900266       22.7997474359
H    1.0       18.4635885170       15.6875436502       23.0139577670
O    8.0       18.7623429675       13.8095866550       23.8749505482
H    1.0       18.0829287675       13.9034362072       24.5818401244
C    6.0       19.0054696076       14.2685792280       21.4700155350
H    1.0       19.0614040809       13.1770945341       21.3738754028
C    6.0       18.2715649837       14.8512330601       20.2301761083
H    1.0       18.4257422775       15.9367262401       20.2371612307
O    8.0       16.8479916924       14.5795326578       20.2889400730
C    6.0       18.8151154664       14.3111447666       18.8832994504
H    1.0       19.8287604721       14.7026418572       18.7281749200
H    1.0       18.1888466345       14.7030948801       18.0712202704
O    8.0       18.8405635609       12.8795292438       18.8332974139
H    1.0       19.5803060633       12.5761412001       19.4013753384
C    6.0       14.8290619541       20.2259981527       20.5065811938
H    1.0       14.1825604636       21.0198081227       20.1132505719
O    8.0       16.1131296460       20.7437108534       20.9134574696
C    6.0       14.1561501627       19.5142093836       21.7102873785
H    1.0       13.2152706100       19.0833048697       21.3438678728
O    8.0       13.8579070820       20.4341782461       22.7709977189
H    1.0       14.7006502906       20.8984460018       23.0078448276
C    6.0       15.0387158128       18.3485799245       22.2205372802
H    1.0       15.9701622855       18.7696626296       22.6242354797
O    8.0       14.3410745002       17.6322793324       23.2458293080
H    1.0       13.9652056440       18.3254697515       23.8327701325
C    6.0       15.4002069054       17.3871375868       21.0614025350
H    1.0       14.4926332176       16.8409623973       20.7731009951
C    6.0       15.9571370218       18.1547759988       19.8302362951
H    1.0       16.9307116357       18.5713078365       20.1110524681
O    8.0       15.0521867255       19.2327436738       19.4846311228
C    6.0       16.1694753947       17.2937945095       18.5595307182
H    1.0       17.1615270910       16.8358478864       18.6113544842
H    1.0       16.1721750270       17.9573692401       17.6846338071
O    8.0       15.1828850837       16.2690097028       18.3969368519
H    1.0       15.4862545167       15.5006273390       18.9330782384
C    6.0       18.3847658597       24.1482115774       21.3777050526
H    1.0       18.8061275035       25.1577832489       21.4659740651
O    8.0       19.4267771683       23.1601748357       21.1933333844
C    6.0       17.5108905601       23.7971137240       22.6105438388
H    1.0       16.6520825132       24.4810070614       22.5974182146
O    8.0       18.2111747871       23.9762162606       23.8494104672
H    1.0       18.9241976307       23.2902264962       23.8700635570
C    6.0       16.9659116260       22.3547993176       22.4792121635
H    1.0       17.8149356022       21.6579563893       22.4932010559
O    8.0       16.0953651329       22.0799573397       23.5808746821
H    1.0       16.5708945516       22.4171855464       24.3728312359
C    6.0       16.2034623197       22.1665077481       21.1417817811
H    1.0       15.2132952752       22.6279221512       21.2475859470
C    6.0       16.9510830558       22.7837849940       19.9206763224
H    1.0       17.7789680642       22.1186999945       19.6615670440
O    8.0       17.4983125878       24.0882847577       20.2400248861
C    6.0       16.0749989619       22.9170870438       18.6516848070
H    1.0       15.8067859132       21.9119603303       18.2987479923
H    1.0       16.6813273789       23.3825780192       17.8633290787
O    8.0       14.8914774153       23.6948988843       18.8772376377
H    1.0       14.2847842064       23.1798851220       19.4470731802
C    6.0       23.4781481315       22.4429725780       22.0493335224
H    1.0       24.5031624280       22.5384709686       22.4279675932
O    8.0       23.3723490703       21.3860667390       21.0685540003
C    6.0       22.4809066150       22.1837835798       23.2140488254
H    1.0       22.5457818091       23.0503890462       23.8850971450
O    8.0       22.7881953987       20.9993829997       23.9651974599
H    1.0       23.7578355793       20.8418351694       23.8761173997
C    6.0       21.0328385927       22.1021853513       22.6826399993
H    1.0       20.9644731057       21.2409109544       22.0054044057
O    8.0       20.1576520050       21.9136522991       23.7967841800
H    1.0       20.6128171428       21.2327131894       24.3440498433
C    6.0       20.6738171938       23.3856176577       21.8902363820
H    1.0       20.5991029261       24.2244738070       22.5948476229
C    6.0       21.7583652239       23.7036046682       20.8216843421
H    1.0       21.7129043780       22.9324476496       20.0436383415
O    8.0       23.0797278067       23.6817156707       21.4207693715
C    6.0       21.5548664987       25.0736100620       20.1317083886
H    1.0       20.6707989788       25.0078147002       19.4829483629
H    1.0       22.4203496150       25.2728761796       19.4857134648
O    8.0       21.3835551996       26.1358273782       21.0789231407
H    1.0       21.3344981276       26.9779777784       20.5760801942
C    6.0       25.1180057415       17.6823807738       20.4275952342
H    1.0       25.7492833553       16.8288897720       20.1522137649
O    8.0       23.7544522701       17.2599756277       20.6767535132
C    6.0       25.7147704587       18.4398192873       21.6429894619
H    1.0       26.6854343261       18.8376862281       21.3185604212
O    8.0       25.9332520582       17.5856402571       22.7751303023
H    1.0       25.0371321263       17.3763040078       23.1415740974
C    6.0       24.8228426361       19.6420781704       22.0302193336
H    1.0       23.8569168415       19.2511196479       22.3726675770
O    8.0       25.4765538698       20.3547423993       23.0879377701
H    1.0       25.9023016755       19.6583638564       23.6389466349
C    6.0       24.5471925729       20.5749387735       20.8162880206
H    1.0       25.4289592593       21.2046486938       20.6448402402
C    6.0       24.2203185929       19.7783966785       19.5199465449
H    1.0       23.1938645009       19.4099891273       19.6160529704
O    8.0       25.1011140418       18.6390565232       19.3487955394
C    6.0       24.2836371560       20.6430947274       18.2362245169
H    1.0       23.4750443805       21.3850667841       18.2687813121
H    1.0       24.0947441149       19.9943116439       17.3706423391
O    8.0       25.5432576594       21.3090729823       18.0822902595
H    1.0       25.5687805385       22.0526271731       18.7213215988
C    6.0       21.3662775779       14.1845776057       22.1914995791
H    1.0       20.9895687515       13.2699671909       22.6666404974
O    8.0       20.3259019355       14.8616053159       21.4563457947
C    6.0       21.9741291935       15.1387074853       23.2550063044
H    1.0       22.7998179092       14.5932107458       23.7303971943
O    8.0       21.0299300268       15.5157511199       24.2689565527
H    1.0       20.2912234739       14.8625005854       24.2336394514
C    6.0       22.5624255956       16.4068033456       22.5989015808
H    1.0       21.7333984145       16.9924343300       22.1772733278
O    8.0       23.2290178460       17.1560705090       23.6189330186
H    1.0       22.5704910648       17.2126398647       24.3481754222
C    6.0       23.5481606569       16.0546598182       21.4545454920
H    1.0       24.4800235356       15.6890136387       21.9017185822
C    6.0       22.9808870531       14.9611451810       20.5043555448
H    1.0       22.1854075724       15.4104216270       19.9022485305
O    8.0       22.4262670913       13.8571025176       21.2661453325
C    6.0       24.0312147192       14.3945697445       19.5182286048
H    1.0       24.3388495757       15.1953533209       18.8321726331
H    1.0       23.5499443827       13.6172304719       18.9100262724
O    8.0       25.1782457561       13.8497464405       20.1851038003
H    1.0       25.6505107433       14.5786479268       20.6371414605
C    6.0       19.2995350153       19.4366736783       16.5039724639
H    1.0       18.4988691570       18.9953971949       17.1073421958
H    1.0       18.8543704306       19.5697714554       15.5088063051
C    6.0       20.4742802544       18.4384716862       16.3519152982
H    1.0       20.0787925072       17.5321806418       15.8736888103
H    1.0       21.2104581368       18.8499056366       15.6484023412
C    6.0       21.2041532546       18.0123099091       17.6496670071
H    1.0       21.9373935137       18.7694474377       17.9345453039
H    1.0       21.8022719477       17.1216301227       17.4144100644
C    6.0       20.2742893153       17.6743192934       18.8429730852
H    1.0       19.2820021113       17.3872063474       18.4859644461
H    1.0       20.6746928896       16.7841042054       19.3347097400
C    6.0       20.1586837449       18.7591299756       19.9383577178
H    1.0       21.1689948176       19.0121000774       20.2864653543
C    6.0       19.4366604279       20.0623706885       19.5280155983
H    1.0       18.4208125517       19.8489666239       19.1813475216
H    1.0       19.3121457715       20.6548630012       20.4412728569
C    6.0       20.1858614925       20.9408567797       18.4939990720
H    1.0       21.2609225164       20.7440708795       18.5362992932
H    1.0       20.0801814828       21.9900379849       18.7967503324
C    6.0       19.6641327338       20.8446983992       17.0375461653
H    1.0       20.3975427555       21.3089900447       16.3647905315
H    1.0       18.7607179649       21.4652120534       16.9653433583
O    8.0       19.4341133901       18.1930247845       21.0220423135
H    1.0       19.4340742234       18.8491178492       21.7449495805
 $end
