$$$$
! Edit this basic GAMESS input file as needed.
! Conformer was generated by a VeraChem VCPack run 
! and contains    139 atoms.
!
 $contrl scftyp=rhf runtyp=optimize nzvar=0
  maxit=200 icharg=0 $end
 $system mwords=50 $end
 $basis gbasis=pm3 $end
 $statpt nstep=200 $end
 $guess guess=huckel $end
 $data
FE Rank=1      G=482.611           E=304.919           -TS=177.691              
C1
C    6.0       16.2697984382       15.5497101003       21.7875397081
H    1.0       15.2266242675       15.4589438749       22.1117908411
O    8.0       16.4755672261       16.7139590755       20.9590115270
C    6.0       17.2113037731       15.6256519212       23.0199137681
H    1.0       17.0692311494       14.6999540437       23.5918494128
O    8.0       16.8877267690       16.7456548233       23.8621496421
H    1.0       17.6520919092       17.3800862002       23.8295691422
C    6.0       18.6897530455       15.6847466299       22.5731087666
H    1.0       18.8366171655       16.6345625571       22.0475610077
O    8.0       19.5487366586       15.6263270763       23.7185260508
H    1.0       19.5283684639       16.5473377210       24.0909782139
C    6.0       19.0472148568       14.5580774676       21.5757179058
H    1.0       19.1364582791       13.6089323640       22.1186966810
C    6.0       17.9882931295       14.4206122665       20.4469244380
H    1.0       18.0801109650       15.2929471086       19.7862619386
O    8.0       16.6527318446       14.3903387630       21.0140482977
C    6.0       18.1803282845       13.1598862232       19.5703499317
H    1.0       19.0746299122       13.3023665821       18.9488162387
H    1.0       17.3218715895       13.0721480870       18.8910306976
O    8.0       18.3194768358       11.9683977913       20.3547174917
H    1.0       18.3569206351       11.2067144590       19.7357984031
C    6.0       14.7618252846       20.3508356677       20.2773565595
H    1.0       14.2125091053       21.2535681637       19.9809586832
O    8.0       16.0732719648       20.6721181344       20.7860484679
C    6.0       13.9720447670       19.5293752535       21.3257377399
H    1.0       13.0511305424       19.1907083318       20.8332165560
O    8.0       13.6157193020       20.3178099272       22.4714105521
H    1.0       14.4617968104       20.5482321654       22.9320075739
C    6.0       14.7661243133       18.2709811135       21.7550189192
H    1.0       15.6266411018       18.5989946657       22.3546305220
O    8.0       13.8957301820       17.4546530248       22.5466974685
H    1.0       13.5574284510       18.0452076986       23.2543247408
C    6.0       15.3097135018       17.4573084894       20.5409053775
H    1.0       14.5210087727       16.7831069468       20.1855125689
C    6.0       15.8042916890       18.3421581427       19.3574685370
H    1.0       16.8035553446       18.7157745221       19.6099972067
O    8.0       14.9307082948       19.4781908153       19.1420582989
C    6.0       15.9568783567       17.5674691551       18.0258659129
H    1.0       16.7892269175       16.8580164894       18.1282401470
H    1.0       16.2363326803       18.2820600865       17.2404197612
O    8.0       14.7632709568       16.8684543349       17.6498604196
H    1.0       14.6736909316       16.0913574928       18.2416410356
C    6.0       18.5002928130       23.5652106617       22.4167422092
H    1.0       18.9496017875       24.4465085838       22.8910587891
O    8.0       19.5064412648       22.6964058818       21.8651162618
C    6.0       17.6619597724       22.7799943274       23.4563384156
H    1.0       16.8604066478       23.4496392884       23.7934825354
O    8.0       18.4569668474       22.4019114886       24.5905157043
H    1.0       19.1358390044       21.7438854236       24.2694060715
C    6.0       17.0030824083       21.5373970754       22.8162630159
H    1.0       17.7980601053       20.8291218878       22.5524985355
O    8.0       16.1188105109       20.9331689523       23.7660857816
H    1.0       16.6821679252       20.7445629526       24.5500625747
C    6.0       16.2284657032       21.9011983342       21.5229967866
H    1.0       15.2635296908       22.3469165386       21.7977354383
C    6.0       17.0161009567       22.8669885461       20.5935117527
H    1.0       17.8107390788       22.2793118799       20.1229449096
O    8.0       17.6173434729       23.9559388826       21.3420693983
C    6.0       16.1580856079       23.4657284217       19.4534076807
H    1.0       15.9215886662       22.6656665972       18.7389158532
H    1.0       16.7572660270       24.2137289532       18.9170637436
O    8.0       14.9467961886       24.0548123949       19.9419557627
H    1.0       14.4942573935       24.4808980862       19.1815033860
C    6.0       23.5287918184       22.6515359134       20.8745548552
H    1.0       24.5407925448       22.8387910072       20.4929116011
O    8.0       23.3769555146       21.3032664437       21.3535673560
C    6.0       23.1802406653       23.6116719733       22.0383769516
H    1.0       23.2266218728       24.6329841606       21.6385999184
O    8.0       24.1246781163       23.4880685579       23.1139697387
H    1.0       24.1729559445       22.5276482630       23.3538515852
C    6.0       21.7365207362       23.3686196103       22.5509112257
H    1.0       21.7074232951       22.3944388452       23.0602689686
O    8.0       21.4079362780       24.4150090029       23.4712848303
H    1.0       22.1501796891       24.4348114259       24.1140756464
C    6.0       20.7066995368       23.3335060419       21.3860913029
H    1.0       20.5138141329       24.3630483853       21.0588788864
C    6.0       21.1972853044       22.4926989111       20.1725701772
H    1.0       21.1796757784       21.4350716220       20.4612265354
O    8.0       22.5532784138       22.8692853516       19.8337241910
C    6.0       20.3193786650       22.6168096328       18.9005625718
H    1.0       19.5308961981       21.8557241530       18.9491114471
H    1.0       20.9347856510       22.3707806120       18.0250156022
O    8.0       19.7344416016       23.9163388627       18.7410486300
H    1.0       19.1470733523       24.0710399440       19.5142515473
C    6.0       25.1941855706       17.6641252630       21.7877482849
H    1.0       25.8572176938       16.7957286628       21.8914586028
O    8.0       23.8123099533       17.2764200845       21.6775685873
C    6.0       25.3313915987       18.5819009346       23.0243988787
H    1.0       26.3663986949       18.9465380778       23.0550056602
O    8.0       25.0491095747       17.8497511059       24.2279437126
H    1.0       24.4047370678       17.1375505498       23.9890083069
C    6.0       24.3953617564       19.8057609632       22.8994759894
H    1.0       23.3584013680       19.4501861474       22.9725717371
O    8.0       24.6655733755       20.7181057059       23.9688349684
H    1.0       24.6688008786       20.1626041806       24.7800213400
C    6.0       24.5708881851       20.5250729778       21.5373013616
H    1.0       25.4711027705       21.1519943760       21.5853406000
C    6.0       24.6535696069       19.5489168848       20.3273425613
H    1.0       23.6418060108       19.1646537906       20.1416200212
O    8.0       25.5361502822       18.4338443750       20.6177055660
C    6.0       25.1293222346       20.2235601852       19.0187240228
H    1.0       24.3321888103       20.8886905111       18.6598322798
H    1.0       25.2733192220       19.4465614715       18.2560019216
O    8.0       26.3384578900       20.9699197863       19.2044739975
H    1.0       26.6186629279       21.3068547807       18.3255903087
C    6.0       21.3593349845       14.0003695802       20.8698045317
H    1.0       20.9753379972       13.0104896819       20.5923695846
O    8.0       20.2880451835       14.9634493252       20.9603778187
C    6.0       22.1706141530       13.9334564337       22.1991625522
H    1.0       23.0049162024       13.2421832403       22.0226777423
O    8.0       21.3938448186       13.4368628562       23.2989891445
H    1.0       20.7128784236       14.1291441420       23.4956422891
C    6.0       22.7745033478       15.3133365071       22.5545413149
H    1.0       21.9519023246       16.0015016789       22.7881131953
O    8.0       23.6380241640       15.1852318563       23.6896910220
H    1.0       23.1410243690       14.6288870720       24.3299050100
C    6.0       23.5631165347       15.8974362102       21.3606044152
H    1.0       24.4902571405       15.3224752190       21.2372233848
C    6.0       22.7442804965       15.8432653228       20.0434820715
H    1.0       21.8913075332       16.5246228137       20.1472226855
O    8.0       22.2625296422       14.4873543261       19.8489109425
C    6.0       23.5163860998       16.2945737759       18.7766063618
H    1.0       23.3808470544       17.3771725388       18.6571784305
H    1.0       23.0571122000       15.8188274050       17.8999008045
O    8.0       24.9159388763       15.9930040750       18.8252115142
H    1.0       25.3381584426       16.6925487240       19.3755580342
C    6.0       19.9121117210       19.2363670224       23.3510518838
O    8.0       20.1626996764       20.3274612802       23.8237301101
O    8.0       19.2083754311       18.4055980713       23.8978057398
C    6.0       20.4477908432       18.9162599943       21.9571218113
H    1.0       20.7672403459       17.8692615732       21.9492698084
H    1.0       21.3429665218       19.5222276675       21.7854840965
C    6.0       19.4089668459       19.1729775390       20.8381323523
H    1.0       18.4756614679       18.6524105820       21.0852550796
H    1.0       19.1667522974       20.2412800880       20.8053667185
C    6.0       19.9116228393       18.7135290905       19.4553371910
H    1.0       20.0345525542       17.6236734398       19.4307429434
H    1.0       19.1922029706       18.9878118930       18.6735171952
H    1.0       20.8754575188       19.1785633259       19.2116803293
 $end
$$$$
! Edit this basic GAMESS input file as needed.
! Conformer was generated by a VeraChem VCPack run 
! and contains    139 atoms.
!
 $contrl scftyp=rhf runtyp=optimize nzvar=0
  maxit=200 icharg=0 $end
 $system mwords=50 $end
 $basis gbasis=pm3 $end
 $statpt nstep=200 $end
 $guess guess=huckel $end
 $data
FE Rank=2      G=482.621           E=304.613           -TS=178.008              
C1
C    6.0       16.2037048243       15.1474913886       21.0828164903
H    1.0       15.1174459430       15.0331912579       20.9759483158
O    8.0       16.5875236964       16.5397670158       21.0697808361
C    6.0       16.7157953515       14.4511434164       22.3744234998
H    1.0       16.5116221286       13.3785302506       22.2601918936
O    8.0       16.0437395077       14.9200694185       23.5523669924
H    1.0       16.3009875633       15.8698582506       23.6665640042
C    6.0       18.2470391080       14.6270108517       22.5091473123
H    1.0       18.4602712346       15.6938874702       22.6564334521
O    8.0       18.7241236283       13.8762515736       23.6319338200
H    1.0       18.1000779735       14.0820405662       24.3628995957
C    6.0       18.9757535668       14.1567799331       21.2275444441
H    1.0       18.9835658349       13.0587763741       21.2266621639
C    6.0       18.3141495633       14.6848647006       19.9215810005
H    1.0       18.5412847408       15.7550729314       19.8333553301
O    8.0       16.8751638154       14.5064098725       19.9779229780
C    6.0       18.8359305248       13.9974999765       18.6366829161
H    1.0       19.8574099604       14.3496237620       18.4416987892
H    1.0       18.2151781689       14.3215495612       17.7906823980
O    8.0       18.8253307980       12.5679384138       18.7434352978
H    1.0       19.1094289520       12.2032245601       17.8769770554
C    6.0       15.1981277972       20.3898970466       21.8058878895
H    1.0       14.6154608102       21.2644123662       22.1160859496
O    8.0       16.3026345809       20.7522176295       20.9491172761
C    6.0       15.7493446114       19.6427689082       23.0495554885
H    1.0       14.8831248787       19.3194957703       23.6407231869
O    8.0       16.5592790952       20.5121399779       23.8590267697
H    1.0       17.4734874212       20.1259680917       23.9055018204
C    6.0       16.5277105623       18.3739987817       22.6224701207
H    1.0       17.4142362577       18.6913366821       22.0613090069
O    8.0       16.9255011573       17.6330771837       23.7824561106
H    1.0       17.7038250770       18.1302497435       24.1503292447
C    6.0       15.6803293383       17.4791082025       21.6850812894
H    1.0       14.9057391404       16.9772141017       22.2795701096
C    6.0       15.0176419734       18.2954009047       20.5404564083
H    1.0       15.8078478617       18.6134616264       19.8474618231
O    8.0       14.3560496435       19.4685922520       21.0783931751
C    6.0       13.9858391145       17.4834312220       19.7211231918
H    1.0       14.5273607156       16.7434372061       19.1163695533
H    1.0       13.4777549450       18.1643726148       19.0252290478
O    8.0       13.0293351710       16.8200803363       20.5576585255
H    1.0       12.3645685312       16.3963634100       19.9718498631
C    6.0       18.6092011651       24.0340222052       20.1739089238
H    1.0       19.1169973250       24.9488519243       19.8425817480
O    8.0       19.5369173123       23.0977514680       20.7622336710
C    6.0       17.4685157192       24.3528249930       21.1712307712
H    1.0       16.7239258378       24.9424037249       20.6204245610
O    8.0       17.9283983817       25.1277728066       22.2887118192
H    1.0       18.5419384797       24.5458781780       22.8043927647
C    6.0       16.7757313323       23.0539340569       21.6528203446
H    1.0       17.4796405367       22.5090329177       22.2971534169
O    8.0       15.6150775781       23.4344825899       22.4002977402
H    1.0       15.9371456662       24.0752534568       23.0711015978
C    6.0       16.3766168258       22.1146097407       20.4728167720
H    1.0       15.4098674889       22.4422882536       20.0717085107
C    6.0       17.4276136446       22.0717753807       19.3231606849
H    1.0       18.2450873133       21.4139752917       19.6406294300
O    8.0       17.9762636170       23.3854524780       19.0523914754
C    6.0       16.8793016157       21.4761993399       18.0035974751
H    1.0       16.6858365431       20.4059368527       18.1575224591
H    1.0       17.6613437783       21.5560507191       17.2369885654
O    8.0       15.6845394575       22.1284191987       17.5544108027
H    1.0       14.9519927756       21.8470927733       18.1429023251
C    6.0       23.2036233650       22.5898067625       22.5697176165
H    1.0       24.1719786409       22.6845215155       23.0771407192
O    8.0       22.9930231121       21.2505292938       22.0883490145
C    6.0       22.0608414694       22.9704392400       23.5438643958
H    1.0       22.2144213034       24.0206381896       23.8233026692
O    8.0       22.0964026739       22.1654034432       24.7319057813
H    1.0       21.9034737285       21.2255279994       24.4558067110
C    6.0       20.6815869643       22.8602893971       22.8563308292
H    1.0       20.4878513015       21.8004483246       22.6510045451
O    8.0       19.6780851596       23.3680485527       23.7416066129
H    1.0       19.7867811075       22.8481539062       24.5695151790
C    6.0       20.6484684403       23.6308686422       21.5105938170
H    1.0       20.5349523908       24.7032641415       21.7163723326
C    6.0       21.9148208399       23.3880188650       20.6413859133
H    1.0       21.8327369120       22.3761477451       20.2304674527
O    8.0       23.1292576064       23.4781916300       21.4329058643
C    6.0       22.0352976470       24.3567043117       19.4407484502
H    1.0       21.2523549895       24.1066062213       18.7120577047
H    1.0       23.0028535113       24.1891945387       18.9487696883
O    8.0       21.9089972445       25.7274363400       19.8384501398
H    1.0       22.0733886119       26.2843162463       19.0463327074
C    6.0       25.0655394718       17.7075614372       21.4487940013
H    1.0       25.8098275990       16.9433462369       21.1915122149
O    8.0       23.8050782129       17.1128168349       21.8141373139
C    6.0       25.5580644232       18.5235974980       22.6668968108
H    1.0       26.5209287173       18.9741914067       22.3931565780
O    8.0       25.7427514649       17.6540416043       23.7955346885
H    1.0       24.9921197289       17.0124345738       23.7759737598
C    6.0       24.5783245993       19.6700020425       23.0221044007
H    1.0       23.6661779494       19.2255107638       23.4430821447
O    8.0       25.2085815060       20.5145174784       23.9913333026
H    1.0       25.4755261994       19.9149344738       24.7214350897
C    6.0       24.1783728263       20.4967812295       21.7702879175
H    1.0       25.0155323927       21.1531567741       21.5000210701
C    6.0       23.8178717147       19.6005400544       20.5536778619
H    1.0       22.8771316786       19.0841639668       20.7794853982
O    8.0       24.8616333965       18.6174368750       20.3470018050
C    6.0       23.5938593442       20.3770979335       19.2294250838
H    1.0       22.5323921293       20.6471498056       19.1638860219
H    1.0       23.7981159830       19.7042977110       18.3862412731
O    8.0       24.4023907790       21.5560211731       19.1201151547
H    1.0       24.1382879675       22.1622507093       19.8490102093
C    6.0       21.3762096995       13.8360228773       20.8891408310
H    1.0       21.0031918596       12.8636203766       20.5425289069
O    8.0       20.3048921363       14.7034084610       21.3050456905
C    6.0       22.3255579142       13.6579262934       22.1003714683
H    1.0       23.1495953352       13.0072404303       21.7801208032
O    8.0       21.6349062245       13.0427950953       23.2008391731
H    1.0       20.7531126693       13.4874610920       23.2796917211
C    6.0       22.9300424502       15.0166923828       22.5353667900
H    1.0       22.1213316793       15.6340227794       22.9513805412
O    8.0       23.9311254005       14.7911809350       23.5345506836
H    1.0       23.5170514930       14.1745456843       24.1780922997
C    6.0       23.5471662512       15.7785092049       21.3346412755
H    1.0       24.4709313373       15.2637541205       21.0397628597
C    6.0       22.5649904076       15.8351132323       20.1280050506
H    1.0       21.7058123142       16.4542800564       20.4132857551
O    8.0       22.1094966684       14.4932808042       19.8353461938
C    6.0       23.1375981381       16.4279643158       18.8160430829
H    1.0       22.9979356352       17.5148246871       18.8331148464
H    1.0       22.5417550396       16.0490571838       17.9749843507
O    8.0       24.5209183695       16.1217724949       18.6120406724
H    1.0       25.0308618190       16.8571492518       19.0199297927
C    6.0       20.1998358132       19.1895561029       23.5664955593
O    8.0       19.1060845481       19.3249418587       24.0830567617
O    8.0       21.2333602162       19.5969975458       24.0577162895
C    6.0       20.2623722915       18.5293781308       22.1914043533
H    1.0       19.5450801912       17.7019304306       22.1825609536
H    1.0       21.2568648153       18.0891584530       22.0703967857
C    6.0       19.9597037738       19.5146416886       21.0349312581
H    1.0       19.0382302461       20.0645689168       21.2647762009
H    1.0       20.7583704874       20.2625000913       20.9718122026
C    6.0       19.8086398318       18.8017167751       19.6768021262
H    1.0       18.9820667574       18.0805144173       19.7072326469
H    1.0       19.5956502793       19.5271539727       18.8818003955
H    1.0       20.7261331632       18.2676047150       19.4076052209
 $end
$$$$
! Edit this basic GAMESS input file as needed.
! Conformer was generated by a VeraChem VCPack run 
! and contains    139 atoms.
!
 $contrl scftyp=rhf runtyp=optimize nzvar=0
  maxit=200 icharg=0 $end
 $system mwords=50 $end
 $basis gbasis=pm3 $end
 $statpt nstep=200 $end
 $guess guess=huckel $end
 $data
FE Rank=3      G=483.002           E=305.670           -TS=177.332              
C1
C    6.0       16.1605802969       15.2704343708       20.2155344136
H    1.0       15.1366920951       15.1845773037       19.8297140116
O    8.0       16.4035832354       16.5706963622       20.7862958560
C    6.0       16.4623429259       14.1736654817       21.2668085996
H    1.0       16.3848444163       13.2097438480       20.7469481675
O    8.0       15.5150434625       14.1881871587       22.3459428005
H    1.0       15.6193257632       15.0553371930       22.8128469070
C    6.0       17.9097630490       14.2991777707       21.8070596772
H    1.0       17.9728900618       15.2091712241       22.4205895388
O    8.0       18.1699834479       13.1438330592       22.6112998739
H    1.0       17.4136262970       13.0863555651       23.2352608311
C    6.0       18.9610131780       14.4137484600       20.6603170109
H    1.0       19.1732873439       13.4102217115       20.2716347838
C    6.0       18.4966402202       15.3339821164       19.4934302492
H    1.0       18.5921362757       16.3761154165       19.8252152621
O    8.0       17.1119731338       15.0776574807       19.1483264296
C    6.0       19.3624475230       15.2014685200       18.2163979408
H    1.0       20.3488305845       15.6409688897       18.4161319185
H    1.0       18.8988477370       15.7984280338       17.4199123328
O    8.0       19.5143582548       13.8427602247       17.7863509178
H    1.0       20.1184458622       13.3972375858       18.4178888464
C    6.0       14.9783022271       20.0902328241       22.2156904452
H    1.0       14.4437146955       20.9585552771       22.6210610123
O    8.0       16.2844147675       20.4573680417       21.7334780865
C    6.0       15.1207534209       19.0035147756       23.3101126304
H    1.0       14.1056794018       18.7043367252       23.6012441175
O    8.0       15.8103308173       19.5132459202       24.4621059368
H    1.0       16.7443781650       19.7195903203       24.1760015985
C    6.0       15.8522340640       17.7540994830       22.7733154136
H    1.0       16.9001356623       18.0289650853       22.6268663656
O    8.0       15.7753152168       16.7065375527       23.7452976799
H    1.0       16.0656567274       17.1221807526       24.5881039382
C    6.0       15.3014404819       17.2595457487       21.4110700000
H    1.0       14.4418174425       16.6002641165       21.5892072291
C    6.0       14.9115903839       18.4064464530       20.4347123564
H    1.0       15.8434495703       18.7783066174       19.9980799896
O    8.0       14.2491033631       19.5039059977       21.1160517774
C    6.0       14.0197593016       17.9412673265       19.2591330024
H    1.0       14.6221479262       17.3074866985       18.5944095285
H    1.0       13.7141303837       18.8223974057       18.6790357145
O    8.0       12.8682073142       17.2176892562       19.7093973555
H    1.0       12.3125490103       17.0217026467       18.9234877298
C    6.0       18.5243161985       23.8289765533       20.7533405641
H    1.0       18.8871480667       24.7883828388       20.3626409283
O    8.0       19.6025572947       23.0132434953       21.2476774299
C    6.0       17.5119095972       24.0438099274       21.9068503034
H    1.0       16.6768501427       24.6259093149       21.4959363824
O    8.0       18.1052057561       24.7810280145       22.9877897264
H    1.0       18.9449633734       24.3156362794       23.2343600336
C    6.0       16.9396698625       22.6951305546       22.4173917799
H    1.0       17.7411666341       22.1504939044       22.9373776207
O    8.0       15.8667042902       22.9782443063       23.3220842116
H    1.0       16.2383927831       23.6141713920       23.9715253641
C    6.0       16.4327777883       21.8064435348       21.2476914439
H    1.0       15.4789994556       22.2118874817       20.8864454379
C    6.0       17.4435313799       21.7501693263       20.0675942312
H    1.0       18.3228734488       21.1838436769       20.3968569766
O    8.0       17.8459751585       23.0942595712       19.7130172533
C    6.0       16.9118066025       21.0480831159       18.7917599134
H    1.0       17.1458723804       19.9789843561       18.8632093119
H    1.0       17.4667491729       21.4302112942       17.9245971348
O    8.0       15.5030656951       21.2279902185       18.5921259291
H    1.0       15.0425881815       20.8210395524       19.3601879788
C    6.0       23.7033345874       22.8591821042       21.6878022198
H    1.0       24.7778144850       23.0568973814       21.7894651275
O    8.0       23.4224774889       21.4509396969       21.5785282052
C    6.0       22.9423807506       23.4111032987       22.9180902033
H    1.0       23.0907249153       24.4987128791       22.9347068425
O    8.0       23.4546207026       22.8505260994       24.1371664442
H    1.0       23.7897419984       21.9430800331       23.9256818222
C    6.0       21.4248526702       23.1428502680       22.7886527831
H    1.0       21.2585870930       22.0579554526       22.8472262431
O    8.0       20.7401336723       23.7965590899       23.8625478089
H    1.0       21.2390836379       23.5416493076       24.6705627906
C    6.0       20.8790185479       23.6520442294       21.4308228358
H    1.0       20.7871332662       24.7450553563       21.4827750901
C    6.0       21.7772653551       23.2461835011       20.2250759895
H    1.0       21.6468826090       22.1700424482       20.0519906442
O    8.0       23.1747955988       23.5115580351       20.5149194925
C    6.0       21.4059422453       23.9661250899       18.9067532323
H    1.0       20.4470566830       23.5662362409       18.5500002643
H    1.0       22.1626685343       23.7216941961       18.1493441516
O    8.0       21.3086759344       25.3862873955       19.0743025232
H    1.0       21.1440351950       25.7798066556       18.1897382673
C    6.0       25.0989935435       17.6891462146       21.0995040296
H    1.0       25.7508476334       16.8256931892       20.9151871906
O    8.0       23.7097103189       17.2943480709       21.1345143222
C    6.0       25.5000595309       18.4260960880       22.4094063716
H    1.0       26.5233844299       18.7953690925       22.2623709974
O    8.0       25.4900537123       17.5608927158       23.5542143255
H    1.0       24.5415501358       17.3300209296       23.7225240844
C    6.0       24.5885807248       19.6543172007       22.6485485083
H    1.0       23.5672215245       19.2983039219       22.8374317628
O    8.0       25.0651394056       20.3874868041       23.7813372329
H    1.0       25.2634047578       19.7071125900       24.4629591972
C    6.0       24.5506393526       20.5745104017       21.4048091780
H    1.0       25.4999443933       21.1219261097       21.3446519905
C    6.0       24.3260133106       19.7806994604       20.0884506538
H    1.0       23.2971009999       19.4048876647       20.0904587914
O    8.0       25.2383804734       18.6532375523       20.0302829368
C    6.0       24.4820112183       20.6300178366       18.8027084997
H    1.0       23.5731668701       21.2324313821       18.6720220158
H    1.0       24.5440451190       19.9499019841       17.9428767638
O    8.0       25.6270116040       21.4901909948       18.8350706402
H    1.0       25.3639928416       22.3034477856       19.3181430334
C    6.0       21.0339097181       14.2435147504       22.0002376436
H    1.0       20.5502256191       13.3204637997       22.3385461823
O    8.0       20.1607144054       15.0372326743       21.1679397797
C    6.0       21.4668253158       15.0963103603       23.2208612857
H    1.0       22.1730965929       14.4930433059       23.8052488178
O    8.0       20.3370769873       15.4226064235       24.0486837873
H    1.0       20.2213999078       16.4084750470       24.0227005219
C    6.0       22.2040541343       16.3737203662       22.7537699295
H    1.0       21.4888461772       16.9854457624       22.1957832697
O    8.0       22.6769243355       17.1068714759       23.8895484005
H    1.0       21.8822802443       17.6118131851       24.2094833494
C    6.0       23.3662738739       16.0510626088       21.7833734943
H    1.0       24.2056340010       15.6278525793       22.3498168377
C    6.0       22.9265453036       15.0635779019       20.6662062857
H    1.0       22.2512508837       15.6001865084       19.9868707470
O    8.0       22.2209295178       13.9315651315       21.2370201225
C    6.0       24.1056219410       14.5318412332       19.8167942911
H    1.0       24.4810887268       15.3532338954       19.1916169771
H    1.0       23.7271501126       13.7537197705       19.1404961955
O    8.0       25.1683340097       14.0145519237       20.6276053043
H    1.0       25.8415774581       13.6285215254       20.0256484066
C    6.0       19.3656252024       18.9311758365       23.3077131772
O    8.0       18.5433174997       19.7037200102       23.7614705182
O    8.0       20.1116482373       18.2525243872       23.9908626070
C    6.0       19.3766792863       18.6973039630       21.7975259584
H    1.0       18.4190160380       19.0273634875       21.3859548827
H    1.0       19.4334893792       17.6178509869       21.6278611367
C    6.0       20.5250591782       19.4235205102       21.0604941481
H    1.0       20.4187689788       20.5036446656       21.2092302963
H    1.0       21.4878278155       19.1420479762       21.5043991054
C    6.0       20.5220185093       19.0978331950       19.5526795186
H    1.0       19.5482504854       19.3261927367       19.1026410703
H    1.0       21.2819352304       19.6860797091       19.0244887210
H    1.0       20.7364330722       18.0343469790       19.3866186903
 $end
$$$$