$$$$
! Edit this basic GAMESS input file as needed.
! Conformer was generated by a VeraChem VCPack run 
! and contains    126 atoms.
!
 $contrl scftyp=rhf runtyp=optimize nzvar=0
  maxit=200 icharg=0 $end
 $system mwords=50 $end
 $basis gbasis=pm3 $end
 $statpt nstep=200 $end
 $guess guess=huckel $end
 $data
FE Rank=1      G=537.273           E=380.396           -TS=156.877              
C1
C    6.0       16.1360530048       15.1515478882       21.1225042827
H    1.0       15.0782979457       14.9735246682       20.8906303013
O    8.0       16.3719035334       16.5139849738       21.5264591312
C    6.0       16.5750822670       14.2370019223       22.2929857285
H    1.0       16.4046763824       13.1972513004       21.9847260148
O    8.0       15.7956428707       14.5201469481       23.4665966927
H    1.0       15.5875110156       15.4874713925       23.4474320114
C    6.0       18.0835054426       14.4078855681       22.5914678290
H    1.0       18.2428614041       15.4200645694       22.9880669443
O    8.0       18.4960127788       13.4371148823       23.5600340594
H    1.0       17.8105263933       13.4718901947       24.2641592335
C    6.0       18.9243625112       14.2548105799       21.3017729365
H    1.0       18.8983221452       13.2001568378       20.9974500488
C    6.0       18.3790341465       15.1439752811       20.1485195263
H    1.0       18.5145494754       16.1950704623       20.4350452100
O    8.0       16.9650503580       14.8723340035       19.9733545214
C    6.0       19.0853076570       14.9571035171       18.7815035934
H    1.0       19.9723187671       15.6025252054       18.7569629724
H    1.0       18.4124458961       15.3109054063       17.9891202656
O    8.0       19.4721965926       13.6028692080       18.5261270203
H    1.0       20.3789309834       13.4964871115       18.8928274485
C    6.0       14.7143219172       20.3252482922       21.1253151192
H    1.0       14.0326846954       21.1595445871       20.9164499506
O    8.0       16.0083506662       20.7884558804       21.5565567711
C    6.0       14.1324960697       19.4474732315       22.2611661073
H    1.0       13.1497490666       19.0856928415       21.9318262887
O    8.0       13.9774765301       20.2228327935       23.4611013977
H    1.0       14.7107105117       20.8874151775       23.4711001663
C    6.0       15.0329722700       18.2173246171       22.5248091383
H    1.0       15.9855786878       18.5718157694       22.9420230311
O    8.0       14.3909127778       17.3413884584       23.4581755749
H    1.0       14.0719096902       17.9275364876       24.1803673350
C    6.0       15.3322889229       17.4578833830       21.2104874946
H    1.0       14.4088613006       16.9636207557       20.8809876839
C    6.0       15.8388102518       18.4143491681       20.0939772751
H    1.0       16.8140971916       18.8127370136       20.4027900310
O    8.0       14.8973469332       19.5081263258       19.9486421516
C    6.0       16.0421858805       17.7571448956       18.7050212089
H    1.0       17.0451401128       17.3132394731       18.6735625374
H    1.0       16.0183071473       18.5437522470       17.9392089429
O    8.0       15.0657678818       16.7540000138       18.4064265835
H    1.0       15.4244360229       15.9035337383       18.7470473093
C    6.0       18.4811284339       24.1425575138       21.2924689268
H    1.0       18.8638755360       25.1567960138       21.1217969556
O    8.0       19.5261619658       23.2396322405       21.7019422906
C    6.0       17.4201496437       24.1678535357       22.4206777744
H    1.0       16.6178587396       24.8486518321       22.1076495901
O    8.0       18.0032751646       24.6483374928       23.6430358472
H    1.0       18.9454638565       24.3456469123       23.6509321379
C    6.0       16.8038215574       22.7644012983       22.6306796462
H    1.0       17.5839459468       22.1030114829       23.0321285346
O    8.0       15.7160353087       22.8497235416       23.5581043921
H    1.0       16.0574174961       23.3939770458       24.3025099811
C    6.0       16.3077299664       22.1709492254       21.2907201883
H    1.0       15.4204806375       22.7341872059       20.9726992792
C    6.0       17.3989758815       22.2494807560       20.1857327815
H    1.0       18.2294072403       21.5941776420       20.4793733008
O    8.0       17.8756802601       23.6161248419       20.0916170146
C    6.0       16.9440170397       21.7927170865       18.7761723118
H    1.0       17.0622465828       20.7039785933       18.7081383920
H    1.0       17.6195786303       22.2332350547       18.0309542497
O    8.0       15.5894143620       22.1461044707       18.4778095071
H    1.0       15.0298845890       21.3987456003       18.7882075762
C    6.0       23.6697295691       22.7863113128       21.4580710375
H    1.0       24.7407974895       22.9682024775       21.3030490057
O    8.0       23.4076077502       21.4162344888       21.8175429805
C    6.0       23.1506679960       23.6775764990       22.6136610474
H    1.0       23.3411437540       24.7231629192       22.3386886682
O    8.0       23.8478003970       23.3704896118       23.8321697113
H    1.0       24.0574395059       22.4036027877       23.8080088173
C    6.0       21.6254155719       23.5018023558       22.8042912072
H    1.0       21.4398734595       22.4820071910       23.1686853468
O    8.0       21.1466507592       24.4533006383       23.7614296764
H    1.0       21.7821486864       24.4039829564       24.5101640339
C    6.0       20.8750797144       23.6812089442       21.4631745603
H    1.0       20.9212465301       24.7417182489       21.1825084636
C    6.0       21.4989880864       22.8149030771       20.3325805932
H    1.0       21.3448193533       21.7583831621       20.5880434232
O    8.0       22.9214806846       23.0890146761       20.2604747173
C    6.0       20.8882096079       23.0295574575       18.9242666578
H    1.0       20.0054197179       22.3853754034       18.8259243626
H    1.0       21.6141779255       22.6911948615       18.1730874775
O    8.0       20.5188717033       24.3888964621       18.6700261863
H    1.0       19.5889995864       24.4885547467       18.9755726721
C    6.0       25.0914577387       17.6126078344       21.4551589130
H    1.0       25.7864102351       16.7821857756       21.2769874946
O    8.0       23.7711795520       17.1417622277       21.7871414766
C    6.0       25.5932708559       18.4671164916       22.6456072660
H    1.0       26.5960732305       18.8347318195       22.3918556489
O    8.0       25.6660209630       17.6678319600       23.8376265461
H    1.0       24.9342782597       17.0036974429       23.7839592667
C    6.0       24.6759610384       19.6923685355       22.8712893889
H    1.0       23.6971871348       19.3302653829       23.2149088270
O    8.0       25.2517777088       20.5490421621       23.8638730235
H    1.0       25.5208171317       19.9483656015       24.5944200817
C    6.0       24.4671217151       20.4781222231       21.5549458264
H    1.0       25.4106650750       20.9782329309       21.2996022778
C    6.0       24.0391596050       19.5445010054       20.3873908969
H    1.0       23.0452376553       19.1406888211       20.6204514967
O    8.0       24.9891380287       18.4532021647       20.2852540696
C    6.0       23.9312286284       20.2294638397       19.0011529524
H    1.0       22.9324956789       20.6745878442       18.9097403413
H    1.0       24.0082132878       19.4582998314       18.2232265196
O    8.0       24.9251520631       21.2377151978       18.7904490320
H    1.0       24.5433445232       22.0814439695       19.1225693603
C    6.0       21.3246987688       13.7953065370       21.2868336588
H    1.0       20.9552784793       12.7849417245       21.0700503013
O    8.0       20.2533778142       14.6905976317       21.6414621380
C    6.0       22.3056494943       13.7467628355       22.4845604795
H    1.0       23.1280209243       13.0717967772       22.2138804810
O    8.0       21.6402267020       13.2423747095       23.6541178308
H    1.0       20.6995122721       13.5454826668       23.6032752639
C    6.0       22.9051283910       15.1453174325       22.7643962681
H    1.0       22.0988066150       15.7990989776       23.1244041551
O    8.0       23.9266642122       15.0407494341       23.7624974488
H    1.0       23.5353009299       14.4819816654       24.4706687112
C    6.0       23.4917282172       15.7650573966       21.4738126947
H    1.0       24.3991234301       15.2076721761       21.2063420597
C    6.0       22.4790573778       15.7093509355       20.2950944027
H    1.0       21.6299618716       16.3592361152       20.5439915000
O    8.0       22.0108822950       14.3451871339       20.1411773986
C    6.0       23.0295016475       16.1938446286       18.9295330348
H    1.0       22.9154906286       17.2838063858       18.8752830038
H    1.0       22.4070487169       15.7687626802       18.1310052738
O    8.0       24.4016444952       15.8455383247       18.7179720543
H    1.0       24.9380137004       16.5861719070       19.0809250174
 $end
