$$$$
! Edit this basic GAMESS input file as needed.
! Conformer was generated by a VeraChem VCPack run 
! and contains     23 atoms.
!
 $contrl scftyp=rhf runtyp=optimize nzvar=0
  maxit=200 icharg=0 $end
 $system mwords=50 $end
 $basis gbasis=pm3 $end
 $statpt nstep=200 $end
 $guess guess=huckel $end
 $data
VM2 Rank=1      G=37.917            E=10.396            -TS=27.520              
C1
N    7.0       19.7413605840       18.6609666107       26.4278134748
H    1.0       19.4802507828       19.1972187717       27.2622888019
H    1.0       20.7320187447       18.4173395626       26.5284406035
H    1.0       19.2105832926       17.7845063602       26.4590531487
C    6.0       19.4764061847       19.4376213977       25.1540373885
H    1.0       20.0478730758       20.3685799870       25.2013448044
H    1.0       18.4125208783       19.6884273704       25.1268051331
C    6.0       19.8579518489       18.6596319763       23.8821364306
H    1.0       20.9232989960       18.3958345574       23.9214463874
H    1.0       19.2937876982       17.7180382547       23.8472101029
C    6.0       19.5728321099       19.4846688857       22.6076939432
H    1.0       20.1349251673       20.4281485237       22.6489225378
H    1.0       18.5071217592       19.7510895050       22.5747818793
C    6.0       19.9524834984       18.7124968894       21.3237084827
H    1.0       21.0180612577       18.4460716414       21.3564520491
H    1.0       19.3904458920       17.7691457478       21.2822837480
C    6.0       19.6672669866       19.5379086568       20.0493040832
H    1.0       20.2292272130       20.4817870804       20.0848744453
H    1.0       18.6017953776       19.8048296612       20.0106426498
C    6.0       20.0476987876       18.7637055834       18.7693061971
H    1.0       19.4761483932       17.8299108739       18.6881467418
H    1.0       21.1162938035       18.5121244919       18.7629833834
H    1.0       19.8381352642       19.3655787624       17.8755060422
 $end
$$$$
! Edit this basic GAMESS input file as needed.
! Conformer was generated by a VeraChem VCPack run 
! and contains     23 atoms.
!
 $contrl scftyp=rhf runtyp=optimize nzvar=0
  maxit=200 icharg=0 $end
 $system mwords=50 $end
 $basis gbasis=pm3 $end
 $statpt nstep=200 $end
 $guess guess=huckel $end
 $data
VM2 Rank=2      G=38.206            E=10.584            -TS=27.622              
C1
N    7.0       20.4491464983       19.4573087771       25.7939232759
H    1.0       20.3534444432       19.8732736835       26.7265562372
H    1.0       20.8557700976       20.1751419607       25.1865434555
H    1.0       21.1372924748       18.7017580548       25.8731668826
C    6.0       19.1203669256       18.9563635377       25.2622906045
H    1.0       18.4287092033       19.8023524490       25.2256149259
H    1.0       18.7300647319       18.2283302629       25.9786848701
C    6.0       19.2146266799       18.3026311661       23.8699517715
H    1.0       19.9142654872       17.4570574241       23.9086343967
H    1.0       18.2316310279       17.8842673257       23.6156410768
C    6.0       19.6474954662       19.2996576126       22.7689055244
H    1.0       20.6463910813       19.6957714239       22.9954894723
H    1.0       18.9591143324       20.1562449362       22.7599363989
C    6.0       19.6671240437       18.6391052571       21.3716948322
H    1.0       20.3532570193       17.7808220595       21.3806925526
H    1.0       18.6686036147       18.2449328458       21.1370275075
C    6.0       20.0997469065       19.6325572577       20.2704627567
H    1.0       21.0996356830       20.0276053125       20.4987338063
H    1.0       19.4150764330       20.4922036908       20.2562848633
C    6.0       20.1174934799       18.9693763917       18.8767712348
H    1.0       19.1220882299       18.5942172833       18.6053802860
H    1.0       20.8197552839       18.1259738085       18.8498118721
H    1.0       20.4268237960       19.6898814677       18.1085079308
 $end
$$$$
! Edit this basic GAMESS input file as needed.
! Conformer was generated by a VeraChem VCPack run 
! and contains     23 atoms.
!
 $contrl scftyp=rhf runtyp=optimize nzvar=0
  maxit=200 icharg=0 $end
 $system mwords=50 $end
 $basis gbasis=pm3 $end
 $statpt nstep=200 $end
 $guess guess=huckel $end
 $data
VM2 Rank=3      G=38.223            E=10.601            -TS=27.623              
C1
N    7.0       18.7298455903       18.7422470847       25.7154893777
H    1.0       17.9834054191       18.9804694324       25.0554784537
H    1.0       18.4301446254       19.0734353764       26.6387902907
H    1.0       18.7754267751       17.7194547897       25.7654838375
C    6.0       20.0586023832       19.3465613638       25.3050644420
H    1.0       20.7923728117       19.0860085772       26.0727122489
H    1.0       19.9481729967       20.4342809431       25.2949204342
C    6.0       20.5632544332       18.8635534083       23.9314227037
H    1.0       21.5692183472       19.2725001580       23.7677695940
H    1.0       20.6677279701       17.7704217088       23.9429616270
C    6.0       19.6389464521       19.2960733225       22.7685293008
H    1.0       19.5163944998       20.3880380195       22.7854055746
H    1.0       18.6397510757       18.8609978759       22.9040183460
C    6.0       20.2012159933       18.8613212108       21.3960288871
H    1.0       21.1993588233       19.2978401912       21.2523405156
H    1.0       20.3266345377       17.7697603043       21.3794455536
C    6.0       19.2795251566       19.2913700012       20.2331159783
H    1.0       19.1525857490       20.3830324735       20.2443347148
H    1.0       18.2802751124       18.8547765239       20.3703518057
C    6.0       19.8446099913       18.8558736086       18.8643493105
H    1.0       20.8299515442       19.3047466547       18.6831228386
H    1.0       19.1768678162       19.1698787907       18.0515991551
H    1.0       19.9509280308       17.7645447187       18.8102761015
 $end
$$$$
! Edit this basic GAMESS input file as needed.
! Conformer was generated by a VeraChem VCPack run 
! and contains     23 atoms.
!
 $contrl scftyp=rhf runtyp=optimize nzvar=0
  maxit=200 icharg=0 $end
 $system mwords=50 $end
 $basis gbasis=pm3 $end
 $statpt nstep=200 $end
 $guess guess=huckel $end
 $data
VM2 Rank=4      G=38.379            E=10.761            -TS=27.618              
C1
N    7.0       19.5096834092       18.2598533672       26.0548432546
H    1.0       20.4067227166       17.7705977826       26.1372301793
H    1.0       18.7900578167       17.6263190208       26.4192708017
H    1.0       19.5460660879       19.0648566819       26.6884814892
C    6.0       19.2219763068       18.6768340980       24.6268646616
H    1.0       18.2432554601       19.1638342249       24.6080643047
H    1.0       19.1674684136       17.7709100402       24.0177489208
C    6.0       20.2860358942       19.6299392003       24.0504716185
H    1.0       20.3621176332       20.5150294853       24.6960520346
H    1.0       21.2692061099       19.1410817374       24.0702774644
C    6.0       19.9615128915       20.0868585973       22.6086171149
H    1.0       20.7076650068       20.8317119290       22.2989374190
H    1.0       18.9889067302       20.5982706168       22.5965477900
C    6.0       19.9519855771       18.9222300761       21.5892982364
H    1.0       20.9140375967       18.3927030406       21.6276736119
H    1.0       19.1763752751       18.1931138284       21.8592511586
C    6.0       19.6977199257       19.4218654277       20.1496861566
H    1.0       20.4735624217       20.1465925715       19.8654361665
H    1.0       18.7365605564       19.9531052536       20.1056974398
C    6.0       19.6870859955       18.2594192334       19.1342189574
H    1.0       20.6483855791       17.7292118644       19.1310303582
H    1.0       19.5056230167       18.6337908549       18.1183641131
H    1.0       18.8976229142       17.5345540937       19.3719991699
 $end
$$$$
! Edit this basic GAMESS input file as needed.
! Conformer was generated by a VeraChem VCPack run 
! and contains     23 atoms.
!
 $contrl scftyp=rhf runtyp=optimize nzvar=0
  maxit=200 icharg=0 $end
 $system mwords=50 $end
 $basis gbasis=pm3 $end
 $statpt nstep=200 $end
 $guess guess=huckel $end
 $data
VM2 Rank=5      G=38.446            E=10.828            -TS=27.618              
C1
N    7.0       20.2168630278       18.5541171446       26.0871389627
H    1.0       21.1422599994       18.6048719360       26.5265681118
H    1.0       19.9271307688       17.5712182102       26.1154849199
H    1.0       19.5722464746       19.0758938990       26.6896924014
C    6.0       20.2344324918       19.0979975776       24.6730456521
H    1.0       20.9613766573       18.5171304244       24.0996004498
H    1.0       20.5780692334       20.1351151637       24.7144944793
C    6.0       18.8574693090       19.0355818284       23.9853441191
H    1.0       18.5119811280       17.9939633511       23.9445456694
H    1.0       18.1272930598       19.5852287547       24.5941764638
C    6.0       18.8736093601       19.6342612937       22.5590367131
H    1.0       19.1951453838       20.6840520165       22.6059814562
H    1.0       17.8465230696       19.6414345082       22.1685330423
C    6.0       19.7839454048       18.8523327961       21.5816256320
H    1.0       20.8236625416       18.8784699069       21.9342773124
H    1.0       19.4806504410       17.7963700282       21.5623602306
C    6.0       19.7202419202       19.4312488315       20.1506938843
H    1.0       20.0221869836       20.4879535686       20.1642227438
H    1.0       18.6845644882       19.4023637318       19.7839534167
C    6.0       20.6294384863       18.6514605282       19.1771150368
H    1.0       20.5704450758       19.0767620746       18.1668269853
H    1.0       20.3303474810       17.5968958130       19.1165724552
H    1.0       21.6783802691       18.6914283012       19.4985863727
 $end
$$$$
! Edit this basic GAMESS input file as needed.
! Conformer was generated by a VeraChem VCPack run 
! and contains     23 atoms.
!
 $contrl scftyp=rhf runtyp=optimize nzvar=0
  maxit=200 icharg=0 $end
 $system mwords=50 $end
 $basis gbasis=pm3 $end
 $statpt nstep=200 $end
 $guess guess=huckel $end
 $data
VM2 Rank=6      G=38.523            E=10.893            -TS=27.630              
C1
N    7.0       19.5473823380       18.7522013738       26.3216515032
H    1.0       19.7317092764       17.7456487802       26.3828611474
H    1.0       18.8411872074       18.9695424922       27.0330788105
H    1.0       20.4084093479       19.2339223247       26.5999505684
C    6.0       19.0936208245       19.1608277425       24.9349258994
H    1.0       18.8876615490       20.2345359663       24.9499445117
H    1.0       18.1602614166       18.6348447199       24.7165830929
C    6.0       20.1322558026       18.8478598215       23.8431959357
H    1.0       21.0728154617       19.3648783607       24.0757835447
H    1.0       20.3479004806       17.7710147535       23.8423107465
C    6.0       19.6321823314       19.2790118935       22.4466343438
H    1.0       19.4159006483       20.3563811615       22.4517546833
H    1.0       18.6865173036       18.7647384898       22.2298784515
C    6.0       20.6694651899       18.9645189470       21.3417848025
H    1.0       21.6298033073       19.4268895372       21.6089362617
H    1.0       20.8494212973       17.8813943217       21.2994814318
C    6.0       20.2523766894       19.4738907027       19.9408369349
H    1.0       21.0845061015       19.3063535752       19.2427347622
H    1.0       20.0925030279       20.5607293538       19.9727957207
C    6.0       18.9887168242       18.7786895189       19.3849705805
H    1.0       18.7903768337       19.1076302245       18.3566690973
H    1.0       18.1009032083       19.0167221961       19.9837583757
H    1.0       19.1120947637       17.6880108220       19.3703091222
 $end
$$$$
! Edit this basic GAMESS input file as needed.
! Conformer was generated by a VeraChem VCPack run 
! and contains     23 atoms.
!
 $contrl scftyp=rhf runtyp=optimize nzvar=0
  maxit=200 icharg=0 $end
 $system mwords=50 $end
 $basis gbasis=pm3 $end
 $statpt nstep=200 $end
 $guess guess=huckel $end
 $data
VM2 Rank=7      G=38.557            E=10.927            -TS=27.630              
C1
N    7.0       19.8212218458       18.8660274881       26.3341389052
H    1.0       20.3997061562       18.0234342897       26.4132934605
H    1.0       18.8541785907       18.5872993879       26.5291036305
H    1.0       20.1078746985       19.4963557556       27.0908385399
C    6.0       19.9580211090       19.5203496854       24.9743470692
H    1.0       21.0025350483       19.8170734027       24.8461405045
H    1.0       19.3413092408       20.4232050073       24.9706840557
C    6.0       19.5351336742       18.5995030975       23.8159877229
H    1.0       20.1461580639       17.6871138628       23.8330929462
H    1.0       18.4908029267       18.2909127903       23.9581203899
C    6.0       19.6892712965       19.3028025218       22.4492527180
H    1.0       20.7340257386       19.6163858401       22.3231803533
H    1.0       19.0780352788       20.2159040173       22.4364176422
C    6.0       19.2693510141       18.3822874404       21.2779823585
H    1.0       19.9129952295       17.4920028296       21.2567984703
H    1.0       18.2471025580       18.0201299116       21.4547758258
C    6.0       19.3102801451       19.0821691546       19.8979211605
H    1.0       18.6508403036       19.9612897093       19.9071799931
H    1.0       18.8986510552       18.3975204872       19.1431545728
C    6.0       20.7327209152       19.5038606123       19.4643700657
H    1.0       21.1413064273       20.2807961171       20.1222818354
H    1.0       20.7188487256       19.9096665250       18.4445299274
H    1.0       21.4191371314       18.6472780896       19.4751887852
 $end
$$$$
! Edit this basic GAMESS input file as needed.
! Conformer was generated by a VeraChem VCPack run 
! and contains     23 atoms.
!
 $contrl scftyp=rhf runtyp=optimize nzvar=0
  maxit=200 icharg=0 $end
 $system mwords=50 $end
 $basis gbasis=pm3 $end
 $statpt nstep=200 $end
 $guess guess=huckel $end
 $data
VM2 Rank=8      G=38.645            E=11.025            -TS=27.619              
C1
N    7.0       19.3992751502       18.2117472372       26.0666271796
H    1.0       18.6476607387       17.5625069589       25.8128786032
H    1.0       19.1879270757       18.5585977934       27.0084906757
H    1.0       20.2614790535       17.6619189175       26.1384442266
C    6.0       19.5314283631       19.3428426775       25.0670537566
H    1.0       20.3260177215       20.0087852417       25.4143707376
H    1.0       18.5916821611       19.9017311729       25.0635441284
C    6.0       19.8496109407       18.8557563374       23.6422315291
H    1.0       20.7856862042       18.2817102508       23.6537664433
H    1.0       19.0554322761       18.1742770436       23.3124527491
C    6.0       19.9778535270       20.0417130991       22.6573249971
H    1.0       20.7194458302       20.7518087367       23.0491664283
H    1.0       19.0252224820       20.5873062379       22.6081768794
C    6.0       20.4084772108       19.6196765006       21.2308451040
H    1.0       20.5872493766       20.5277301345       20.6384731940
H    1.0       21.3694246732       19.0889288994       21.2778780070
C    6.0       19.3631444593       18.7423660814       20.5019385534
H    1.0       18.3885881322       19.2503022444       20.5001345108
H    1.0       19.2264569256       17.7924400605       21.0354842041
C    6.0       19.7862103490       18.4428980667       19.0479788802
H    1.0       19.8934268828       19.3692817372       18.4687236038
H    1.0       19.0358443821       17.8177114729       18.5468489445
H    1.0       20.7445372662       17.9081546481       19.0181525336
 $end
$$$$
! Edit this basic GAMESS input file as needed.
! Conformer was generated by a VeraChem VCPack run 
! and contains     23 atoms.
!
 $contrl scftyp=rhf runtyp=optimize nzvar=0
  maxit=200 icharg=0 $end
 $system mwords=50 $end
 $basis gbasis=pm3 $end
 $statpt nstep=200 $end
 $guess guess=huckel $end
 $data
VM2 Rank=9      G=38.653            E=11.034            -TS=27.619              
C1
N    7.0       20.3274991302       18.5978667153       26.1089591358
H    1.0       20.1571184708       18.9617217100       27.0527066960
H    1.0       21.3344439725       18.6802366952       25.9354578539
H    1.0       20.1060378961       17.5972071339       26.1312848551
C    6.0       19.5115144754       19.3345531064       25.0661537593
H    1.0       19.7756815626       20.3942984137       25.1176087238
H    1.0       18.4553154743       19.2305129669       25.3290236668
C    6.0       19.7436821841       18.8117313149       23.6373910294
H    1.0       20.8092139876       18.9040343298       23.3924120728
H    1.0       19.4922793091       17.7436133917       23.5947352738
C    6.0       18.8903385088       19.5893265692       22.6077694120
H    1.0       19.1765331869       20.6502857243       22.6150440397
H    1.0       17.8366581005       19.5525691169       22.9178368435
C    6.0       18.9974571614       19.0326962715       21.1665618199
H    1.0       18.6950121338       17.9764096794       21.1560552830
H    1.0       18.2750167303       19.5658578047       20.5331251808
C    6.0       20.4088809385       19.1773171550       20.5495815811
H    1.0       21.1359638346       18.5866472224       21.1224465339
H    1.0       20.7335610835       20.2256697257       20.6070245386
C    6.0       20.4366276016       18.7135088677       19.0775832626
H    1.0       20.1447995475       17.6587463967       18.9907357240
H    1.0       21.4448263135       18.8198641848       18.6565587005
H    1.0       19.7504189269       19.3098948747       18.4622305977
 $end
$$$$
! Edit this basic GAMESS input file as needed.
! Conformer was generated by a VeraChem VCPack run 
! and contains     23 atoms.
!
 $contrl scftyp=rhf runtyp=optimize nzvar=0
  maxit=200 icharg=0 $end
 $system mwords=50 $end
 $basis gbasis=pm3 $end
 $statpt nstep=200 $end
 $guess guess=huckel $end
 $data
VM2 Rank=10     G=38.798            E=11.064            -TS=27.734              
C1
N    7.0       19.8854754777       19.9737459345       25.5966551162
H    1.0       18.8992171860       20.1671760240       25.7980181203
H    1.0       20.1931962066       20.6603938818       24.9014213516
H    1.0       20.4091446240       20.1639557950       26.4577969910
C    6.0       20.0939027443       18.5515199287       25.1139238882
H    1.0       19.7831388878       17.8794958243       25.9185315841
H    1.0       21.1636105184       18.4047650735       24.9418453505
C    6.0       19.3104921262       18.2094988395       23.8316847958
H    1.0       19.4437521097       17.1406102175       23.6178955972
H    1.0       18.2371924890       18.3625188878       24.0064948988
C    6.0       19.7730384540       19.0374733028       22.6092486546
H    1.0       20.8539718064       18.9012450559       22.4725710978
H    1.0       19.6058142874       20.1063321610       22.7972370788
C    6.0       19.0228675311       18.6234844334       21.3203631496
H    1.0       19.2308744444       17.5689267834       21.0924335801
H    1.0       17.9406052318       18.6936284317       21.4969865615
C    6.0       19.3776077991       19.4966722640       20.0924293681
H    1.0       19.1489240115       20.5500460094       20.3066376908
H    1.0       18.7290494190       19.2060651213       19.2541181398
C    6.0       20.8526158675       19.3646052970       19.6496950275
H    1.0       21.1149224400       18.3161226961       19.4576103329
H    1.0       21.5387832077       19.7573809765       20.4101711396
H    1.0       21.0279500331       19.9290839920       18.7247309550
 $end
$$$$
! Edit this basic GAMESS input file as needed.
! Conformer was generated by a VeraChem VCPack run 
! and contains     23 atoms.
!
 $contrl scftyp=rhf runtyp=optimize nzvar=0
  maxit=200 icharg=0 $end
 $system mwords=50 $end
 $basis gbasis=pm3 $end
 $statpt nstep=200 $end
 $guess guess=huckel $end
 $data
VM2 Rank=11     G=38.837            E=11.108            -TS=27.728              
C1
N    7.0       19.1466940523       17.8993673215       25.3647288154
H    1.0       19.9693630593       17.2932616034       25.4455470311
H    1.0       18.5888772423       17.5504244894       24.5795219342
H    1.0       18.5885314745       17.7602424307       26.2139000539
C    6.0       19.5339491701       19.3535172834       25.1782130262
H    1.0       20.0874402743       19.6656206570       26.0680564102
H    1.0       18.6160338189       19.9450074497       25.1234638797
C    6.0       20.3934671053       19.6125377459       23.9255685255
H    1.0       20.7075483273       20.6647916873       23.9323127748
H    1.0       21.3109931978       19.0115445623       23.9796940270
C    6.0       19.6388900328       19.3108750709       22.6088908269
H    1.0       18.7094802263       19.8962283669       22.5776556659
H    1.0       19.3515955430       18.2522475618       22.5860357744
C    6.0       20.5000590061       19.6423539325       21.3663143850
H    1.0       20.8379759026       20.6858784622       21.4313849498
H    1.0       21.4077757585       19.0231845022       21.3685540995
C    6.0       19.7487963531       19.4529783178       20.0261916310
H    1.0       20.3909891264       19.8099398734       19.2088698061
H    1.0       18.8510834149       20.0867411042       20.0104001438
C    6.0       19.3541442804       17.9853703279       19.7440927900
H    1.0       20.2306406713       17.3257653809       19.7852332180
H    1.0       18.9111252955       17.8923981336       18.7440762809
H    1.0       18.6141790137       17.6203706624       20.4669777248
 $end
$$$$
! Edit this basic GAMESS input file as needed.
! Conformer was generated by a VeraChem VCPack run 
! and contains     23 atoms.
!
 $contrl scftyp=rhf runtyp=optimize nzvar=0
  maxit=200 icharg=0 $end
 $system mwords=50 $end
 $basis gbasis=pm3 $end
 $statpt nstep=200 $end
 $guess guess=huckel $end
 $data
VM2 Rank=12     G=38.860            E=11.128            -TS=27.732              
C1
N    7.0       20.4903600371       18.7123020748       25.6758985601
H    1.0       20.5041737176       18.8049396149       26.6972630181
H    1.0       21.1578207045       19.3950031520       25.3044427267
H    1.0       20.8555199539       17.7802729768       25.4554992521
C    6.0       19.0988936458       18.9210299098       25.1107803003
H    1.0       18.7606395448       19.9191206215       25.4020088366
H    1.0       18.4370125526       18.1871453881       25.5786525324
C    6.0       19.0232723269       18.7742524320       23.5787084305
H    1.0       19.3618144559       17.7690164607       23.2977689451
H    1.0       17.9709711505       18.8492438751       23.2740352247
C    6.0       19.8511755151       19.8529095987       22.8362451945
H    1.0       20.9187828953       19.7311052286       23.0631219260
H    1.0       19.5653583021       20.8444650193       23.2140522771
C    6.0       19.6502186224       19.8362758329       21.3008860569
H    1.0       18.5865267818       19.9812031992       21.0666697522
H    1.0       20.1800079542       20.6975647417       20.8708723027
C    6.0       20.1617553788       18.5424356545       20.6242140026
H    1.0       19.5922810473       17.6753458235       20.9842644305
H    1.0       21.2119749611       18.3703106726       20.8983476252
C    6.0       20.0403244739       18.6177944973       19.0872674551
H    1.0       18.9958334918       18.7599396281       18.7805744119
H    1.0       20.4044822410       17.6917385326       18.6237574787
H    1.0       20.6313094584       19.4506737599       18.6844541340
 $end
$$$$
! Edit this basic GAMESS input file as needed.
! Conformer was generated by a VeraChem VCPack run 
! and contains     23 atoms.
!
 $contrl scftyp=rhf runtyp=optimize nzvar=0
  maxit=200 icharg=0 $end
 $system mwords=50 $end
 $basis gbasis=pm3 $end
 $statpt nstep=200 $end
 $guess guess=huckel $end
 $data
VM2 Rank=13     G=38.869            E=11.135            -TS=27.734              
C1
N    7.0       18.7757661228       19.5126011244       25.5461735801
H    1.0       19.3162332627       20.3403442718       25.8171118275
H    1.0       18.2065440655       19.2486752377       26.3575332443
H    1.0       18.1277449802       19.8022045492       24.8074415331
C    6.0       19.6728219079       18.3765206872       25.0947225736
H    1.0       19.0384381683       17.5217717508       24.8449535518
H    1.0       20.3041280102       18.0958411288       25.9422221482
C    6.0       20.5646014861       18.7305980919       23.8888172236
H    1.0       21.1967966242       19.5922857431       24.1413474005
H    1.0       21.2437342218       17.8885351594       23.6998855361
C    6.0       19.7487360760       19.0273749421       22.6081419044
H    1.0       19.0954089527       19.8942113977       22.7740296268
H    1.0       19.0964183576       18.1708661299       22.3924356960
C    6.0       20.6685679595       19.3074751212       21.3953672164
H    1.0       21.3654108210       20.1170420669       21.6530846370
H    1.0       21.2862965924       18.4232081984       21.1860981636
C    6.0       19.8968503590       19.7125124953       20.1161019903
H    1.0       20.6230532466       19.9933448721       19.3404684074
H    1.0       19.2955082349       20.6109857449       20.3133610183
C    6.0       18.9886560887       18.5899175379       19.5646755115
H    1.0       18.1697752433       18.3571081625       20.2565248741
H    1.0       19.5611998435       17.6703897721       19.3866912338
H    1.0       18.5378867895       18.8942056777       18.6111806134
 $end
$$$$
! Edit this basic GAMESS input file as needed.
! Conformer was generated by a VeraChem VCPack run 
! and contains     23 atoms.
!
 $contrl scftyp=rhf runtyp=optimize nzvar=0
  maxit=200 icharg=0 $end
 $system mwords=50 $end
 $basis gbasis=pm3 $end
 $statpt nstep=200 $end
 $guess guess=huckel $end
 $data
VM2 Rank=14     G=38.870            E=11.067            -TS=27.803              
C1
N    7.0       20.8034075392       18.7864057605       25.2427826624
H    1.0       20.7405933820       19.5730967404       25.8968070790
H    1.0       21.3965701600       19.0866333769       24.4632847597
H    1.0       21.3021756352       18.0330034505       25.7280260449
C    6.0       19.4353289905       18.3403448965       24.7655288391
H    1.0       18.8716696415       18.0031815550       25.6396805634
H    1.0       19.5708700113       17.4843749003       24.0994946837
C    6.0       18.6410151875       19.4458047333       24.0402809461
H    1.0       17.6472383701       19.0549146008       23.7843812913
H    1.0       18.4718857076       20.2802544041       24.7337499422
C    6.0       19.3264905696       19.9775745355       22.7564652561
H    1.0       20.2844368442       20.4497301470       23.0124002536
H    1.0       18.6994358980       20.7726758699       22.3298590375
C    6.0       19.5519382228       18.8814761612       21.6873442593
H    1.0       20.2159176111       18.1012539600       22.0826593143
H    1.0       18.5947477310       18.3956939538       21.4524592720
C    6.0       20.1658440680       19.4599669323       20.3930928429
H    1.0       21.1232160174       19.9485800075       20.6224631936
H    1.0       19.5044410067       20.2359398553       19.9827750241
C    6.0       20.3919754224       18.3654269808       19.3285051940
H    1.0       19.4460555906       17.8808332429       19.0535030920
H    1.0       21.0779697430       17.5916682388       19.6971846733
H    1.0       20.8276025069       18.7951990113       18.4171549998
 $end
$$$$
! Edit this basic GAMESS input file as needed.
! Conformer was generated by a VeraChem VCPack run 
! and contains     23 atoms.
!
 $contrl scftyp=rhf runtyp=optimize nzvar=0
  maxit=200 icharg=0 $end
 $system mwords=50 $end
 $basis gbasis=pm3 $end
 $statpt nstep=200 $end
 $guess guess=huckel $end
 $data
VM2 Rank=15     G=38.870            E=11.067            -TS=27.803              
C1
N    7.0       18.9993649067       18.0353819926       25.1602259828
H    1.0       18.4312137052       17.8520686324       24.3276402450
H    1.0       18.4352820851       18.6134581641       25.7912675653
H    1.0       19.1453778167       17.1351725817       25.6294273101
C    6.0       20.3122466112       18.7053738344       24.8054981494
H    1.0       20.8752720456       18.0273548122       24.1590077012
H    1.0       20.8785426752       18.8386096432       25.7312888707
C    6.0       20.1428666622       20.0709802000       24.1087981372
H    1.0       19.6166645552       20.7567783539       24.7859994002
H    1.0       21.1368646609       20.5074963384       23.9435917332
C    6.0       19.3849094968       20.0019825954       22.7591397537
H    1.0       19.2949289707       21.0205897271       22.3569964398
H    1.0       18.3584494159       19.6482832875       22.9245790751
C    6.0       20.0859444379       19.1037748022       21.7117411208
H    1.0       21.1198911097       19.4466399321       21.5676348978
H    1.0       20.1418968411       18.0705243309       22.0793717499
C    6.0       19.3458766862       19.1187364981       20.3557569171
H    1.0       19.2924569492       20.1476260321       19.9730278461
H    1.0       18.3101709049       18.7781022088       20.4943064435
C    6.0       20.0447911991       18.2207700772       19.3128399391
H    1.0       20.0825579852       17.1773626197       19.6520868116
H    1.0       21.0731739628       18.5575520000       19.1278317156
H    1.0       19.5054608205       18.2447959253       18.3570265082
 $end
$$$$
! Edit this basic GAMESS input file as needed.
! Conformer was generated by a VeraChem VCPack run 
! and contains     23 atoms.
!
 $contrl scftyp=rhf runtyp=optimize nzvar=0