$$$$
! Edit this basic GAMESS input file as needed.
! Conformer was generated by a VeraChem VCPack run 
! and contains     22 atoms.
!
 $contrl scftyp=rhf runtyp=optimize nzvar=0
  maxit=200 icharg=0 $end
 $system mwords=50 $end
 $basis gbasis=pm3 $end
 $statpt nstep=200 $end
 $guess guess=huckel $end
 $data
VM2 Rank=1      G=-16.998           E=-36.566           -TS=19.568              
C1
C    6.0       19.8314360920       19.1340983047       26.1874722794
O    8.0       20.0587432905       20.2372457611       26.6433547125
O    8.0       20.1744729171       18.0998502213       26.7251413914
C    6.0       19.0946144557       19.0432561732       24.8559110036
H    1.0       18.3979669600       19.8879278403       24.7936708196
H    1.0       18.4928852323       18.1264389237       24.8613228243
C    6.0       20.0506092350       19.0479853977       23.6376735831
H    1.0       20.6548417387       19.9657027278       23.6541240439
H    1.0       20.7496387274       18.2042576996       23.7216728097
C    6.0       19.2807848742       18.9553695061       22.3025049840
H    1.0       18.5820942646       19.7995067861       22.2222724537
H    1.0       18.6768439711       18.0376175046       22.2898453647
C    6.0       20.2363076687       18.9602525805       21.0899709738
H    1.0       20.8405345625       19.8777947143       21.1023463758
H    1.0       20.9350934063       18.1161819862       21.1697783731
C    6.0       19.4676616931       18.8679027818       19.7551595014
H    1.0       18.7689630634       19.7118061076       19.6707579092
H    1.0       18.8634998620       17.9502015215       19.7381955647
C    6.0       20.4253697738       18.8730392737       18.5468115709
H    1.0       21.0205446313       19.7952757633       18.5212511373
H    1.0       19.8624298961       18.8068320767       17.6067018480
H    1.0       21.1157980784       18.0204443824       18.5892079852
 $end
$$$$
! Edit this basic GAMESS input file as needed.
! Conformer was generated by a VeraChem VCPack run 
! and contains     22 atoms.
!
 $contrl scftyp=rhf runtyp=optimize nzvar=0
  maxit=200 icharg=0 $end
 $system mwords=50 $end
 $basis gbasis=pm3 $end
 $statpt nstep=200 $end
 $guess guess=huckel $end
 $data
VM2 Rank=2      G=-16.190           E=-35.868           -TS=19.677              
C1
C    6.0       19.7289553456       18.8549250801       25.9655510672
O    8.0       19.2128629758       19.6429888295       26.7331084285
O    8.0       20.5231257470       18.0021951772       26.3100083804
C    6.0       19.3783476514       18.9569767389       24.4854037466
H    1.0       18.3435185117       19.3105476628       24.4045191504
H    1.0       19.4106927603       17.9455627807       24.0649523816
C    6.0       20.3294580757       19.9033010656       23.7075927951
H    1.0       20.3434176850       20.8802457099       24.2104119801
H    1.0       21.3558027734       19.5141483556       23.7576786755
C    6.0       19.9209109528       20.1121682543       22.2300073831
H    1.0       20.5738786280       20.8802151009       21.7932881332
H    1.0       18.8981908896       20.5108067957       22.1839056541
C    6.0       20.0178775290       18.8258991917       21.3776139030
H    1.0       21.0266597102       18.4004032752       21.4682473504
H    1.0       19.3159634958       18.0714401052       21.7558342332
C    6.0       19.7076699389       19.1024125819       19.8914473836
H    1.0       20.4102204318       19.8504891471       19.4987175655
H    1.0       18.6998856103       19.5301001553       19.7970146687
C    6.0       19.8007917839       17.8181330807       19.0432669126
H    1.0       20.8085466205       17.3855332364       19.0950469902
H    1.0       19.5778927412       18.0330524681       17.9900820244
H    1.0       19.0850863008       17.0630198026       19.3939275644
 $end
$$$$
! Edit this basic GAMESS input file as needed.
! Conformer was generated by a VeraChem VCPack run 
! and contains     22 atoms.
!
 $contrl scftyp=rhf runtyp=optimize nzvar=0
  maxit=200 icharg=0 $end
 $system mwords=50 $end
 $basis gbasis=pm3 $end
 $statpt nstep=200 $end
 $guess guess=huckel $end
 $data
VM2 Rank=3      G=-16.126           E=-35.803           -TS=19.677              
C1
C    6.0       20.1334290261       19.1302855065       25.9559587916
O    8.0       19.6138752834       19.9159312084       26.7236600979
O    8.0       20.6478726080       18.0869224831       26.3070234897
C    6.0       20.1188640595       19.4613436284       24.4678846254
H    1.0       21.0340816315       19.0511296714       24.0264284987
H    1.0       20.1661069287       20.5516978684       24.3614815807
C    6.0       18.8654399025       18.9067469528       23.7422949934
H    1.0       18.8532689407       17.8105724400       23.8170161676
H    1.0       17.9680072499       19.2632312308       24.2666782270
C    6.0       18.7729668988       19.3307317075       22.2572074057
H    1.0       18.7752938098       20.4271031516       22.1867925041
H    1.0       17.8054370954       18.9957278028       21.8589051181
C    6.0       19.9060279971       18.7496993990       21.3802521311
H    1.0       20.8769713051       19.1338206753       21.7188696030
H    1.0       19.9351453183       17.6574035054       21.4940314798
C    6.0       19.7144180445       19.1070165797       19.8912934032
H    1.0       19.6828402293       20.1991069752       19.7738005399
H    1.0       18.7486790834       18.7196978121       19.5380726738
C    6.0       20.8471061801       18.5303225347       19.0184250622
H    1.0       21.8228529768       18.9263413789       19.3290371639
H    1.0       20.6948084850       18.7933909232       17.9635910640
H    1.0       20.8818637760       17.4355167322       19.0931549560
 $end
$$$$
! Edit this basic GAMESS input file as needed.
! Conformer was generated by a VeraChem VCPack run 
! and contains     22 atoms.
!
 $contrl scftyp=rhf runtyp=optimize nzvar=0
  maxit=200 icharg=0 $end
 $system mwords=50 $end
 $basis gbasis=pm3 $end
 $statpt nstep=200 $end
 $guess guess=huckel $end
 $data
VM2 Rank=4      G=-16.120           E=-35.794           -TS=19.673              
C1
C    6.0       19.9961375301       19.0328147016       25.9874446370
O    8.0       20.3223764105       20.0799999662       26.5103614992
O    8.0       20.4207300031       17.9476405406       26.3317895030
C    6.0       19.0154580881       19.0852736157       24.8213227035
H    1.0       18.3317676623       19.9261493870       24.9889902594
H    1.0       18.4134351915       18.1688473453       24.8408349108
C    6.0       19.7191220506       19.2327413359       23.4496803562
H    1.0       20.3245393210       20.1496780781       23.4494195479
H    1.0       20.4115993570       18.3915515989       23.3142419080
C    6.0       18.7021906457       19.2786733192       22.2857210867
H    1.0       17.9735714677       20.0776872591       22.4797609609
H    1.0       18.1326684383       18.3397372509       22.2536027524
C    6.0       19.3549594798       19.5356517856       20.9068048408
H    1.0       18.5570140314       19.6777487298       20.1651736219
H    1.0       19.9214668425       20.4764321411       20.9373445889
C    6.0       20.2767267752       18.3874699498       20.4374320873
H    1.0       19.7250126244       17.4375112669       20.4573047756
H    1.0       21.1264169554       18.2793375089       21.1242308303
C    6.0       20.8122990169       18.6387347853       19.0134432863
H    1.0       21.4672201011       17.8169264326       18.6959868477
H    1.0       21.3921210461       19.5700705571       18.9709591998
H    1.0       19.9889375752       18.7139806769       18.2911061284
 $end
$$$$
! Edit this basic GAMESS input file as needed.
! Conformer was generated by a VeraChem VCPack run 
! and contains     22 atoms.
!
 $contrl scftyp=rhf runtyp=optimize nzvar=0
  maxit=200 icharg=0 $end
 $system mwords=50 $end
 $basis gbasis=pm3 $end
 $statpt nstep=200 $end
 $guess guess=huckel $end
 $data
VM2 Rank=5      G=-16.086           E=-35.759           -TS=19.673              
C1
C    6.0       19.6004948441       19.0271995864       25.9802646595
O    8.0       19.2261116482       20.0644380775       26.4906033880
O    8.0       19.1950518010       17.9302126181       26.3099451747
C    6.0       20.6206496591       19.1080514100       24.8501874596
H    1.0       21.2473394963       18.2090651463       24.8918293468
H    1.0       21.2737281380       19.9678998552       25.0419318182
C    6.0       19.9629311470       19.2361897762       23.4540214016
H    1.0       19.2999583597       18.3757363140       23.2941605534
H    1.0       19.3321103420       20.1355577446       23.4314946898
C    6.0       21.0194060734       19.3115918026       22.3274157236
H    1.0       21.6161629209       18.3892331396       22.3163171322
H    1.0       21.7175700262       20.1308860811       22.5471584721
C    6.0       20.4096927408       19.5506107918       20.9257453169
H    1.0       19.8160702756       20.4749764754       20.9353298862
H    1.0       21.2294828449       19.7155510309       20.2132390865
C    6.0       19.5382593307       18.3770267629       20.4241520835
H    1.0       18.6677880194       18.2446064416       21.0799742560
H    1.0       20.1155400335       17.4430406444       20.4644214127
C    6.0       19.0474027557       18.6136791745       18.9816647925
H    1.0       18.4278106256       17.7738330641       18.6413233605
H    1.0       19.8937723054       18.7124749659       18.2893831948
H    1.0       18.4434030142       19.5282774315       18.9177991880
 $end
$$$$
! Edit this basic GAMESS input file as needed.
! Conformer was generated by a VeraChem VCPack run 
! and contains     22 atoms.
!
 $contrl scftyp=rhf runtyp=optimize nzvar=0
  maxit=200 icharg=0 $end
 $system mwords=50 $end
 $basis gbasis=pm3 $end
 $statpt nstep=200 $end
 $guess guess=huckel $end
 $data
VM2 Rank=6      G=-16.038           E=-35.715           -TS=19.677              
C1
C    6.0       19.7328768543       19.2233293897       26.0947093622
O    8.0       20.1387625106       20.2915113192       26.5078617863
O    8.0       19.7906745694       18.1897216593       26.7309251509
C    6.0       19.1378872871       19.1729813848       24.6919747612
H    1.0       18.6464063273       20.1334827907       24.4956596575
H    1.0       18.3585274555       18.4015574650       24.6798553618
C    6.0       20.1959336161       18.8808821354       23.5995601744
H    1.0       20.9753561271       19.6547901173       23.6329587067
H    1.0       20.6878087286       17.9228796843       23.8181948828
C    6.0       19.5686629248       18.8350790010       22.1893188334
H    1.0       19.0741569611       19.7935050810       21.9842611880
H    1.0       18.7915857503       18.0591655584       22.1582737687
C    6.0       20.6294794206       18.5471463900       21.1021094746
H    1.0       21.3808641916       19.3485982573       21.0964619139
H    1.0       21.1632336708       17.6220921089       21.3596276807
C    6.0       20.0305851614       18.3899542692       19.6850958052
H    1.0       19.2830563033       17.5846526187       19.6853361940
H    1.0       20.8278443158       18.0728819613       18.9987439683
C    6.0       19.3951376556       19.6883944515       19.1424446518
H    1.0       18.5178490672       19.9821149463       19.7321872357
H    1.0       19.0660861283       19.5498582034       18.1044411109
H    1.0       20.1159909035       20.5161426222       19.1608318475
 $end
$$$$
! Edit this basic GAMESS input file as needed.
! Conformer was generated by a VeraChem VCPack run 
! and contains     22 atoms.
!
 $contrl scftyp=rhf runtyp=optimize nzvar=0
  maxit=200 icharg=0 $end
 $system mwords=50 $end
 $basis gbasis=pm3 $end
 $statpt nstep=200 $end
 $guess guess=huckel $end
 $data
VM2 Rank=7      G=-16.007           E=-35.684           -TS=19.677              
C1
C    6.0       19.7434301798       19.0279185979       26.1022065210
O    8.0       19.6870082553       20.1073104569       26.6573516525
O    8.0       20.2602127420       18.0443318090       26.5940849133
C    6.0       19.1522944137       18.9066302335       24.7021873044
H    1.0       18.2945392727       19.5865562005       24.6343564686
H    1.0       18.7677923394       17.8866613434       24.5818666610
C    6.0       20.1772998706       19.2264953783       23.5863028047
H    1.0       20.5624470118       20.2456993526       23.7291136311
H    1.0       21.0352489361       18.5456725204       23.6754733490
C    6.0       19.5545345596       19.0967916765       22.1792924081
H    1.0       18.6986480472       19.7799838323       22.0923384037
H    1.0       19.1668219824       18.0779013888       22.0500378320
C    6.0       20.5826707981       19.4133220371       21.0688883099
H    1.0       21.0127681027       20.4073633400       21.2528252219
H    1.0       21.4159192229       18.6992594649       21.1213057306
C    6.0       19.9761277507       19.3965560412       19.6465206445
H    1.0       20.7374019102       19.7443435055       18.9346644569
H    1.0       19.1462339670       20.1143398570       19.5884444882
C    6.0       19.4864214303       17.9996437697       19.2071654416
H    1.0       20.2921560487       17.2581765939       19.2856022738
H    1.0       19.1485631292       18.0223455325       18.1630130289
H    1.0       18.6434969289       17.6589932479       19.8212812306
 $end
$$$$
! Edit this basic GAMESS input file as needed.
! Conformer was generated by a VeraChem VCPack run 
! and contains     22 atoms.
!
 $contrl scftyp=rhf runtyp=optimize nzvar=0
  maxit=200 icharg=0 $end
 $system mwords=50 $end
 $basis gbasis=pm3 $end
 $statpt nstep=200 $end
 $guess guess=huckel $end
 $data
VM2 Rank=8      G=-15.555           E=-35.435           -TS=19.880              
C1
C    6.0       19.9959529539       19.0180741429       25.8023067398
O    8.0       20.5946472347       19.9817661966       26.2379268674
O    8.0       20.3756965550       17.8719605373       25.9401921961
C    6.0       18.6863141211       19.2616978664       25.0575758628
H    1.0       18.1021163087       19.9779633504       25.6472512296
H    1.0       18.1150188037       18.3256663530       25.0383356574
C    6.0       18.8715166518       19.8057692813       23.6172008058
H    1.0       17.8886763787       20.0804906240       23.2108819536
H    1.0       19.4689489792       20.7275216045       23.6503533054
C    6.0       19.5430969500       18.7803479529       22.6764168910
H    1.0       18.9492372464       17.8562425407       22.6570565977
H    1.0       20.5347072164       18.5133743738       23.0673677485
C    6.0       19.6887104377       19.3307995423       21.2414083104
H    1.0       18.6980559396       19.5958244577       20.8471702538
H    1.0       20.2826889367       20.2548619054       21.2615993481
C    6.0       20.3600077380       18.3076253454       20.3014524153
H    1.0       19.7677639907       17.3823485826       20.2775165711
H    1.0       21.3522087606       18.0415756134       20.6916550006
C    6.0       20.5040573578       18.8609591349       18.8695199114
H    1.0       19.5227148187       19.1061460493       18.4426165644
H    1.0       20.9830004610       18.1209888158       18.2151942130
H    1.0       21.1190845427       19.7703818453       18.8599078056
 $end
