$$$$
! Edit this basic GAMESS input file as needed.
! Conformer was generated by a VeraChem VCPack run 
! and contains     22 atoms.
!
 $contrl scftyp=rhf runtyp=optimize nzvar=0
  maxit=200 icharg=0 $end
 $system mwords=50 $end
 $basis gbasis=pm3 $end
 $statpt nstep=200 $end
 $guess guess=huckel $end
 $data
VM2 Rank=1      G=47.363            E=20.694            -TS=26.668              
C1
C    6.0       19.8825252045       19.0489961709       20.9026225290
H    1.0       20.8932135458       19.1566257931       20.4858437994
H    1.0       19.2823836377       18.5760019784       20.1133817467
C    6.0       19.2916697836       20.4492614150       21.1835927212
H    1.0       19.3609836687       21.0411791138       20.2607570826
H    1.0       18.2185233541       20.3558370353       21.3989894515
C    6.0       19.9805954058       21.2344399334       22.3249305397
H    1.0       19.6223690977       22.2719649467       22.2799320222
H    1.0       21.0669508809       21.2803239109       22.1687637493
C    6.0       19.6466610024       20.6732505397       23.7282604264
H    1.0       19.7185496380       21.4904596134       24.4577389327
H    1.0       18.5973757834       20.3506655032       23.7486879429
C    6.0       20.5644117551       19.5312991186       24.2234457626
H    1.0       21.4771165248       19.9849295748       24.6358524019
C    6.0       21.0067858607       18.5018370322       23.1577936613
H    1.0       21.8883621576       18.8894412383       22.6311695423
H    1.0       21.3563892619       17.5990949583       23.6766479530
C    6.0       19.9264620986       18.1000521340       22.1234766359
H    1.0       20.1660140263       17.0930967223       21.7554908529
H    1.0       18.9371037728       18.0248416534       22.5939575541
O    8.0       19.8868888894       18.8388636562       25.2628777239
H    1.0       19.1421611331       18.3715454112       24.8327034917
 $end
$$$$
! Edit this basic GAMESS input file as needed.
! Conformer was generated by a VeraChem VCPack run 
! and contains     22 atoms.
!
 $contrl scftyp=rhf runtyp=optimize nzvar=0
  maxit=200 icharg=0 $end
 $system mwords=50 $end
 $basis gbasis=pm3 $end
 $statpt nstep=200 $end
 $guess guess=huckel $end
 $data
VM2 Rank=2      G=47.376            E=20.708            -TS=26.668              
C1
C    6.0       19.9466737291       19.0636930104       20.8954018464
H    1.0       20.5100246390       18.8571217569       19.9752072646
H    1.0       18.9251719949       18.7059897673       20.7073480065
C    6.0       19.9226131023       20.5937390852       21.1125909597
H    1.0       20.9502724237       20.9813513910       21.0915894563
H    1.0       19.4122688930       21.0529296341       20.2549837009
C    6.0       19.2214584708       21.0606142642       22.4103521133
H    1.0       18.2151633914       20.6273246180       22.4896656270
H    1.0       19.0802820571       22.1478393842       22.3409292985
C    6.0       20.0523907366       20.7661561754       23.6826050694
H    1.0       21.1164366873       20.9275092695       23.4652367959
H    1.0       19.7920260990       21.5072795210       24.4494717624
C    6.0       19.8424796387       19.3659797259       24.3046756970
H    1.0       18.9334087292       19.4024425147       24.9220485449
C    6.0       19.6717028738       18.1960910626       23.3080308203
H    1.0       19.8626891072       17.2570273540       23.8447403501
H    1.0       18.6199463945       18.1409263917       22.9989800182
C    6.0       20.5741519786       18.2483699727       22.0505757342
H    1.0       20.7191167926       17.2197570936       21.6932251727
H    1.0       21.5743212051       18.6287600629       22.2971611736
O    8.0       20.9545294700       19.0833567036       25.1427677596
H    1.0       21.7182715225       18.9613988258       24.5428674297
 $end
$$$$
! Edit this basic GAMESS input file as needed.
! Conformer was generated by a VeraChem VCPack run 
! and contains     22 atoms.
!
 $contrl scftyp=rhf runtyp=optimize nzvar=0
  maxit=200 icharg=0 $end
 $system mwords=50 $end
 $basis gbasis=pm3 $end
 $statpt nstep=200 $end
 $guess guess=huckel $end
 $data
VM2 Rank=3      G=47.387            E=20.718            -TS=26.668              
C1
C    6.0       19.6680745464       19.0240229898       20.9215402269
H    1.0       19.9307903787       18.8838000872       19.8641307634
H    1.0       18.7047503238       18.5146151562       21.0603810488
C    6.0       19.4894597076       20.5379533317       21.1763022464
H    1.0       20.3873261201       21.0730358297       20.8382119791
H    1.0       18.6694425225       20.8979952292       20.5401139281
C    6.0       19.1809712551       20.9230976774       22.6423879436
H    1.0       18.3220334312       20.3539204162       23.0219970021
H    1.0       18.8759223122       21.9783606128       22.6534915065
C    6.0       20.4079875293       20.7691556622       23.5746316450
H    1.0       21.3173415982       21.0517470886       23.0287717267
H    1.0       20.3268943894       21.4969221388       24.3932613839
C    6.0       20.6080375889       19.3660730847       24.1930548524
H    1.0       21.6588192254       19.2969520081       24.5092348566
C    6.0       20.3091094840       18.1641529681       23.2670139879
H    1.0       20.8270872321       17.2915876379       23.6858997501
H    1.0       19.2398148928       17.9173573467       23.3013295263
C    6.0       20.7460222451       18.3355412539       21.7920531597
H    1.0       20.9255804369       17.3362051341       21.3726546141
H    1.0       21.7033556687       18.8701230263       21.7257658458
O    8.0       19.7763376437       19.2580030322       25.3400159380
H    1.0       18.8641982387       19.4246037616       25.0264843703
 $end
$$$$
! Edit this basic GAMESS input file as needed.
! Conformer was generated by a VeraChem VCPack run 
! and contains     22 atoms.
!
 $contrl scftyp=rhf runtyp=optimize nzvar=0
  maxit=200 icharg=0 $end
 $system mwords=50 $end
 $basis gbasis=pm3 $end
 $statpt nstep=200 $end
 $guess guess=huckel $end
 $data
VM2 Rank=4      G=47.468            E=20.454            -TS=27.013              
C1
C    6.0       19.7402499005       19.1254756364       21.1084108940
H    1.0       18.6439762542       19.1064512816       21.1740292136
H    1.0       19.9846855789       18.8847069309       20.0647537647
C    6.0       20.2868665188       20.5400830409       21.4077161022
H    1.0       21.3708882343       20.4837644494       21.5722180777
H    1.0       20.1678792269       21.1592622455       20.5078785288
C    6.0       19.6109816898       21.2856713650       22.5862531441
H    1.0       18.7756921212       21.8784680579       22.1889978480
H    1.0       20.3234493946       22.0193626146       22.9880029320
C    6.0       19.0582485131       20.4212643209       23.7517951513
H    1.0       18.8283085626       21.0908529315       24.5907110116
H    1.0       18.0930227462       19.9918456377       23.4536422256
C    6.0       19.9654453933       19.2855682737       24.2782617670
H    1.0       19.6347023994       19.0499235775       25.3000059608
C    6.0       19.8361200563       17.9838148149       23.4554727206
H    1.0       20.3635816310       17.1852639388       23.9933808150
H    1.0       18.7808722926       17.6817579979       23.4389025646
C    6.0       20.3680352892       18.0290444344       22.0015769029
H    1.0       21.4613413117       18.1344823667       22.0081021180
H    1.0       20.1686792695       17.0523330424       21.5400542006
O    8.0       21.3200526390       19.7070781137       24.3175133181
H    1.0       21.5129402539       19.9760192489       23.3973237050
 $end
$$$$
! Edit this basic GAMESS input file as needed.
! Conformer was generated by a VeraChem VCPack run 
! and contains     22 atoms.
!
 $contrl scftyp=rhf runtyp=optimize nzvar=0
  maxit=200 icharg=0 $end
 $system mwords=50 $end
 $basis gbasis=pm3 $end
 $statpt nstep=200 $end
 $guess guess=huckel $end
 $data
VM2 Rank=5      G=47.469            E=20.455            -TS=27.013              
C1
C    6.0       20.5279989224       19.1753249730       21.1957193831
H    1.0       21.5420062854       19.5246335117       21.4304714817
H    1.0       20.5752090793       18.8500203950       20.1472933923
C    6.0       19.5412025317       20.3605820695       21.3000349083
H    1.0       19.6479928171       20.9676990711       20.3906695634
H    1.0       18.5015639243       20.0061862146       21.3062919653
C    6.0       19.8206285436       21.2800212724       22.5127068162
H    1.0       19.2962522375       22.2317942638       22.3518668575
H    1.0       20.8885764642       21.5342293234       22.5493537868
C    6.0       19.3680480587       20.7148672645       23.8818532856
H    1.0       19.6329248988       21.4407570958       24.6617049513
H    1.0       18.2721598470       20.6525459500       23.8962223167
C    6.0       19.9472830395       19.3404416727       24.2864668372
H    1.0       19.6041259052       19.1402831291       25.3116796562
C    6.0       19.4327521053       18.1862961874       23.3958596729
H    1.0       19.4689907266       17.2597778795       23.9834420617
H    1.0       18.3682832707       18.3515675223       23.1847992860
C    6.0       20.1823241506       17.9357554993       22.0592307724
H    1.0       21.1106818549       17.3849298341       22.2643105112
H    1.0       19.5662659766       17.2538664900       21.4572118937
O    8.0       21.3657626482       19.3847110611       24.2751283243
H    1.0       21.5938804496       19.4801855244       23.3290149245
 $end
$$$$
! Edit this basic GAMESS input file as needed.
! Conformer was generated by a VeraChem VCPack run 
! and contains     22 atoms.
!
 $contrl scftyp=rhf runtyp=optimize nzvar=0
  maxit=200 icharg=0 $end
 $system mwords=50 $end
 $basis gbasis=pm3 $end
 $statpt nstep=200 $end
 $guess guess=huckel $end
 $data
VM2 Rank=6      G=47.470            E=20.456            -TS=27.013              
C1
C    6.0       19.9765664530       19.1866028346       21.0729384804
H    1.0       20.9199889772       19.6951373224       20.8324586441
H    1.0       19.5990475709       18.7849710471       20.1226173210
C    6.0       18.9304405856       20.1892496240       21.6112694208
H    1.0       18.4879806799       20.7247705838       20.7599797466
H    1.0       18.0964313650       19.6368374065       22.0636028385
C    6.0       19.4660349689       21.2481768548       22.6080067861
H    1.0       18.6328283286       21.5820763498       23.2417189714
H    1.0       19.7732747066       22.1364903611       22.0392963619
C    6.0       20.6595948384       20.8354409101       23.5114794956
H    1.0       21.5881316495       20.8958377275       22.9291322958
H    1.0       20.7649642009       21.5917560896       24.3000777703
C    6.0       20.5856306806       19.4459745497       24.1851912720
H    1.0       21.2554763837       19.4691245771       25.0567711111
C    6.0       21.0851423142       18.3068634473       23.2680306228
H    1.0       22.1060339306       18.5417663575       22.9399107445
H    1.0       21.1716127486       17.3942576752       23.8721143096
C    6.0       20.2185236657       17.9903780794       22.0240038463
H    1.0       20.7217752563       17.1953922112       21.4570414715
H    1.0       19.2564207289       17.5641980051       22.3389736262
O    8.0       19.2640664936       19.1753137001       24.6260800760
H    1.0       18.7216065973       19.2540750944       23.8162545340
 $end
$$$$
! Edit this basic GAMESS input file as needed.
! Conformer was generated by a VeraChem VCPack run 
! and contains     22 atoms.
!
 $contrl scftyp=rhf runtyp=optimize nzvar=0
  maxit=200 icharg=0 $end
 $system mwords=50 $end
 $basis gbasis=pm3 $end
 $statpt nstep=200 $end
 $guess guess=huckel $end
 $data
VM2 Rank=7      G=47.498            E=20.485            -TS=27.013              
C1
C    6.0       19.2811188683       18.8974044917       21.3797371325
H    1.0       19.0867314484       18.5182471424       20.3669678175
H    1.0       18.3217080982       18.8068591363       21.9057297922
C    6.0       19.6718999066       20.3897098329       21.2807487372
H    1.0       20.7220322678       20.5011013405       20.9785931236
H    1.0       19.0762560424       20.8402651062       20.4750521805
C    6.0       19.3812855638       21.1820783915       22.5775583574
H    1.0       18.3601424797       20.9705979800       22.9225524252
H    1.0       19.3953653877       22.2538816896       22.3372465481
C    6.0       20.3858505085       20.9417333398       23.7316271118
H    1.0       21.3654253341       21.3420389703       23.4396508520
H    1.0       20.0691519320       21.5379872899       24.5973216806
C    6.0       20.5672213693       19.4786232625       24.1949639223
H    1.0       21.2303504186       19.5027549702       25.0716383890
C    6.0       21.2479098530       18.5908977740       23.1279196070
H    1.0       22.0434417820       19.1707673044       22.6422888758
H    1.0       21.7639016814       17.7713181861       23.6446807206
C    6.0       20.3342814319       17.9696263517       22.0368155710
H    1.0       19.8154090584       17.0962763915       22.4555572171
H    1.0       20.9859706873       17.5702439264       21.2476886409
O    8.0       19.3164324986       18.9279265559       24.5776295608
H    1.0       18.8182946316       18.8616780552       23.7387289284
 $end
$$$$
! Edit this basic GAMESS input file as needed.
! Conformer was generated by a VeraChem VCPack run 
! and contains     22 atoms.
!
 $contrl scftyp=rhf runtyp=optimize nzvar=0
  maxit=200 icharg=0 $end
 $system mwords=50 $end
 $basis gbasis=pm3 $end
 $statpt nstep=200 $end
 $guess guess=huckel $end
 $data
VM2 Rank=8      G=47.628            E=20.970            -TS=26.658              
C1
C    6.0       19.8710046272       19.1040743951       20.8414742029
H    1.0       18.8001387021       18.9296182930       20.6691945287
H    1.0       20.3617195103       18.9261588863       19.8748357895
C    6.0       20.0921840589       20.5825360320       21.2421457769
H    1.0       21.1479742777       20.7714791140       21.4792434668
H    1.0       19.8618443822       21.2034935862       20.3656368960
C    6.0       19.1751391465       21.0346613413       22.4024663432
H    1.0       18.1926486247       20.5540112334       22.3001861516
H    1.0       18.9860038836       22.1127149134       22.3080775120
C    6.0       19.7368181348       20.7695763441       23.8215268074
H    1.0       20.4182083946       21.5886202712       24.0858867573
H    1.0       18.9026546598       20.8273413564       24.5337794827
C    6.0       20.4966259581       19.4386866430       24.0270703073
H    1.0       21.5262919967       19.5657287653       23.6631001766
C    6.0       19.8776816163       18.2249631288       23.2989288321
H    1.0       20.1402538042       17.3143637306       23.8538914090
H    1.0       18.7819113135       18.2858276271       23.3108760362
C    6.0       20.4028385006       18.0614196016       21.8514785858
H    1.0       21.5011597375       18.0855728631       21.8568250582
H    1.0       20.1269517820       17.0616352844       21.4894646705
O    8.0       20.5337079576       19.1620825141       25.4219091443
H    1.0       20.9743173753       19.9261167666       25.8495782695
 $end
