$$$$
! Edit this basic GAMESS input file as needed.
! Conformer was generated by a VeraChem VCPack run 
! and contains     20 atoms.
!
 $contrl scftyp=rhf runtyp=optimize nzvar=0
  maxit=200 icharg=0 $end
 $system mwords=50 $end
 $basis gbasis=pm3 $end
 $statpt nstep=200 $end
 $guess guess=huckel $end
 $data
VM2 Rank=1      G=2.706             E=-20.181           -TS=22.887              
C1
N    7.0       20.3911663402       20.1731483829       24.1279802710
H    1.0       20.3063802426       20.4446670607       25.1112127726
H    1.0       20.0070206992       20.9379704278       23.5675693525
H    1.0       21.3895344459       20.1069644387       23.9148473525
C    6.0       19.6810971866       18.8752327523       23.8517870294
H    1.0       18.6271209421       19.0338455476       24.1005077244
C    6.0       20.2261220846       17.7582199856       24.7568850270
H    1.0       19.6672736250       16.8262565573       24.6059793444
H    1.0       20.1318550340       18.0342693209       25.8143231119
H    1.0       21.2848024122       17.5590565521       24.5487434576
C    6.0       19.7688799726       18.4547377723       22.3680010519
H    1.0       20.8204557274       18.3118465766       22.0857141883
H    1.0       19.2772395841       17.4802805554       22.2463860455
C    6.0       19.1036028924       19.4719625625       21.4097862160
H    1.0       19.6147154536       20.4422187404       21.4713856212
H    1.0       18.0612878210       19.6412403027       21.7150175208
C    6.0       19.1341315236       18.9806985444       19.9465604047
H    1.0       18.5958960110       18.0301587283       19.8369806868
H    1.0       20.1655807236       18.8310974455       19.6016141102
H    1.0       18.6599517876       19.7140267037       19.2813783403
 $end
$$$$
! Edit this basic GAMESS input file as needed.
! Conformer was generated by a VeraChem VCPack run 
! and contains     20 atoms.
!
 $contrl scftyp=rhf runtyp=optimize nzvar=0
  maxit=200 icharg=0 $end
 $system mwords=50 $end
 $basis gbasis=pm3 $end
 $statpt nstep=200 $end
 $guess guess=huckel $end
 $data
VM2 Rank=2      G=3.182             E=-19.721           -TS=22.903              
C1
N    7.0       20.6729312994       20.0593692726       24.6125188040
H    1.0       20.4990345574       19.9950299637       25.6191461454
H    1.0       20.5583440147       21.0416855298       24.3483505463
H    1.0       21.6536149207       19.8127419863       24.4570840698
C    6.0       19.7478194863       19.1634156235       23.8354091739
H    1.0       18.7310357499       19.4974451985       24.0644067382
C    6.0       19.8976924252       17.7048140333       24.3053267598
H    1.0       19.7834981998       17.6360377015       25.3941113293
H    1.0       20.8831100239       17.3015594482       24.0409077151
H    1.0       19.1314575317       17.0607306884       23.8589371067
C    6.0       19.9739471849       19.3115645468       22.3127760041
H    1.0       19.9614527941       20.3805284991       22.0621314754
H    1.0       20.9742889781       18.9427099695       22.0498866641
C    6.0       18.9090435272       18.5920656248       21.4493714145
H    1.0       17.9039193662       18.9146402699       21.7555447583
H    1.0       18.9580744991       17.5067973636       21.6096480638
C    6.0       19.1035660769       18.8827708989       19.9455978436
H    1.0       18.3432453536       18.3625441730       19.3486347063
H    1.0       20.0900947690       18.5447069780       19.6024739236
H    1.0       19.0183658864       19.9569874126       19.7357485114
 $end
$$$$
! Edit this basic GAMESS input file as needed.
! Conformer was generated by a VeraChem VCPack run 
! and contains     20 atoms.
!
 $contrl scftyp=rhf runtyp=optimize nzvar=0
  maxit=200 icharg=0 $end
 $system mwords=50 $end
 $basis gbasis=pm3 $end
 $statpt nstep=200 $end
 $guess guess=huckel $end
 $data
VM2 Rank=3      G=3.270             E=-19.759           -TS=23.029              
C1
N    7.0       20.2984457098       20.2325972884       24.2273365191
H    1.0       19.6669632166       21.0309520783       24.1197625201
H    1.0       21.0732262156       20.3631948887       23.5730379060
H    1.0       20.6864912497       20.2776904975       25.1734017385
C    6.0       19.5878502995       18.9286398329       23.9851899908
H    1.0       18.7946656223       18.8720138969       24.7373027597
C    6.0       20.5307269313       17.7340664615       24.2150200418
H    1.0       20.0095381274       16.7855456630       24.0357371299
H    1.0       20.8912892779       17.7239181841       25.2508657749
H    1.0       21.4064076489       17.7751667487       23.5565846714
C    6.0       18.9067566277       18.8735655601       22.5966185859
H    1.0       18.3345317576       17.9394430034       22.5210560814
H    1.0       18.1684156191       19.6841480297       22.5399088934
C    6.0       19.8731982874       18.9806763133       21.3887849635
H    1.0       20.5884223928       18.1473941429       21.3991966691
H    1.0       20.4607883407       19.9062251197       21.4540508652
C    6.0       19.1080221443       18.9644545438       20.0480498989
H    1.0       18.5353242179       18.0351717735       19.9311173266
H    1.0       19.8047795495       19.0386712414       19.2030129330
H    1.0       18.4082715221       19.8077734314       19.9818330145
 $end
$$$$
! Edit this basic GAMESS input file as needed.
! Conformer was generated by a VeraChem VCPack run 
! and contains     20 atoms.
!
 $contrl scftyp=rhf runtyp=optimize nzvar=0
  maxit=200 icharg=0 $end
 $system mwords=50 $end
 $basis gbasis=pm3 $end
 $statpt nstep=200 $end
 $guess guess=huckel $end
 $data
VM2 Rank=4      G=3.362             E=-19.713           -TS=23.076              
C1
N    7.0       20.0484605754       20.2198152302       23.9724094918
H    1.0       19.5919457398       20.5336019120       24.8330333474
H    1.0       19.7980174513       20.8827399522       23.2343821957
H    1.0       21.0584386024       20.2893048313       24.1191574323
C    6.0       19.6392934070       18.8178816651       23.6100050019
H    1.0       18.5536232564       18.8318998083       23.4749008716
C    6.0       19.9662503159       17.8439105780       24.7536792414
H    1.0       19.4769374441       18.1585778927       25.6836222832
H    1.0       21.0469210503       17.7934884705       24.9363344279
H    1.0       19.6122207889       16.8326976148       24.5175999264
C    6.0       20.2855236534       18.3357419933       22.2913286844
H    1.0       21.3763227607       18.2989958846       22.4123339091
H    1.0       19.9643933187       17.3046326315       22.0922908181
C    6.0       19.9415060708       19.2098884267       21.0586804200
H    1.0       20.4476713428       18.7914092753       20.1774461716
H    1.0       20.3465390932       20.2229320818       21.1861878136
C    6.0       18.4239659775       19.2867621067       20.7748971604
H    1.0       18.2330978124       19.8549704545       19.8552356819
H    1.0       17.8843161804       19.7857746693       21.5895531919
H    1.0       17.9959590569       18.2844015123       20.6435127986
 $end
$$$$
! Edit this basic GAMESS input file as needed.
! Conformer was generated by a VeraChem VCPack run 
! and contains     20 atoms.
!
 $contrl scftyp=rhf runtyp=optimize nzvar=0
  maxit=200 icharg=0 $end
 $system mwords=50 $end
 $basis gbasis=pm3 $end
 $statpt nstep=200 $end
 $guess guess=huckel $end
 $data
VM2 Rank=5      G=3.525             E=-19.636           -TS=23.161              
C1
N    7.0       20.3129045772       20.0923573921       24.6251283004
H    1.0       20.3189016715       21.0660902181       24.3094762475
H    1.0       21.2797897228       19.8326954972       24.8358274867
H    1.0       19.7915386573       20.0631410773       25.5054466601
C    6.0       19.7071382459       19.1784425915       23.5954740059
H    1.0       18.6822242788       19.5284178298       23.4400200348
C    6.0       19.6524873363       17.7346089844       24.1269436442
H    1.0       19.1506831742       17.7000454461       25.1016909746
H    1.0       20.6599175762       17.3175163405       24.2478032209
H    1.0       19.0895123638       17.0824243199       23.4492661514
C    6.0       20.4627566264       19.2735794796       22.2484703563
H    1.0       20.5389187991       20.3308540514       21.9622962723
H    1.0       21.4934527852       18.9200842247       22.3842669985
C    6.0       19.8115705161       18.4968177683       21.0755676203
H    1.0       19.8398853258       17.4164011617       21.2709381417
H    1.0       20.4158451716       18.6538689085       20.1711191225
C    6.0       18.3581426980       18.9381937840       20.7894160728
H    1.0       17.9648441947       18.4175317101       19.9066678749
H    1.0       18.3042819579       20.0170267531       20.5935175411
H    1.0       17.6936207813       18.7083926763       21.6318328957
 $end
$$$$
! Edit this basic GAMESS input file as needed.
! Conformer was generated by a VeraChem VCPack run 
! and contains     20 atoms.
!
 $contrl scftyp=rhf runtyp=optimize nzvar=0
  maxit=200 icharg=0 $end
 $system mwords=50 $end
 $basis gbasis=pm3 $end
 $statpt nstep=200 $end
 $guess guess=huckel $end
 $data
VM2 Rank=6      G=5.472             E=-17.433           -TS=22.906              
C1
N    7.0       20.4415533890       20.1738754201       23.6449527078
H    1.0       20.1631714116       20.7487516424       22.8468276531
H    1.0       21.4468849132       20.0034154459       23.5635409362
H    1.0       20.2927664217       20.7282277592       24.4924212679
C    6.0       19.6680552431       18.8841791497       23.6853198091
H    1.0       18.6138584651       19.1448096023       23.8212514686
C    6.0       20.1156733952       18.0452603642       24.8942908436
H    1.0       19.5055706425       17.1383210356       24.9885283536
H    1.0       20.0059496020       18.6152796459       25.8250832467
H    1.0       21.1660928346       17.7424720426       24.8004924109
C    6.0       19.8014789612       18.0636429996       22.3802702100
H    1.0       20.8562912606       18.0048039551       22.0811334348
H    1.0       19.4895201162       17.0303888046       22.5831283729
C    6.0       18.9386716530       18.5775817428       21.1978830119
H    1.0       17.8791818765       18.5887408882       21.4901021790
H    1.0       19.0177975429       17.8521529727       20.3759828865
C    6.0       19.3395673586       19.9694603237       20.6582834176
H    1.0       18.8251683283       20.1703936807       19.7094393775
H    1.0       20.4194290699       20.0290176917       20.4694204647
H    1.0       19.0541184127       20.7693599998       21.3511871516
 $end
$$$$
! Edit this basic GAMESS input file as needed.
! Conformer was generated by a VeraChem VCPack run 
! and contains     20 atoms.
!
 $contrl scftyp=rhf runtyp=optimize nzvar=0
  maxit=200 icharg=0 $end
 $system mwords=50 $end
 $basis gbasis=pm3 $end
 $statpt nstep=200 $end
 $guess guess=huckel $end
 $data
VM2 Rank=7      G=5.931             E=-17.088           -TS=23.018              
C1
N    7.0       20.3127120714       19.9500456862       24.7197362985
H    1.0       21.3009689590       19.7331315594       24.8719491819
H    1.0       19.8274392892       19.7973099785       25.6079463755
H    1.0       20.2465484505       20.9492597021       24.5071552288
C    6.0       19.7250762300       19.1083951368       23.6193321929
H    1.0       18.6774911036       19.4122073667       23.5297553484
C    6.0       19.7756937213       17.6196452005       24.0105148528
H    1.0       19.3228843542       16.9852088595       23.2409398876
H    1.0       19.2279776469       17.4470273637       24.9450403322
H    1.0       20.8100129732       17.2845476797       24.1573463751
C    6.0       20.4197286833       19.3672753404       22.2596737445
H    1.0       20.9761001460       20.3123240283       22.3145033700
H    1.0       21.1721550396       18.5927661597       22.0596633296
C    6.0       19.4387977952       19.4784205518       21.0650192537
H    1.0       20.0116045490       19.7385857137       20.1638316793
H    1.0       18.7443196424       20.3129360937       21.2363817476
C    6.0       18.6329914987       18.1902180843       20.7867236576
H    1.0       19.2984752658       17.3275028791       20.6529972635
H    1.0       18.0393713846       18.2999786665       19.8698767259
H    1.0       17.9351870479       17.9693406175       21.6039826501
 $end
$$$$
! Edit this basic GAMESS input file as needed.
! Conformer was generated by a VeraChem VCPack run 
! and contains     20 atoms.
!
 $contrl scftyp=rhf runtyp=optimize nzvar=0
  maxit=200 icharg=0 $end
 $system mwords=50 $end
 $basis gbasis=pm3 $end
 $statpt nstep=200 $end
 $guess guess=huckel $end
 $data
VM2 Rank=8      G=5.948             E=-17.185           -TS=23.133              
C1
N    7.0       20.6494949265       19.8404601632       24.7412736110
H    1.0       20.5501881695       19.4723125533       25.6911267555
H    1.0       20.4667662583       20.8466309944       24.7864671967
H    1.0       21.6280640805       19.7186063310       24.4687969810
C    6.0       19.7192176613       19.1489400759       23.7825622851
H    1.0       18.7061554035       19.3280910727       24.1559387038
C    6.0       19.9722563559       17.6316914706       23.7961914958
H    1.0       19.1816221875       17.0970066066       23.2576609422
H    1.0       19.9764396449       17.2487621650       24.8240491239
H    1.0       20.9371915219       17.3847248358       23.3364504136
C    6.0       19.8242510428       19.7636489049       22.3653695584
H    1.0       19.6663752601       20.8458533880       22.4633556328
H    1.0       20.8437012777       19.6451274572       21.9749801264
C    6.0       18.7909483476       19.2269222087       21.3397715670
H    1.0       18.4773853694       20.0571338020       20.6912762794
H    1.0       17.8813648910       18.8880193500       21.8553001747
C    6.0       19.3488316659       18.1023371768       20.4358314828
H    1.0       18.5854995391       17.7708686382       19.7199862128
H    1.0       19.6645647487       17.2262178207       21.0131279227
H    1.0       20.2135066281       18.4557375991       19.8591484920
 $end
