$$$$
! Edit this basic GAMESS input file as needed.
! Conformer was generated by a VeraChem VCPack run 
! and contains     20 atoms.
!
 $contrl scftyp=rhf runtyp=optimize nzvar=0
  maxit=200 icharg=0 $end
 $system mwords=50 $end
 $basis gbasis=pm3 $end
 $statpt nstep=200 $end
 $guess guess=huckel $end
 $data
VM2 Rank=1      G=-21.889           E=-37.137           -TS=15.248              
C1
C    6.0       20.4454237220       18.0660379162       18.7398576739
H    1.0       20.6595780640       17.7973728081       17.7068289958
H    1.0       20.5833454147       17.2883051914       19.4879589734
C    6.0       20.0331335202       19.2995303656       19.0535873759
H    1.0       19.9134125778       20.0362167812       18.2594914264
C    6.0       19.6973270242       19.8196908812       20.4412756524
H    1.0       18.6644557886       20.1929188083       20.4377741610
H    1.0       20.3273507630       20.6941480828       20.6522924839
C    6.0       19.8604575764       18.7896733571       21.5833944294
H    1.0       19.2165686783       17.9209673413       21.3888632859
H    1.0       20.8975111063       18.4275826242       21.6056720578
C    6.0       19.5003679975       19.3965668487       22.9570871973
H    1.0       18.4637097129       19.7608412735       22.9413027728
H    1.0       20.1412047775       20.2664554278       23.1576555221
C    6.0       19.6629362325       18.3671102893       24.1024560090
H    1.0       19.0191726493       17.4973885991       23.9242553898
H    1.0       20.6966719564       18.0030571665       24.1406589189
C    6.0       19.3129407749       18.9429662709       25.4698914202
O    8.0       20.1971451027       19.4750336321       26.1115566461
O    8.0       18.1612680496       18.8613904390       25.8488935959
 $end
$$$$
! Edit this basic GAMESS input file as needed.
! Conformer was generated by a VeraChem VCPack run 
! and contains     20 atoms.
!
 $contrl scftyp=rhf runtyp=optimize nzvar=0
  maxit=200 icharg=0 $end
 $system mwords=50 $end
 $basis gbasis=pm3 $end
 $statpt nstep=200 $end
 $guess guess=huckel $end
 $data
VM2 Rank=2      G=-21.882           E=-36.774           -TS=14.892              
C1
C    6.0       19.7354229277       18.4518603257       18.2412541175
H    1.0       18.6525693146       18.3591501727       18.3077592796
H    1.0       20.2193658550       18.0462479983       17.3543755679
C    6.0       20.4462608693       19.0371655312       19.2086091973
H    1.0       21.5295868670       19.1190932899       19.1228707566
C    6.0       19.8446120108       19.6233303301       20.4664061132
H    1.0       18.7575256202       19.7331719254       20.3524625101
H    1.0       20.2484143206       20.6311868293       20.6316730898
C    6.0       20.1458302159       18.7373358351       21.6932463057
H    1.0       19.7434363053       17.7294159666       21.5211895397
H    1.0       21.2332402667       18.6313191850       21.8094497082
C    6.0       19.5410066481       19.3233377320       22.9875813040
H    1.0       18.4530780917       19.4285487451       22.8736865633
H    1.0       19.9425500479       20.3314440316       23.1610661485
C    6.0       19.8424788782       18.4339146922       24.2188501110
H    1.0       19.4361188658       17.4267091668       24.0671180189
H    1.0       20.9256505610       18.3295673107       24.3546906223
C    6.0       19.2549395787       18.9919503405       25.5101208033
O    8.0       19.9340858546       19.7574424248       26.1654303190
O    8.0       18.1263630167       18.6616627884       25.8165017292
 $end
$$$$
! Edit this basic GAMESS input file as needed.
! Conformer was generated by a VeraChem VCPack run 
! and contains     20 atoms.
!
 $contrl scftyp=rhf runtyp=optimize nzvar=0
  maxit=200 icharg=0 $end
 $system mwords=50 $end
 $basis gbasis=pm3 $end
 $statpt nstep=200 $end
 $guess guess=huckel $end
 $data
VM2 Rank=3      G=-21.824           E=-36.715           -TS=14.892              
C1
C    6.0       20.9236392905       18.8103534182       18.3944289575
H    1.0       20.9612056450       18.2700192075       17.4500228116
H    1.0       21.8310211882       19.3181576818       18.7175120706
C    6.0       19.8069160561       18.8442802991       19.1261556659
H    1.0       18.9095339638       18.3284692918       18.7851238589
C    6.0       19.6795049724       19.5734771792       20.4451157963
H    1.0       18.7667743692       20.1842519425       20.4405788035
H    1.0       20.5220853915       20.2653271995       20.5800534628
C    6.0       19.6336088799       18.5827901338       21.6271855398
H    1.0       18.7881562023       17.8938066350       21.4940828564
H    1.0       20.5468174630       17.9716665545       21.6248228132
C    6.0       19.5003177057       19.3110207124       22.9823336412
H    1.0       18.5874029726       19.9227253355       22.9862361208
H    1.0       20.3461301078       19.9993948900       23.1178752169
C    6.0       19.4549303516       18.3170323639       24.1688872027
H    1.0       18.6073592440       17.6304395775       24.0556871589
H    1.0       20.3661617222       17.7071650437       24.1871396528
C    6.0       19.3236538597       19.0127041043       25.5189967400
O    8.0       20.3414798731       19.3292303755       26.1025076384
O    8.0       18.2069490110       19.2371114136       25.9423888182
 $end
$$$$
! Edit this basic GAMESS input file as needed.
! Conformer was generated by a VeraChem VCPack run 
! and contains     20 atoms.
!
 $contrl scftyp=rhf runtyp=optimize nzvar=0
  maxit=200 icharg=0 $end
 $system mwords=50 $end
 $basis gbasis=pm3 $end
 $statpt nstep=200 $end
 $guess guess=huckel $end
 $data
VM2 Rank=4      G=-21.276           E=-36.308           -TS=15.033              
C1
C    6.0       19.2309936675       18.4038115209       18.7285029916
H    1.0       18.2506189876       18.2556268367       18.2789438521
H    1.0       20.0632607402       17.8372000130       18.3140286986
C    6.0       19.4012905605       19.2463476003       19.7506616081
H    1.0       18.5550974006       19.8059223228       20.1483098620
C    6.0       20.7333968235       19.5075122106       20.4207943723
H    1.0       20.8634888690       20.5851837205       20.5874162059
H    1.0       21.5500460537       19.1988908338       19.7541663902
C    6.0       20.8757840580       18.7515208280       21.7610403438
H    1.0       20.7291057974       17.6760127422       21.5905236626
H    1.0       21.9036781602       18.8742997746       22.1287880708
C    6.0       19.8878446919       19.2503521849       22.8404800194
H    1.0       18.8540081451       19.0972295756       22.5022217835
H    1.0       20.0179679502       20.3309733677       22.9910950688
C    6.0       20.0916945091       18.5177658536       24.1894884780
H    1.0       19.9532089321       17.4378599092       24.0582107335
H    1.0       21.1144361716       18.6718714022       24.5538847916
C    6.0       19.1275876998       18.9910230728       25.2714199951
O    8.0       19.4622609025       19.9294183022       25.9671994383
O    8.0       18.0601470872       18.4202484268       25.3784127533
 $end
$$$$
! Edit this basic GAMESS input file as needed.
! Conformer was generated by a VeraChem VCPack run 
! and contains     20 atoms.
!
 $contrl scftyp=rhf runtyp=optimize nzvar=0
  maxit=200 icharg=0 $end
 $system mwords=50 $end
 $basis gbasis=pm3 $end
 $statpt nstep=200 $end
 $guess guess=huckel $end
 $data
VM2 Rank=5      G=-21.252           E=-36.284           -TS=15.032              
C1
C    6.0       21.2428243362       19.0104560832       18.9879714938
H    1.0       20.9772599044       18.1128275766       18.4318746208
H    1.0       22.2181651726       19.4520120020       18.7906496224
C    6.0       20.4087919070       19.5500973332       19.8806389521
H    1.0       20.6932897090       20.4506683213       20.4240748005
C    6.0       19.0371077136       18.9960153950       20.2019940326
H    1.0       18.7023844621       18.3402283447       19.3868514375
H    1.0       18.3066988101       19.8142276283       20.2576145969
C    6.0       19.0218019498       18.1924874719       21.5219034814
H    1.0       18.0410300320       17.7096181726       21.6305474749
H    1.0       19.7653024116       17.3853840996       21.4662241978
C    6.0       19.2948247371       19.0715373480       22.7639885408
H    1.0       18.5665367924       19.8933440788       22.8038511468
H    1.0       20.2900482453       19.5301865146       22.6874734998
C    6.0       19.2151697581       18.2535027380       24.0764405171
H    1.0       18.2222510601       17.7999115648       24.1808442851
H    1.0       19.9452780404       17.4354685155       24.0572162919
C    6.0       19.4823783810       19.0980129293       25.3171857114
O    8.0       20.6283291505       19.1943557553       25.7098375503
O    8.0       18.5397720667       19.6515349460       25.8480397206
 $end
$$$$
! Edit this basic GAMESS input file as needed.
! Conformer was generated by a VeraChem VCPack run 
! and contains     20 atoms.
!
 $contrl scftyp=rhf runtyp=optimize nzvar=0
  maxit=200 icharg=0 $end
 $system mwords=50 $end
 $basis gbasis=pm3 $end
 $statpt nstep=200 $end
 $guess guess=huckel $end
 $data
VM2 Rank=6      G=-21.153           E=-36.159           -TS=15.006              
C1
C    6.0       19.7218660524       18.9159939019       18.3062786862
H    1.0       20.2156616245       18.8209739523       17.3406718458
H    1.0       18.7434149895       19.3933874892       18.3238102122
C    6.0       20.2984250455       18.4654799350       19.4235478249
H    1.0       21.2789227798       17.9914316332       19.3843848546
C    6.0       19.6742400853       18.5615289560       20.7979156448
H    1.0       19.7367593671       17.5831102780       21.2906999804
H    1.0       18.6069619009       18.8073687355       20.7138017342
C    6.0       20.3831912512       19.6338141594       21.6554724834
H    1.0       21.4373098649       19.3576583090       21.7953423558
H    1.0       20.3821881660       20.5844712769       21.1044825309
C    6.0       19.7173106527       19.8615338089       23.0334887877
H    1.0       18.6663404441       20.1507210664       22.8948311764
H    1.0       20.2099796696       20.7109968519       23.5266273187
C    6.0       19.7958066429       18.6281075991       23.9702235595
H    1.0       19.2357833680       17.7859565053       23.5484426512
H    1.0       20.8371971973       18.3036147412       24.0824443481
C    6.0       19.2353145563       18.9074687807       25.3601057213
O    8.0       19.9948487983       19.3259231084       26.2114216046
O    8.0       18.0499969153       18.7181497507       25.5495456876
 $end
$$$$
! Edit this basic GAMESS input file as needed.
! Conformer was generated by a VeraChem VCPack run 
! and contains     20 atoms.
!
 $contrl scftyp=rhf runtyp=optimize nzvar=0
  maxit=200 icharg=0 $end
 $system mwords=50 $end
 $basis gbasis=pm3 $end
 $statpt nstep=200 $end
 $guess guess=huckel $end
 $data
VM2 Rank=7      G=-21.140           E=-36.252           -TS=15.112              
C1
C    6.0       18.6392633957       19.5604081638       19.3942831155
H    1.0       18.7038759476       20.6144884522       19.6591570491
H    1.0       17.7306936523       19.2230129204       18.8985316859
C    6.0       19.6322061438       18.7102990730       19.6688567456
H    1.0       19.5465318293       17.6584391153       19.3974817394
C    6.0       20.9226860230       19.1047377370       20.3551930820
H    1.0       21.0139950521       20.1981494017       20.4080100707
H    1.0       21.7711264512       18.7519207009       19.7539336250
C    6.0       21.0364884374       18.5083173920       21.7762042302
H    1.0       20.9444252389       17.4147843406       21.7233439253
H    1.0       22.0394938431       18.7208766717       22.1707688995
C    6.0       19.9772805205       19.0767010680       22.7481106817
H    1.0       18.9685550902       18.8471091458       22.3779911631
H    1.0       20.0599744159       20.1716819846       22.7863936271
C    6.0       20.1376452183       18.5004948429       24.1764968000
H    1.0       20.0448609688       17.4079891965       24.1562643086
H    1.0       21.1341590919       18.7344053146       24.5698584231
C    6.0       19.1032044772       19.0461755118       25.1543820300
O    8.0       19.3629292257       20.0730116002       25.7501159751
O    8.0       18.0592965584       18.4378546114       25.2843573400
 $end
$$$$
! Edit this basic GAMESS input file as needed.
! Conformer was generated by a VeraChem VCPack run 
! and contains     20 atoms.
!
 $contrl scftyp=rhf runtyp=optimize nzvar=0
  maxit=200 icharg=0 $end
 $system mwords=50 $end
 $basis gbasis=pm3 $end
 $statpt nstep=200 $end
 $guess guess=huckel $end
 $data
VM2 Rank=8      G=-21.129           E=-36.240           -TS=15.112              
C1
C    6.0       20.3964989874       17.5035965720       19.6231659214
H    1.0       19.9723578168       16.5991033074       19.1906157800
H    1.0       21.4118718462       17.4449075448       20.0117413633
C    6.0       19.6937964597       18.6382019647       19.6769292108
H    1.0       18.6778559050       18.6750415352       19.2846282648
C    6.0       20.2149569489       19.9331206722       20.2630635584
H    1.0       20.0720899045       20.7405916072       19.5327045445
H    1.0       21.2963280338       19.8676914854       20.4448088628
C    6.0       19.4934401047       20.3144340542       21.5752960611
H    1.0       19.8214762409       21.3170436106       21.8819692864
H    1.0       18.4118347498       20.3791647717       21.3935713820
C    6.0       19.7730764249       19.3156867599       22.7215478705
H    1.0       20.8561740096       19.2396858422       22.8901024216
H    1.0       19.4247286791       18.3131099244       22.4374292413
C    6.0       19.0781480017       19.7406235166       24.0385602924
H    1.0       19.4262041075       20.7335560989       24.3474730525
H    1.0       17.9938714437       19.8086626041       23.8892289051
C    6.0       19.3388936856       18.7703048057       25.1851143210
O    8.0       20.3231865596       18.9490606561       25.8750155501
O    8.0       18.5590028275       17.8529709987       25.3493072143
 $end
