$$$$
! Edit this basic GAMESS input file as needed.
! Conformer was generated by a VeraChem VCPack run 
! and contains     25 atoms.
!
 $contrl scftyp=rhf runtyp=optimize nzvar=0
  maxit=200 icharg=0 $end
 $system mwords=50 $end
 $basis gbasis=pm3 $end
 $statpt nstep=200 $end
 $guess guess=huckel $end
 $data
VM2 Rank=1      G=62.075            E=29.291            -TS=32.785              
C1
C    6.0       21.2649453940       19.5699804367       21.1383707909
H    1.0       21.7745717469       19.7414743239       20.1802699887
H    1.0       22.0468962084       19.7182829187       21.8916043338
C    6.0       20.7595240740       18.1038055022       21.1583158353
H    1.0       19.7152238594       18.0408646614       20.8265292553
H    1.0       21.3326777745       17.5468168670       20.4044799958
C    6.0       20.9529861143       17.3662033177       22.5093842861
H    1.0       22.0133598588       17.4005199642       22.7947179280
H    1.0       20.7266654856       16.3038572038       22.3451487824
C    6.0       20.0857721039       17.8547861933       23.7002738814
H    1.0       19.0202846184       17.7989483970       23.4478111128
H    1.0       20.2245809467       17.1309617401       24.5147311724
C    6.0       20.4544380207       19.2645854699       24.2301170654
H    1.0       21.4702607799       19.5138257053       23.9017241056
C    6.0       19.4857808726       20.3914142016       23.7945605123
H    1.0       18.5769225651       20.3181816217       24.4070380664
H    1.0       19.9397983302       21.3598006059       24.0411614145
C    6.0       19.0436478346       20.4095250032       22.3085539276
H    1.0       18.3090928440       21.2184904410       22.1958401978
H    1.0       18.4890327936       19.4966866955       22.0627478922
C    6.0       20.1645179221       20.6552531083       21.2675883365
H    1.0       19.6821850077       20.7603809130       20.2861059936
H    1.0       20.6411147907       21.6243655210       21.4681989957
O    8.0       20.4523876638       19.2274467670       25.6528353645
H    1.0       20.7315504268       20.1156472799       25.9587853130
 $end
$$$$
! Edit this basic GAMESS input file as needed.
! Conformer was generated by a VeraChem VCPack run 
! and contains     25 atoms.
!
 $contrl scftyp=rhf runtyp=optimize nzvar=0
  maxit=200 icharg=0 $end
 $system mwords=50 $end
 $basis gbasis=pm3 $end
 $statpt nstep=200 $end
 $guess guess=huckel $end
 $data
VM2 Rank=2      G=62.111            E=29.304            -TS=32.807              
C1
C    6.0       21.2655941164       19.5695868695       21.1385855811
H    1.0       21.7734783276       19.7404908402       20.1794515468
H    1.0       22.0494865865       19.7177226102       21.8898155021
C    6.0       20.7600279033       18.1033711283       21.1596379041
H    1.0       19.7156852481       18.0405661893       20.8279329211
H    1.0       21.3329512642       17.5460226225       20.4058819559
C    6.0       20.9534963925       17.3658816049       22.5108840656
H    1.0       22.0136935880       17.4008413582       22.7967541435
H    1.0       20.7279386293       16.3034207640       22.3460065500
C    6.0       20.0832620533       17.8542435134       23.6993010017
H    1.0       19.0191747139       17.8028750737       23.4394466167
H    1.0       20.2119722165       17.1260080759       24.5111049963
C    6.0       20.4528483797       19.2643279920       24.2284247321
H    1.0       21.4657855637       19.5191000627       23.8956805740
C    6.0       19.4814453353       20.3887339320       23.7950959797
H    1.0       18.5733596476       20.3111500841       24.4078277210
H    1.0       19.9342203793       21.3555531206       24.0498485897
C    6.0       19.0429504181       20.4114134491       22.3077730582
H    1.0       18.3104804359       21.2222909067       22.1955075091
H    1.0       18.4868607619       19.5004155524       22.0586279456
C    6.0       20.1665703551       20.6565113584       21.2693703211
H    1.0       20.6447657067       21.6241822332       21.4731296712
H    1.0       19.6860371332       20.7651329127       20.2873916903
O    8.0       20.4578050463       19.2289301525       25.6509273564
H    1.0       21.1308381364       18.5666516359       25.9134021325
 $end
$$$$
! Edit this basic GAMESS input file as needed.
! Conformer was generated by a VeraChem VCPack run 
! and contains     25 atoms.
!
 $contrl scftyp=rhf runtyp=optimize nzvar=0
  maxit=200 icharg=0 $end
 $system mwords=50 $end
 $basis gbasis=pm3 $end
 $statpt nstep=200 $end
 $guess guess=huckel $end
 $data
VM2 Rank=3      G=62.126            E=29.342            -TS=32.784              
C1
C    6.0       21.2426437635       19.6237793438       21.1382179182
H    1.0       21.7260797041       19.8584627124       20.1799386597
H    1.0       21.8986707887       20.0758527342       21.8905868124
C    6.0       21.2324787824       18.0788989720       21.2749361149
H    1.0       22.2545285706       17.7321593349       21.4792749906
H    1.0       20.9679245820       17.6585844898       20.2949606222
C    6.0       20.2643986687       17.4646530309       22.3169825276
H    1.0       20.3178144428       16.3727107504       22.2097068783
H    1.0       19.2271127894       17.7161921082       22.0678683499
C    6.0       20.5610946148       17.7975187214       23.8019738493
H    1.0       19.8657871661       17.2092210243       24.4159519526
H    1.0       21.5666099450       17.4356112049       24.0523323592
C    6.0       20.4475198226       19.2812918178       24.2300778829
H    1.0       21.3424130759       19.8222593498       23.9008654466
C    6.0       19.1906207345       20.0141699619       23.6940954698
H    1.0       18.3986389651       19.2985643474       23.4435124885
H    1.0       18.7749526533       20.6278725632       24.5047248055
C    6.0       19.4602379987       20.9671937468       22.4990882942
H    1.0       20.2333071251       21.6945565382       22.7824507514
H    1.0       18.5490130707       21.5570178943       22.3301199872
C    6.0       19.8481162913       20.3024711807       21.1520288758
H    1.0       19.0662280798       19.6065094377       20.8220366738
H    1.0       19.8606536800       21.0979288631       20.3943353397
O    8.0       20.4168893234       19.3130232246       25.6525990672
H    1.0       21.2419572807       18.8843415219       25.9623313514
 $end
$$$$
! Edit this basic GAMESS input file as needed.
! Conformer was generated by a VeraChem VCPack run 
! and contains     25 atoms.
!
 $contrl scftyp=rhf runtyp=optimize nzvar=0
  maxit=200 icharg=0 $end
 $system mwords=50 $end
 $basis gbasis=pm3 $end
 $statpt nstep=200 $end
 $guess guess=huckel $end
 $data
VM2 Rank=4      G=62.126            E=29.319            -TS=32.807              
C1
C    6.0       21.2430127809       19.6245389554       21.1385487548
H    1.0       21.7249217066       19.8584128075       20.1792999254
H    1.0       21.9002055035       20.0780923837       21.8889903413
C    6.0       21.2349898927       18.0794905688       21.2768288267
H    1.0       22.2571160559       17.7349174608       21.4844392061
H    1.0       20.9743145982       17.6579889049       20.2963306301
C    6.0       20.2652775962       17.4628232139       22.3161807378
H    1.0       20.3215408135       16.3710081465       22.2093515754
H    1.0       19.2282894197       17.7120024678       22.0636068356
C    6.0       20.5559604258       17.7963214148       23.8025192471
H    1.0       19.8579773336       17.2116978489       24.4166152840
H    1.0       21.5594044933       17.4346073555       24.0611814642
C    6.0       20.4460811190       19.2803170630       24.2283920996
H    1.0       21.3429059110       19.8152784391       23.8949405584
C    6.0       19.1883964629       20.0127929986       23.6930311595
H    1.0       18.4005769391       19.2950059566       23.4350277727
H    1.0       18.7624445772       20.6224770296       24.5009724340
C    6.0       19.4604044220       20.9677977693       22.5005031445
H    1.0       20.2337673252       21.6945911271       22.7844776775
H    1.0       18.5496499045       21.5582298968       22.3307960363
C    6.0       19.8483488768       20.3031559837       21.1533055135
H    1.0       19.8605593478       21.0987121718       20.3956984643
H    1.0       19.0665667322       19.6070720965       20.8232942001
O    8.0       20.4215284236       19.3157620325       25.6506905164
H    1.0       20.4280718479       20.2612401581       25.9085817835
 $end
$$$$
! Edit this basic GAMESS input file as needed.
! Conformer was generated by a VeraChem VCPack run 
! and contains     25 atoms.
!
 $contrl scftyp=rhf runtyp=optimize nzvar=0
  maxit=200 icharg=0 $end
 $system mwords=50 $end
 $basis gbasis=pm3 $end
 $statpt nstep=200 $end
 $guess guess=huckel $end
 $data
VM2 Rank=5      G=62.195            E=29.408            -TS=32.788              
C1
C    6.0       20.7558178013       19.2414914421       20.8005613828
H    1.0       20.7018278979       19.0670173584       19.7172580053
H    1.0       21.8174557644       19.4274501285       21.0082112340
C    6.0       20.2661926970       17.9508538828       21.5065786368
H    1.0       19.2040946771       18.0305977598       21.7639427676
H    1.0       20.3136481776       17.1256366288       20.7828530476
C    6.0       21.1003572442       17.5255121769       22.7406225274
H    1.0       22.0421306999       17.0936230670       22.3754014006
H    1.0       20.5848837596       16.7050331999       23.2571065207
C    6.0       21.4659590795       18.6396112052       23.7585152767
H    1.0       22.1040350417       18.1861844401       24.5283693609
H    1.0       22.1068627512       19.3873236433       23.2791003660
C    6.0       20.2996870654       19.3460947562       24.4924019081
H    1.0       20.7560871037       20.0337287071       25.2188372761
C    6.0       19.3297719558       20.1868214650       23.6260437679
H    1.0       18.5531808814       19.5556183645       23.1804576673
H    1.0       18.7873538647       20.8467316500       24.3157328085
C    6.0       19.9923180419       21.0753096926       22.5395915857
H    1.0       21.0293760680       21.3196443724       22.8028975036
H    1.0       19.4641165834       22.0386187528       22.5337429219
C    6.0       19.9095214512       20.5060371259       21.0994086670
H    1.0       18.8590622843       20.3094988096       20.8449607613
H    1.0       20.2359143804       21.2960584718       20.4093634146
O    8.0       19.5443746637       18.3712682534       25.1962762476
H    1.0       19.2505614586       17.7296809670       24.5185212477
 $end
$$$$
! Edit this basic GAMESS input file as needed.
! Conformer was generated by a VeraChem VCPack run 
! and contains     25 atoms.
!
 $contrl scftyp=rhf runtyp=optimize nzvar=0
  maxit=200 icharg=0 $end
 $system mwords=50 $end
 $basis gbasis=pm3 $end
 $statpt nstep=200 $end
 $guess guess=huckel $end
 $data
VM2 Rank=6      G=62.220            E=29.432            -TS=32.788              
C1
C    6.0       20.6500850850       19.4973140892       20.8001138240
H    1.0       20.4907026103       19.5762484727       19.7160161335
H    1.0       21.5267387773       20.1245067223       21.0071900929
C    6.0       20.9569841646       18.0085241699       21.1065841729
H    1.0       20.0807636961       17.3965030299       20.8526139036
H    1.0       21.7508288480       17.6838808010       20.4201107779
C    6.0       21.4169973037       17.6748186250       22.5495264979
H    1.0       22.3178875939       18.2437712258       22.8126005938
H    1.0       21.7330718695       16.6226348666       22.5493289129
C    6.0       20.3161622080       17.8308043138       23.6323854301
H    1.0       19.3227233317       17.7180561108       23.1846982740
H    1.0       20.4041767476       16.9844752800       24.3261801802
C    6.0       20.3950739777       19.1157537766       24.4930852757
H    1.0       21.2034508172       18.9620431214       25.2222966098
C    6.0       20.7114841435       20.4391759629       23.7539401190
H    1.0       20.8338766795       21.2155298978       24.5205608444
H    1.0       21.6951963187       20.3693251418       23.2773894534
C    6.0       19.6636142870       20.9553605720       22.7309512738
H    1.0       20.0172893316       21.9278823984       22.3622139984
H    1.0       18.7159093673       21.1657747397       23.2440154051
C    6.0       19.3849114071       20.0568447810       21.5002565219
H    1.0       18.6960737085       19.2450957654       21.7595087508
H    1.0       18.8319471319       20.6661892215       20.7722839117
O    8.0       19.1686874233       19.2644037095       25.1931568847
H    1.0       18.5070382514       19.5018734053       24.5126147027
 $end
$$$$
! Edit this basic GAMESS input file as needed.
! Conformer was generated by a VeraChem VCPack run 
! and contains     25 atoms.
!
 $contrl scftyp=rhf runtyp=optimize nzvar=0
  maxit=200 icharg=0 $end
 $system mwords=50 $end
 $basis gbasis=pm3 $end
 $statpt nstep=200 $end
 $guess guess=huckel $end
 $data
VM2 Rank=7      G=62.234            E=29.468            -TS=32.766              
C1
C    6.0       21.2427063496       19.6234007376       21.1389912148
H    1.0       21.8982217759       20.0740824283       21.8927002876
H    1.0       21.7270188542       19.8591907956       20.1814318273
C    6.0       21.2318690013       18.0785029419       21.2739644118
H    1.0       20.9661792492       17.6591366354       20.2938937318
H    1.0       22.2539866289       17.7312559622       21.4771469135
C    6.0       20.2648904345       17.4639685171       22.3167643636
H    1.0       20.3194722637       16.3720552940       22.2096672244
H    1.0       19.2272749462       17.7144992168       22.0679724265
C    6.0       20.5623790736       17.7974427883       23.8014716846
H    1.0       19.8736257805       17.2020830560       24.4152640198
H    1.0       21.5707392792       17.4428967999       24.0516535521
C    6.0       20.4456454576       19.2808703268       24.2302534229
H    1.0       21.3417287356       19.8210782477       23.9035207713
C    6.0       19.1892199313       20.0151096534       23.6943703932
H    1.0       18.3966058148       19.3011265310       23.4403038161
H    1.0       18.7731246450       20.6323504892       24.5021386881
C    6.0       19.4613162364       20.9675567355       22.4996478651
H    1.0       20.2357577017       21.6934193964       22.7832634804
H    1.0       18.5514062443       21.5592922183       22.3301032920
C    6.0       19.8483259595       20.3022396402       21.1527320463
H    1.0       19.8609467058       21.0974215609       20.3947443072
H    1.0       19.0661648059       19.6063845454       20.8231495541
O    8.0       20.4176475561       19.3139086591       25.6518045977
H    1.0       19.6032681890       18.8431078689       25.9238752563
 $end
$$$$
! Edit this basic GAMESS input file as needed.
! Conformer was generated by a VeraChem VCPack run 
! and contains     25 atoms.
!
 $contrl scftyp=rhf runtyp=optimize nzvar=0
  maxit=200 icharg=0 $end
 $system mwords=50 $end
 $basis gbasis=pm3 $end
 $statpt nstep=200 $end
 $guess guess=huckel $end
 $data
VM2 Rank=8      G=62.249            E=29.482            -TS=32.767              
C1
C    6.0       21.2647862433       19.5702992323       21.1391911273
H    1.0       21.7758825792       19.7416330745       20.1818511215
H    1.0       22.0453418635       19.7192000367       21.8938110355
C    6.0       20.7595234851       18.1041410205       21.1590094530
H    1.0       19.7151180360       18.0409900671       20.8275829966
H    1.0       21.3325544186       17.5474000599       20.4048920117
C    6.0       20.9539075383       17.3666859152       22.5099270105
H    1.0       22.0141776418       17.4029524893       22.7955603055
H    1.0       20.7298016276       16.3039366999       22.3450849852
C    6.0       20.0853211410       17.8531345859       23.7005040940
H    1.0       19.0205526274       17.7957895490       23.4445032350
H    1.0       20.2262170419       17.1264482253       24.5120984876
C    6.0       20.4527883110       19.2635063105       24.2303172874
H    1.0       21.4689571626       19.5140470805       23.9044727842
C    6.0       19.4867524694       20.3924394337       23.7940504213
H    1.0       18.5775317665       20.3289782033       24.4063141801
H    1.0       19.9481218276       21.3575827060       24.0404646499
C    6.0       19.0435987215       20.4104376575       22.3083336758
H    1.0       18.3099248544       21.2202413597       22.1958008571
H    1.0       18.4879885470       19.4981094533       22.0628485281
C    6.0       20.1638922275       20.6551207446       21.2666010100
H    1.0       19.6814287789       20.7587283618       20.2850247256
H    1.0       20.6401886541       21.6246395760       21.4660053675
O    8.0       20.4534298629       19.2272350998       25.6520659207
H    1.0       19.5442751393       18.9849803904       25.9234276303
 $end
