$$$$
! Edit this basic GAMESS input file as needed.
! Conformer was generated by a VeraChem VCPack run 
! and contains     16 atoms.
!
 $contrl scftyp=rhf runtyp=optimize nzvar=0
  maxit=200 icharg=0 $end
 $system mwords=50 $end
 $basis gbasis=pm3 $end
 $statpt nstep=200 $end
 $guess guess=huckel $end
 $data
VM2 Rank=1      G=30.218            E=15.547            -TS=14.671              
C1
C    6.0       19.6971414787       19.0163872526       20.9390830409
H    1.0       19.6785356665       19.9332868680       20.3343794143
H    1.0       20.1313206907       18.2118448451       20.3293527972
C    6.0       18.2981310565       18.6037522848       21.4167821174
H    1.0       17.7279748940       19.4984124663       21.7035373094
H    1.0       17.7317824951       18.0676222133       20.6431673613
C    6.0       18.5585598423       17.7366105001       22.6617152712
H    1.0       18.6890159091       16.6896780716       22.3577764534
H    1.0       17.7164313052       17.7774596531       23.3651868994
C    6.0       19.8755764868       18.2476403692       23.2814889880
H    1.0       20.5433294078       17.3965081102       23.4794440422
C    6.0       20.5129660190       19.1856996944       22.2344732064
H    1.0       20.4511485190       20.2285977769       22.5740019142
H    1.0       21.5724474233       18.9477656315       22.0750861061
O    8.0       19.6066251167       18.9649098989       24.4804573762
H    1.0       19.1943583650       18.3291618755       25.1026393265
 $end
$$$$
! Edit this basic GAMESS input file as needed.
! Conformer was generated by a VeraChem VCPack run 
! and contains     16 atoms.
!
 $contrl scftyp=rhf runtyp=optimize nzvar=0
  maxit=200 icharg=0 $end
 $system mwords=50 $end
 $basis gbasis=pm3 $end
 $statpt nstep=200 $end
 $guess guess=huckel $end
 $data
VM2 Rank=2      G=30.235            E=15.564            -TS=14.671              
C1
C    6.0       19.5321913760       19.3693080270       21.1297019181
H    1.0       19.0757741310       20.3345350745       21.3899771990
H    1.0       19.9651675506       19.4531085575       20.1236315195
C    6.0       18.4765065206       18.2591213944       21.2230180404
H    1.0       17.4976688002       18.5803030507       20.8416574981
H    1.0       18.8038180933       17.3882565866       20.6381815614
C    6.0       18.4312320903       17.8942955267       22.7187197299
H    1.0       18.1717489012       16.8381505518       22.8661700708
H    1.0       17.6658936697       18.5007799468       23.2218816104
C    6.0       19.8270919414       18.2175722793       23.2927637389
H    1.0       20.3646201133       17.2856461504       23.5209789240
C    6.0       20.5808285212       18.9911835493       22.1913040220
H    1.0       21.1013531903       19.8774108707       22.5777974275
H    1.0       21.3344286875       18.3308299916       21.7424331989
O    8.0       19.7011495505       19.0235192232       24.4584925508
H    1.0       20.6112170039       19.2080820392       24.7730752325
 $end
$$$$
! Edit this basic GAMESS input file as needed.
! Conformer was generated by a VeraChem VCPack run 
! and contains     16 atoms.
!
 $contrl scftyp=rhf runtyp=optimize nzvar=0
  maxit=200 icharg=0 $end
 $system mwords=50 $end
 $basis gbasis=pm3 $end
 $statpt nstep=200 $end
 $guess guess=huckel $end
 $data
VM2 Rank=3      G=30.360            E=15.047            -TS=15.313              
C1
C    6.0       19.5851066836       19.3562421689       21.1698998057
H    1.0       19.3999967636       20.4294192514       21.3156820010
H    1.0       19.9162434162       19.2130901345       20.1321844778
C    6.0       18.2992271503       18.5557759276       21.4712121136
H    1.0       17.4915094956       19.2416210235       21.7617894894
H    1.0       17.9582762924       17.9930735225       20.5913724166
C    6.0       18.6385565188       17.6061599000       22.6397673009
H    1.0       18.8818924540       16.6109276595       22.2448989556
H    1.0       17.8004488381       17.4919789275       23.3401555506
C    6.0       19.8852302571       18.1925123739       23.3157765345
H    1.0       20.4855862843       17.4116388680       23.8044401151
C    6.0       20.6535250277       18.8593914036       22.1668848629
H    1.0       21.3047958229       19.6709766544       22.5178545556
H    1.0       21.2889443980       18.1081656114       21.6795205893
O    8.0       19.4873543625       19.1849182260       24.2504593823
H    1.0       18.9644545662       19.8294982645       23.7305988721
 $end
