$$$$
! Edit this basic GAMESS input file as needed.
! Conformer was generated by a VeraChem VCPack run 
! and contains     25 atoms.
!
 $contrl scftyp=rhf runtyp=optimize nzvar=0
  maxit=200 icharg=0 $end
 $system mwords=50 $end
 $basis gbasis=pm3 $end
 $statpt nstep=200 $end
 $guess guess=huckel $end
 $data
VM2 Rank=1      G=-7.962            E=-32.361           -TS=24.399              
C1
C    6.0       20.1600929375       19.3401444968       27.8084374504
O    8.0       21.2157055408       19.7049891687       28.2871760149
O    8.0       19.0777426013       19.5690069007       28.3111914074
C    6.0       20.1941384294       18.5724032295       26.4918164013
H    1.0       19.3547163079       17.8667453130       26.4872180760
H    1.0       21.1163698027       17.9795468862       26.4669631834
C    6.0       20.1205550444       19.4990601093       25.2533048894
H    1.0       19.1984374018       20.0949548805       25.3002188442
H    1.0       20.9599710542       20.2077653841       25.2799462248
C    6.0       20.1566173319       18.6986253814       23.9334491797
H    1.0       19.3170894787       17.9902131281       23.9105737468
H    1.0       21.0790105184       18.1032283735       23.8901606075
C    6.0       20.0828984499       19.6249649218       22.7005976415
H    1.0       19.1605705543       20.2204143987       22.7436745021
H    1.0       20.9223486697       20.3334246107       22.7232259846
C    6.0       20.1188703176       18.8252100851       21.3803798507
H    1.0       19.2795136840       18.1166541271       21.3574443842
H    1.0       21.0411501697       18.2297183123       21.3369531853
C    6.0       20.0451139401       19.7509737487       20.1479509171
H    1.0       19.1227620140       20.3469889404       20.1869748529
H    1.0       20.8843904858       20.4600310166       20.1664599353
C    6.0       20.0812654071       18.9486219580       18.8316962475
H    1.0       19.2340021982       18.2529069493       18.7723324507
H    1.0       20.0279588003       19.6221056110       17.9664415199
H    1.0       21.0088874875       18.3668081261       18.7516441197
 $end
$$$$
! Edit this basic GAMESS input file as needed.
! Conformer was generated by a VeraChem VCPack run 
! and contains     25 atoms.
!
 $contrl scftyp=rhf runtyp=optimize nzvar=0
  maxit=200 icharg=0 $end
 $system mwords=50 $end
 $basis gbasis=pm3 $end
 $statpt nstep=200 $end
 $guess guess=huckel $end
 $data
VM2 Rank=2      G=-7.123            E=-31.631           -TS=24.509              
C1
C    6.0       19.8606210984       19.1637390459       27.5407045658
O    8.0       20.6740524729       18.7865666440       28.3609464078
O    8.0       18.8684390996       19.8061581796       27.8227693958
C    6.0       20.1113916146       18.8330349018       26.0738079668
H    1.0       19.1367346017       18.6970656270       25.5918621951
H    1.0       20.6353091571       17.8709144346       26.0268640766
C    6.0       20.9344382154       19.9268879920       25.3449865697
H    1.0       20.3788324514       20.8747500382       25.3594478600
H    1.0       21.8622887466       20.1028890057       25.9067531538
C    6.0       21.2999064737       19.5571203488       23.8877283616
H    1.0       21.8645032878       18.6147124050       23.8777620818
H    1.0       21.9750127388       20.3279869603       23.4915048356
C    6.0       20.0710437010       19.4383448738       22.9569099867
H    1.0       19.4212413894       18.6213500295       23.2963030737
H    1.0       19.4797281570       20.3626958342       23.0098939837
C    6.0       20.4875510902       19.1765265189       21.4933034032
H    1.0       21.0823131322       18.2542611819       21.4406805165
H    1.0       21.1330240608       19.9936666658       21.1430188872
C    6.0       19.2627301456       19.0534214817       20.5626411610
H    1.0       18.6155365064       18.2353666205       20.9081860643
H    1.0       18.6661402342       19.9749143128       20.6117231902
C    6.0       19.6828260886       18.7922000135       19.1022021816
H    1.0       20.2549465967       17.8588472937       19.0190041029
H    1.0       18.8002239711       18.7074928740       18.4549634049
H    1.0       20.3058944878       19.6114763291       18.7201524634
 $end
$$$$
! Edit this basic GAMESS input file as needed.
! Conformer was generated by a VeraChem VCPack run 
! and contains     25 atoms.
!
 $contrl scftyp=rhf runtyp=optimize nzvar=0
  maxit=200 icharg=0 $end
 $system mwords=50 $end
 $basis gbasis=pm3 $end
 $statpt nstep=200 $end
 $guess guess=huckel $end
 $data
VM2 Rank=3      G=-7.104            E=-31.612           -TS=24.508              
C1
C    6.0       20.1314804037       19.7074852954       27.5207726580
O    8.0       20.9464392839       19.3333843781       28.3409050221
O    8.0       19.0292930909       20.1290399016       27.8108861332
C    6.0       20.5034933142       19.6201016191       26.0449663439
H    1.0       21.5851034387       19.7774371935       25.9570188271
H    1.0       20.0103625692       20.4506888036       25.5276051368
C    6.0       20.1060764865       18.2640982524       25.4058874521
H    1.0       20.5413892573       17.4514659092       26.0038820664
H    1.0       19.0157847428       18.1387006652       25.4596372543
C    6.0       20.5786813283       18.1093227049       23.9407629077
H    1.0       20.3593827639       17.0847753174       23.6102994116
H    1.0       21.6701690228       18.2245800066       23.8920764302
C    6.0       19.9054934348       19.1059621565       22.9690841221
H    1.0       18.8135544160       19.0253747411       23.0588572008
H    1.0       20.1751640740       20.1347024356       23.2408933197
C    6.0       20.3225862782       18.8453373864       21.5054322145
H    1.0       20.0497934906       17.8193545738       21.2225972662
H    1.0       21.4149553365       18.9218722267       21.4162443006
C    6.0       19.6553550138       19.8414751718       20.5338434213
H    1.0       18.5623972682       19.7667219980       20.6194756433
H    1.0       19.9277792688       20.8690895927       20.8118141409
C    6.0       20.0741013658       19.5777931338       19.0734597251
H    1.0       19.5908333599       20.2946328740       18.3969448027
H    1.0       21.1607778092       19.6771169956       18.9523807057
H    1.0       19.7850265912       18.5665743271       18.7584025933
 $end
$$$$
! Edit this basic GAMESS input file as needed.
! Conformer was generated by a VeraChem VCPack run 
! and contains     25 atoms.
!
 $contrl scftyp=rhf runtyp=optimize nzvar=0
  maxit=200 icharg=0 $end
 $system mwords=50 $end
 $basis gbasis=pm3 $end
 $statpt nstep=200 $end
 $guess guess=huckel $end
 $data
VM2 Rank=4      G=-7.055            E=-31.563           -TS=24.508              
C1
C    6.0       20.1304254308       19.1678282448       27.7050654167
O    8.0       21.2276329431       19.2434318263       28.2218363705
O    8.0       19.2270956270       18.4811609125       28.1399372496
C    6.0       19.8806724380       19.9606092985       26.4270934548
H    1.0       20.4730528695       20.8821449360       26.4766475172
H    1.0       18.8243334241       20.2546155006       26.4096034634
C    6.0       20.2355358240       19.1649948188       25.1468237075
H    1.0       21.2925148029       18.8669382891       25.1859791017
H    1.0       19.6439725026       18.2393187082       25.1191880652
C    6.0       19.9739462229       19.9884274086       23.8671114595
H    1.0       20.5654993088       20.9137192197       23.8989723836
H    1.0       18.9167429356       20.2853837492       23.8311105324
C    6.0       20.3287145985       19.1927364578       22.5923740971
H    1.0       21.3865758677       18.8984963140       22.6261090214
H    1.0       19.7385938867       18.2673367155       22.5702319306
C    6.0       20.0627001076       20.0172541184       21.3116541057
H    1.0       20.6043002099       20.9705159017       21.3814339714
H    1.0       18.9953644301       20.2697921431       21.2489944110
C    6.0       20.5007899350       19.2975982595       20.0148290183
H    1.0       20.3879196950       19.9921747947       19.1709876893
H    1.0       21.5696479503       19.0492345162       20.0712267350
C    6.0       19.6854868732       18.0199586549       19.7192751202
H    1.0       18.6101335496       18.2384845016       19.6878843190
H    1.0       19.9729202834       17.5974213613       18.7478044521
H    1.0       19.8584549625       17.2491045686       20.4805720788
 $end
$$$$
! Edit this basic GAMESS input file as needed.
! Conformer was generated by a VeraChem VCPack run 
! and contains     25 atoms.
!
 $contrl scftyp=rhf runtyp=optimize nzvar=0
  maxit=200 icharg=0 $end
 $system mwords=50 $end
 $basis gbasis=pm3 $end
 $statpt nstep=200 $end
 $guess guess=huckel $end
 $data
VM2 Rank=5      G=-7.044            E=-31.544           -TS=24.499              
C1
C    6.0       20.0214104768       19.1705667220       27.6698188085
O    8.0       21.0602927434       19.2685984578       28.2925177552
O    8.0       18.9407930735       19.5176579458       28.1039028602
C    6.0       20.0802301763       18.6011026205       26.2569041813
H    1.0       19.1420043524       18.0664673868       26.0658693688
H    1.0       20.8884259962       17.8607330624       26.2213708949
C    6.0       20.3045645362       19.6896650651       25.1785564025
H    1.0       19.4942981086       20.4297773347       25.2358264766
H    1.0       21.2406159654       20.2241548898       25.3922596841
C    6.0       20.3601740704       19.0882978347       23.7574043000
H    1.0       19.4240684807       18.5506707566       23.5582807293
H    1.0       21.1726255290       18.3508571312       23.7025201453
C    6.0       20.5801119431       20.1796864253       22.6844962137
H    1.0       19.7414270831       20.8891069628       22.7001384820
H    1.0       21.4793381297       20.7562101803       22.9412339413
C    6.0       20.7531042766       19.6138469285       21.2547816822
H    1.0       21.5944725706       18.9076505198       21.2378178726
H    1.0       21.0277740548       20.4399453712       20.5846923023
C    6.0       19.4832316983       18.9245909863       20.7062304924
H    1.0       19.2354941814       18.0464786479       21.3168742643
H    1.0       18.6296015882       19.6131168936       20.7730167147
C    6.0       19.6690870054       18.4799870140       19.2413873040
H    1.0       20.5003130678       17.7686333901       19.1496585920
H    1.0       18.7606938520       17.9897924191       18.8677669340
H    1.0       19.8807128147       19.3403022532       18.5929894984
 $end
$$$$
! Edit this basic GAMESS input file as needed.
! Conformer was generated by a VeraChem VCPack run 
! and contains     25 atoms.
!
 $contrl scftyp=rhf runtyp=optimize nzvar=0
  maxit=200 icharg=0 $end
 $system mwords=50 $end
 $basis gbasis=pm3 $end
 $statpt nstep=200 $end
 $guess guess=huckel $end
 $data
VM2 Rank=6      G=-7.037            E=-31.542           -TS=24.506              
C1
C    6.0       20.3737569752       19.6427351583       27.4432971507
O    8.0       21.5152869630       20.0321490042       27.5912982049
O    8.0       19.4211160754       20.1082625298       28.0369509260
C    6.0       20.1198101505       18.5218297548       26.4416597843
H    1.0       19.2736525136       17.9262175313       26.8047234570
H    1.0       20.9987340319       17.8660631025       26.4341001121
C    6.0       19.8320900720       19.0459228582       25.0131030182
H    1.0       18.9554190220       19.7077962795       25.0393401404
H    1.0       20.6832606590       19.6546900388       24.6808179326
C    6.0       19.5830641412       17.8893201468       24.0173774941
H    1.0       18.7802075939       17.2489439921       24.4076384851
H    1.0       20.4796410261       17.2578850678       23.9507897312
C    6.0       19.1820296281       18.3697479726       22.6024120904
H    1.0       18.9052059476       17.4919096223       22.0026935069
H    1.0       18.2825739680       18.9971012245       22.6681479434
C    6.0       20.3046175249       19.1427982695       21.8721062786
H    1.0       21.2191645844       18.5343793844       21.8562363200
H    1.0       20.5417734298       20.0647542445       22.4186267137
C    6.0       19.9012424465       19.5035296715       20.4267993013
H    1.0       19.6694014885       18.5870888746       19.8666066016
H    1.0       18.9854915141       20.1107580693       20.4388189328
C    6.0       21.0199860233       20.2777046343       19.7009957515
H    1.0       21.9397340670       19.6805715530       19.6473857779
H    1.0       20.7165329805       20.5255276890       18.6755387421
H    1.0       21.2503608158       21.2160347666       20.2223915297
 $end
$$$$
! Edit this basic GAMESS input file as needed.
! Conformer was generated by a VeraChem VCPack run 
! and contains     25 atoms.
!
 $contrl scftyp=rhf runtyp=optimize nzvar=0
  maxit=200 icharg=0 $end
 $system mwords=50 $end
 $basis gbasis=pm3 $end
 $statpt nstep=200 $end
 $guess guess=huckel $end
 $data
VM2 Rank=7      G=-7.012            E=-31.511           -TS=24.499              
C1
C    6.0       20.3158248898       19.1891925642       27.6664454941
O    8.0       21.3533537600       19.6710805265       28.0762646929
O    8.0       19.2873958743       19.1555950283       28.3128551811
C    6.0       20.2974039433       18.6149278277       26.2543696061
H    1.0       19.5888842972       17.7781133584       26.2361404994
H    1.0       21.2911838684       18.2031668170       26.0411737024
C    6.0       19.9124640578       19.6648342983       25.1830888961
H    1.0       18.9214558723       20.0768859899       25.4190095728
H    1.0       20.6236687402       20.5016037670       25.2228768845
C    6.0       19.9007933023       19.0592587411       23.7626833004
H    1.0       19.1871499481       18.2248557974       23.7253550048
H    1.0       20.8925873161       18.6441369019       23.5413059029
C    6.0       19.5199283340       20.1125197933       22.6967499186
H    1.0       18.5612267844       20.5711460389       22.9750539523
H    1.0       20.2623611565       20.9222734002       22.6940307074
C    6.0       19.3868050199       19.5272460242       21.2705963358
H    1.0       18.9946013832       20.3110444732       20.6082229377
H    1.0       18.6411910417       18.7204264025       21.2720579900
C    6.0       20.7205345359       19.0030499757       20.6918605972
H    1.0       21.4816832956       19.7939734019       20.7398562452
H    1.0       21.0912406259       18.1641896643       21.2953766937
C    6.0       20.5584962827       18.5362952206       19.2310859776
H    1.0       20.2249268258       19.3619903424       18.5889755367
H    1.0       21.5126508911       18.1642220529       18.8358502821
H    1.0       19.8219025176       17.7254888489       19.1576175296
 $end
$$$$
! Edit this basic GAMESS input file as needed.
! Conformer was generated by a VeraChem VCPack run 
! and contains     25 atoms.
!
 $contrl scftyp=rhf runtyp=optimize nzvar=0
  maxit=200 icharg=0 $end
 $system mwords=50 $end
 $basis gbasis=pm3 $end
 $statpt nstep=200 $end
 $guess guess=huckel $end
 $data
VM2 Rank=8      G=-7.011            E=-31.519           -TS=24.508              
C1
C    6.0       20.0590836891       19.4465901732       27.6999606255
O    8.0       21.0531734608       19.9252027655       28.2092234663
O    8.0       18.9332710712       19.6287699118       28.1194688797
C    6.0       20.2319619386       18.5881697767       26.4520358668
H    1.0       19.4468795491       17.8225059599       26.4538447481
H    1.0       21.1937175694       18.0667489442       26.5278188149
C    6.0       20.1721890210       19.4122150418       25.1423056790
H    1.0       19.2089708590       19.9384074292       25.0882827332
H    1.0       20.9556952505       20.1824776127       25.1620201127
C    6.0       20.3494495072       18.5212282628       23.8937644682
H    1.0       19.5651653638       17.7519563679       23.8771337872
H    1.0       21.3124191138       17.9954811765       23.9520159762
C    6.0       20.2895777980       19.3455292250       22.5895847870
H    1.0       19.3277017591       19.8723411598       22.5410082935
H    1.0       21.0757224957       20.1127007361       22.6040762815
C    6.0       20.4635816803       18.4514743847       21.3400956557
H    1.0       19.6493735319       17.7152880489       21.2953692629
H    1.0       21.3958895040       17.8785911176       21.4376371643
C    6.0       20.5134554906       19.2484232693       20.0157199200
H    1.0       21.3310492982       19.9814800185       20.0543264205
H    1.0       20.7555415113       18.5567147968       19.1970764131
C    6.0       19.1872563432       19.9663971893       19.6838406518
H    1.0       19.2448974818       20.4416939159       18.6960749240
H    1.0       18.3494163757       19.2572189610       19.6692285772
H    1.0       18.9619390804       20.7509936242       20.4168802459
 $end
