$$$$
! Edit this basic GAMESS input file as needed.
! Conformer was generated by a VeraChem VCPack run 
! and contains     26 atoms.
!
 $contrl scftyp=rhf runtyp=optimize nzvar=0
  maxit=200 icharg=0 $end
 $system mwords=50 $end
 $basis gbasis=pm3 $end
 $statpt nstep=200 $end
 $guess guess=huckel $end
 $data
VM2 Rank=1      G=75.466            E=43.304            -TS=32.163              
C1
N    7.0       19.9837416963       18.6238302836       26.4860788293
H    1.0       20.8628900043       18.0855441318       26.5332162890
H    1.0       19.2304370719       17.9186403828       26.4753020199
C    6.0       19.9442462460       19.4506958555       25.2166030328
H    1.0       20.7597824834       20.1767566336       25.2639063130
H    1.0       18.9975767389       19.9966718778       25.2014300398
C    6.0       20.0759152420       18.6065473034       23.9359288110
H    1.0       21.0205507983       18.0470806352       23.9630182711
H    1.0       19.2642516361       17.8676025555       23.9007553422
C    6.0       20.0305288634       19.4900190832       22.6694935868
H    1.0       20.8406965949       20.2314578557       22.7110688119
H    1.0       19.0864678567       20.0522989780       22.6489546731
C    6.0       20.1618023995       18.6528244377       21.3767249202
H    1.0       21.1057745411       18.0906524325       21.3970080577
H    1.0       19.3517552147       17.9114677535       21.3349378626
C    6.0       20.1163199345       19.5367237583       20.1102900651
H    1.0       20.9264506878       20.2786161957       20.1460714602
H    1.0       19.1725998164       20.0994856508       20.0840327549
C    6.0       20.2476350781       18.6973781342       18.8214369601
H    1.0       21.1984229641       18.1488838718       18.8024599383
H    1.0       20.2132287153       19.3421461579       17.9336762741
H    1.0       19.4308294109       17.9684177551       18.7398945112
C    6.0       19.8478105402       19.5319811441       27.7004437947
H    1.0       20.6732818163       20.2471747479       27.7082876846
H    1.0       18.8963261347       20.0654636634       27.6452777341
H    1.0       19.8778078471       18.9241024256       28.6074906519
 $end
$$$$
! Edit this basic GAMESS input file as needed.
! Conformer was generated by a VeraChem VCPack run 
! and contains     26 atoms.
!
 $contrl scftyp=rhf runtyp=optimize nzvar=0
  maxit=200 icharg=0 $end
 $system mwords=50 $end
 $basis gbasis=pm3 $end
 $statpt nstep=200 $end
 $guess guess=huckel $end
 $data
VM2 Rank=2      G=75.757            E=43.423            -TS=32.334              
C1
N    7.0       20.3922884449       19.0034722414       26.6222333020
H    1.0       20.8629660690       19.5626115792       27.3514964150
H    1.0       20.8761290486       18.0922664874       26.6320871441
C    6.0       20.5688799154       19.6776122355       25.2718420975
H    1.0       21.6302308446       19.9156208745       25.1643323553
H    1.0       20.0108703831       20.6171474161       25.2890961797
C    6.0       20.1225063360       18.8244479401       24.0670595818
H    1.0       20.6518657577       17.8626033955       24.0860054435
H    1.0       19.0501551491       18.6035793187       24.1454891279
C    6.0       20.4031966027       19.5463292895       22.7304669030
H    1.0       21.4765606188       19.7691687880       22.6529036710
H    1.0       19.8769504578       20.5110658884       22.7181645099
C    6.0       19.9615458555       18.7009317475       21.5140612463
H    1.0       20.4874446496       17.7361513982       21.5264706869
H    1.0       18.8882254869       18.4783337703       21.5912477954
C    6.0       20.2425282686       19.4231146762       20.1773939360
H    1.0       21.3155939792       19.6458253868       20.0941792870
H    1.0       19.7165679897       20.3880100621       20.1590289420
C    6.0       19.8001828896       18.5759964347       18.9651191885
H    1.0       20.3348596461       17.6176008726       18.9368108307
H    1.0       20.0077417405       19.1050885673       18.0259661616
H    1.0       18.7233377944       18.3656660973       19.0020960299
C    6.0       18.9168716873       18.8380954351       26.9688237448
H    1.0       18.4412931154       18.1921060918       26.2281662183
H    1.0       18.8312651569       18.3855268029       27.9592518531
H    1.0       18.4362670825       19.8188430850       26.9689548538
 $end
$$$$
! Edit this basic GAMESS input file as needed.
! Conformer was generated by a VeraChem VCPack run 
! and contains     26 atoms.
!
 $contrl scftyp=rhf runtyp=optimize nzvar=0
  maxit=200 icharg=0 $end
 $system mwords=50 $end
 $basis gbasis=pm3 $end
 $statpt nstep=200 $end
 $guess guess=huckel $end
 $data
VM2 Rank=3      G=75.762            E=43.429            -TS=32.333              
C1
N    7.0       19.4983562380       18.9124257323       26.5905914530
H    1.0       19.2085536700       17.9223726320       26.5731635631
H    1.0       18.8748339574       19.3601151541       27.2810933696
C    6.0       19.2844538116       19.5466422900       25.2263251903
H    1.0       19.6389276687       20.5792588593       25.2758321383
H    1.0       18.2070987731       19.5664847913       25.0430627059
C    6.0       19.9769459589       18.8095896287       24.0619167222
H    1.0       21.0636344243       18.8090311947       24.2167757026
H    1.0       19.6524891113       17.7606246451       24.0506994925
C    6.0       19.6506492690       19.4694614225       22.7038040797
H    1.0       19.9709061730       20.5206163052       22.7214609304
H    1.0       18.5625220082       19.4716339567       22.5496664967
C    6.0       20.3379217626       18.7392985530       21.5274113637
H    1.0       21.4259824038       18.7373505032       21.6811825831
H    1.0       20.0180022084       17.6881722768       21.5098545423
C    6.0       20.0113056722       19.3994589640       20.1692212386
H    1.0       20.3315671138       20.4507872893       20.1808935304
H    1.0       18.9239013423       19.4015023989       20.0093994131
C    6.0       20.6994687363       18.6678469245       18.9970201329
H    1.0       21.7913059270       18.6790630586       19.1108960942
H    1.0       20.4556854143       19.1508473608       18.0418724294
H    1.0       20.3726859033       17.6214482600       18.9381561637
C    6.0       20.9488985514       19.0452764851       27.0407098196
H    1.0       21.2208487780       20.1027158426       27.0673555078
H    1.0       21.0544197636       18.6122983770       28.0379506041
H    1.0       21.5954975429       18.5135598373       26.3398249495
 $end
$$$$
! Edit this basic GAMESS input file as needed.
! Conformer was generated by a VeraChem VCPack run 
! and contains     26 atoms.
!
 $contrl scftyp=rhf runtyp=optimize nzvar=0
  maxit=200 icharg=0 $end
 $system mwords=50 $end
 $basis gbasis=pm3 $end
 $statpt nstep=200 $end
 $guess guess=huckel $end
 $data
VM2 Rank=4      G=75.944            E=43.689            -TS=32.255              
C1
N    7.0       20.5558812955       19.2936261786       25.9474679157
H    1.0       20.9608095533       20.0234182521       25.3419937003
H    1.0       21.2648699746       18.5451629734       25.9905520086
C    6.0       19.2731701097       18.7626491649       25.3370093638
H    1.0       18.5525570648       19.5834527636       25.2989733523
H    1.0       18.8812162897       17.9954926828       26.0096682569
C    6.0       19.4517754319       18.1635119781       23.9280254308
H    1.0       20.1814404883       17.3437719381       23.9678196693
H    1.0       18.4973833905       17.7179067174       23.6173583189
C    6.0       19.8906878648       19.2154209087       22.8816292623
H    1.0       20.8632316263       19.6405065281       23.1634509552
H    1.0       19.1703411683       20.0453783624       22.8730029140
C    6.0       19.9934254438       18.6072663729       21.4642999155
H    1.0       20.7112127477       17.7752482321       21.4725324406
H    1.0       19.0214376497       18.1849412987       21.1737810451
C    6.0       20.4322873858       19.6554068916       20.4173625707
H    1.0       21.4059216514       20.0789172994       20.7013509814
H    1.0       19.7161503125       20.4890516946       20.4039032499
C    6.0       20.5329903767       19.0444642318       19.0033334318
H    1.0       21.2677988418       18.2292653506       18.9767161766
H    1.0       20.8456442120       19.8033908859       18.2744287136
H    1.0       19.5648921074       18.6427723069       18.6767871895
C    6.0       20.2777820918       19.8476542734       27.3378721093
H    1.0       19.8798274319       19.0501239816       27.9691542827
H    1.0       21.2087598004       20.2266356969       27.7653978173
H    1.0       19.5495759981       20.6581944888       27.2624737301
 $end
$$$$
! Edit this basic GAMESS input file as needed.
! Conformer was generated by a VeraChem VCPack run 
! and contains     26 atoms.
!
 $contrl scftyp=rhf runtyp=optimize nzvar=0
  maxit=200 icharg=0 $end
 $system mwords=50 $end
 $basis gbasis=pm3 $end
 $statpt nstep=200 $end
 $guess guess=huckel $end
 $data
VM2 Rank=5      G=76.028            E=43.768            -TS=32.260              
C1
N    7.0       19.9281216311       18.8065095771       26.2895787694
H    1.0       20.7993220842       19.0420266352       26.7899620464
H    1.0       19.8670604373       17.7767257485       26.3146787225
C    6.0       20.0011844300       19.2913429465       24.8556895193
H    1.0       20.0755623125       20.3815593188       24.8736568134
H    1.0       19.0647573075       19.0175804434       24.3639441510
C    6.0       21.1920420326       18.7035760743       24.0742251649
H    1.0       22.1234466326       18.9481142945       24.6020642637
H    1.0       21.1183123845       17.6080111317       24.0576959370
C    6.0       21.2799863170       19.2405540295       22.6260654460
H    1.0       22.1973053502       18.8526856255       22.1617690453
H    1.0       21.3814098672       20.3346160065       22.6465836177
C    6.0       20.0626305408       18.8450504982       21.7557113403
H    1.0       19.9442249323       17.7526479147       21.7644869220
H    1.0       19.1429977535       19.2681814345       22.1815215572
C    6.0       20.2163290806       19.3333058320       20.2979200109
H    1.0       21.1298055806       18.9088150273       19.8582013034
H    1.0       20.3359567018       20.4257683702       20.2831715822
C    6.0       19.0010117961       18.9397247914       19.4312936287
H    1.0       18.0755117580       19.3788531981       19.8260213556
H    1.0       18.8754509239       17.8495913304       19.3989869547
H    1.0       19.1288492704       19.2944983634       18.4003619783
C    6.0       18.7266941719       19.4299362510       26.9865161205
H    1.0       18.6858815804       19.0728467120       28.0180030953
H    1.0       18.8299365643       20.5172272918       26.9764505789
H    1.0       17.8151557507       19.1397233261       26.4594204215
 $end
$$$$
! Edit this basic GAMESS input file as needed.
! Conformer was generated by a VeraChem VCPack run 
! and contains     26 atoms.
!
 $contrl scftyp=rhf runtyp=optimize nzvar=0
  maxit=200 icharg=0 $end
 $system mwords=50 $end
 $basis gbasis=pm3 $end
 $statpt nstep=200 $end
 $guess guess=huckel $end
 $data
VM2 Rank=6      G=76.059            E=43.798            -TS=32.260              
C1
N    7.0       20.0149913282       18.8153641453       26.2926685665
H    1.0       20.2811226900       17.8190523593       26.3293989398
H    1.0       19.0812746796       18.8662562356       26.7290442992
C    6.0       19.9460924091       19.2856359484       24.8537329068
H    1.0       20.9506190801       19.2102744746       24.4307655503
H    1.0       19.6518645842       20.3381707381       24.8586065856
C    6.0       18.9563026929       18.4749420191       23.9950221932
H    1.0       19.2509030705       17.4170341706       23.9915125622
H    1.0       17.9600752685       18.5223953739       24.4545940519
C    6.0       18.8632537750       18.9934618611       22.5404702324
H    1.0       18.5416492447       20.0442793463       22.5460473613
H    1.0       18.0780386595       18.4315746828       22.0158694643
C    6.0       20.1932960652       18.8583980522       21.7603164295
H    1.0       20.9763125576       19.4556268733       22.2464056812
H    1.0       20.5291470479       17.8124411225       21.7851961560
C    6.0       20.0464952996       19.3158965843       20.2918753601
H    1.0       19.7097487875       20.3616730908       20.2609489529
H    1.0       19.2708090109       18.7186020794       19.7923396585
C    6.0       21.3739255236       19.1824224388       19.5153080684
H    1.0       21.2494692962       19.5113317366       18.4754246753
H    1.0       21.7193199042       18.1404714016       19.4997354879
H    1.0       22.1615303059       19.7968458092       19.9706731730
C    6.0       21.0136429064       19.6638789508       27.0676062429
H    1.0       21.0534538938       19.3150216575       28.1019450218
H    1.0       21.9996883815       19.5678301398       26.6077745373
H    1.0       20.6935794932       20.7078586838       27.0425565773
 $end
$$$$
! Edit this basic GAMESS input file as needed.
! Conformer was generated by a VeraChem VCPack run 
! and contains     26 atoms.
!
 $contrl scftyp=rhf runtyp=optimize nzvar=0
  maxit=200 icharg=0 $end
 $system mwords=50 $end
 $basis gbasis=pm3 $end
 $statpt nstep=200 $end
 $guess guess=huckel $end
 $data
VM2 Rank=7      G=76.060            E=43.581            -TS=32.480              
C1
N    7.0       19.5900370091       19.7659974703       26.0203442235
H    1.0       18.9701305557       19.9962292130       26.8131869408
H    1.0       19.4490330137       20.5279732145       25.3404609520
C    6.0       19.1665756037       18.4377768583       25.4124627635
H    1.0       18.0904191748       18.4913908083       25.2290662574
H    1.0       19.3412118706       17.6610831829       26.1612973157
C    6.0       19.8809877071       18.0564847239       24.0973026799
H    1.0       20.9574867963       17.9411650552       24.2781924024
H    1.0       19.5144495149       17.0715804382       23.7790044465
C    6.0       19.6409894271       19.0830346275       22.9649379316
H    1.0       20.0430051346       20.0619306396       23.2586588377
H    1.0       18.5606540987       19.2136736117       22.8117818752
C    6.0       20.3005512257       18.6402920020       21.6390323758
H    1.0       21.3803523129       18.5063397933       21.7926873953
H    1.0       19.8992895938       17.6629692480       21.3368406023
C    6.0       20.0648961837       19.6653709628       20.5072721434
H    1.0       20.4673246670       20.6443664499       20.8032336346
H    1.0       18.9858965848       19.8014285153       20.3484095398
C    6.0       20.7246651972       19.2195851045       19.1848343254
H    1.0       20.5465076833       19.9596527024       18.3938973532
H    1.0       20.3173658743       18.2585790034       18.8445757982
H    1.0       21.8103734144       19.1080066804       19.3031012470
C    6.0       21.0392976463       19.7214582507       26.4908135569
H    1.0       21.2950655780       20.6782647996       26.9514088777
H    1.0       21.1546690888       18.9179145099       27.2214256770
H    1.0       21.6915531596       19.5404429279       25.6340923196
 $end
$$$$
! Edit this basic GAMESS input file as needed.
! Conformer was generated by a VeraChem VCPack run 
! and contains     26 atoms.
!
 $contrl scftyp=rhf runtyp=optimize nzvar=0
  maxit=200 icharg=0 $end
 $system mwords=50 $end
 $basis gbasis=pm3 $end
 $statpt nstep=200 $end
 $guess guess=huckel $end
 $data
VM2 Rank=8      G=76.098            E=43.619            -TS=32.479              
C1
N    7.0       20.1695650738       19.8255194085       26.0408901279
H    1.0       20.2000923553       20.6051082775       25.3670672171
H    1.0       20.6728788426       20.1711113344       26.8734356204
C    6.0       20.8952708239       18.6153173414       25.4736362013
H    1.0       20.8300021109       17.8139760376       26.2139717266
H    1.0       21.9482746794       18.8875735202       25.3655601953
C    6.0       20.3668733796       18.1064320758       24.1145021492
H    1.0       20.9468899758       17.2186188719       23.8297766291
H    1.0       19.3261617714       17.7739148329       24.2204335126
C    6.0       20.4723895980       19.1683564666       22.9943084569
H    1.0       21.5118232010       19.5163738762       22.9161422204
H    1.0       19.8607487277       20.0433155976       23.2521184724
C    6.0       20.0106664755       18.6105632703       21.6287506253
H    1.0       20.6218105181       17.7370222539       21.3624416805
H    1.0       18.9723740686       18.2594541052       21.7074568843
C    6.0       20.1122768133       19.6701551325       20.5088659398
H    1.0       21.1497299433       20.0231783816       20.4248743240
H    1.0       19.5001120402       20.5451533276       20.7688779362
C    6.0       19.6506867273       19.1093381270       19.1467803377
H    1.0       18.6045591551       18.7792189861       19.1896328784
H    1.0       20.2670607511       18.2532563198       18.8427933719
H    1.0       19.7300527005       19.8757615291       18.3649118805
C    6.0       18.7302711086       19.4843181779       26.4092661619
H    1.0       18.1898396213       19.1807604003       25.5104001912
H    1.0       18.7296738101       18.6689003989       27.1358223144
H    1.0       18.2540322549       20.3659635735       26.8439413789
 $end
