$$$$
! Edit this basic GAMESS input file as needed.
! Conformer was generated by a VeraChem VCPack run 
! and contains     17 atoms.
!
 $contrl scftyp=rhf runtyp=optimize nzvar=0
  maxit=200 icharg=0 $end
 $system mwords=50 $end
 $basis gbasis=pm3 $end
 $statpt nstep=200 $end
 $guess guess=huckel $end
 $data
VM2 Rank=1      G=-26.660           E=-36.826           -TS=10.165              
C1
C    6.0       20.1216159627       19.0267562083       25.0643114883
O    8.0       21.2292956991       19.3332494421       25.4594687021
O    8.0       19.0984688577       19.5456514186       25.4655079336
C    6.0       20.0077240383       17.9136218641       24.0271932504
H    1.0       19.0747797224       17.3708309286       24.2188496883
H    1.0       20.8162686871       17.1972820083       24.2138818381
C    6.0       20.0480084787       18.3594440194       22.5718603158
H    1.0       19.9643847152       17.5395948688       21.8612922813
C    6.0       20.1727440379       19.6232974765       22.1416517988
H    1.0       20.2558880313       20.4371263942       22.8608269204
C    6.0       20.2150197923       20.0871823998       20.6950137511
H    1.0       19.4080127061       20.8139994015       20.5307399383
H    1.0       21.1486774058       20.6405608996       20.5260016089
C    6.0       20.1001231333       18.9627971712       19.6419927599
H    1.0       19.1508367548       18.4210686678       19.7458673341
H    1.0       20.1390408873       19.3804954000       18.6275718264
H    1.0       20.9243357279       18.2442892971       19.7411118820
 $end
$$$$
! Edit this basic GAMESS input file as needed.
! Conformer was generated by a VeraChem VCPack run 
! and contains     17 atoms.
!
 $contrl scftyp=rhf runtyp=optimize nzvar=0
  maxit=200 icharg=0 $end
 $system mwords=50 $end
 $basis gbasis=pm3 $end
 $statpt nstep=200 $end
 $guess guess=huckel $end
 $data
VM2 Rank=2      G=-26.576           E=-36.435           -TS=9.860               
C1
C    6.0       19.9357829655       19.0108689433       25.0042101759
O    8.0       18.8065845798       18.5760163651       25.1173775327
O    8.0       20.3104896599       20.0472643367       25.5166178512
C    6.0       20.9449553577       18.1981661157       24.1988143118
H    1.0       20.6938685714       17.1376519040       24.3172771817
H    1.0       21.9289239647       18.3287213886       24.6640898019
C    6.0       21.0313954862       18.5395479257       22.7179823532
H    1.0       21.7576744929       17.9479577682       22.1620276995
C    6.0       20.3099915712       19.4700409317       22.0817789405
H    1.0       19.5764824582       20.0746242053       22.6139222758
C    6.0       20.4356604355       19.7718796097       20.6049438107
H    1.0       20.5199612952       20.8566644255       20.4544284616
H    1.0       21.3528015304       19.3250066145       20.1971317994
C    6.0       19.2181399443       19.2382157721       19.8252750239
H    1.0       19.3139693185       19.4611972429       18.7546884671
H    1.0       19.1282559900       18.1499527288       19.9401602180
H    1.0       18.2891983883       19.6979963211       20.1873905575
 $end
$$$$
! Edit this basic GAMESS input file as needed.
! Conformer was generated by a VeraChem VCPack run 
! and contains     17 atoms.
!
 $contrl scftyp=rhf runtyp=optimize nzvar=0
  maxit=200 icharg=0 $end
 $system mwords=50 $end
 $basis gbasis=pm3 $end
 $statpt nstep=200 $end
 $guess guess=huckel $end
 $data
VM2 Rank=3      G=-26.547           E=-36.407           -TS=9.860               
C1
C    6.0       20.3003228155       18.9745493818       25.0031499045
O    8.0       20.1401771178       20.0641168653       25.5172274905
O    8.0       21.3222674421       18.3255578522       25.1100732508
C    6.0       19.1461962131       18.3773012858       24.2038643161
H    1.0       18.2099213254       18.6990837814       24.6745712981
H    1.0       19.1838586494       17.2880291780       24.3214904781
C    6.0       19.1204913767       18.7298854610       22.7233601806
H    1.0       18.2888346663       18.2932827586       22.1717543786
C    6.0       20.0076358925       19.5002334337       22.0826308889
H    1.0       20.8489315589       19.9479976560       22.6103266658
C    6.0       19.9358317811       19.8215510746       20.6063057439
H    1.0       18.9464122165       19.5642979872       20.2037842952
H    1.0       20.0660755245       20.9017474996       20.4555323641
C    6.0       21.0200773613       19.0588046456       19.8203882247
H    1.0       22.0233567525       19.3263913031       20.1771636150
H    1.0       20.8944094670       17.9741144271       19.9354920235
H    1.0       20.9642261977       19.2967535392       18.7501917970
 $end
$$$$
! Edit this basic GAMESS input file as needed.
! Conformer was generated by a VeraChem VCPack run 
! and contains     17 atoms.
!
 $contrl scftyp=rhf runtyp=optimize nzvar=0
  maxit=200 icharg=0 $end
 $system mwords=50 $end
 $basis gbasis=pm3 $end
 $statpt nstep=200 $end
 $guess guess=huckel $end
 $data
VM2 Rank=4      G=-26.539           E=-36.513           -TS=9.974               
C1
C    6.0       20.2302162366       19.0496637487       25.1478325392
O    8.0       21.3844752603       18.9679211206       25.5192804538
O    8.0       19.4241990010       19.8243235668       25.6243717633
C    6.0       19.7681993967       18.1233391800       24.0306219462
H    1.0       18.6807131831       18.0063576441       24.1098437611
H    1.0       20.2104475782       17.1364869180       24.2096471456
C    6.0       20.1636027843       18.6293444594       22.6562048917
H    1.0       21.2340698117       18.6180188627       22.4585666319
C    6.0       19.2894584843       19.0664239960       21.7410325359
H    1.0       18.2256688878       19.0670468103       21.9764792315
C    6.0       19.6148828819       19.5884134728       20.3517097197
H    1.0       19.0770845473       18.9841973260       19.6086072088
H    1.0       19.2140466173       20.6060596970       20.2504755755
C    6.0       21.1179659550       19.6025704559       19.9959461503
H    1.0       21.2695540266       19.9922397192       18.9809540120
H    1.0       21.6807103886       20.2418107944       20.6888952192
H    1.0       21.5414425988       18.5903350070       20.0340375695
 $end
$$$$
! Edit this basic GAMESS input file as needed.
! Conformer was generated by a VeraChem VCPack run 
! and contains     17 atoms.
!
 $contrl scftyp=rhf runtyp=optimize nzvar=0
  maxit=200 icharg=0 $end
 $system mwords=50 $end
 $basis gbasis=pm3 $end
 $statpt nstep=200 $end
 $guess guess=huckel $end
 $data
VM2 Rank=5      G=-26.491           E=-36.127           -TS=9.636               
C1
C    6.0       20.1141282745       18.9945511451       25.2590130200
O    8.0       21.1852708016       19.4019581927       25.6633530276
O    8.0       19.0545903957       19.2356366397       25.8032717292
C    6.0       20.0969091605       18.1295746082       24.0055675215
H    1.0       19.3781208492       17.3181873316       24.1683663960
H    1.0       21.0845223038       17.6658261990       23.8951300687
C    6.0       19.7230713413       18.9149825288       22.7629386050
H    1.0       18.6942006789       19.2721610199       22.7305539099
C    6.0       20.5643381787       19.1754141936       21.7576147265
H    1.0       21.5938591875       18.8205006561       21.7920139474
C    6.0       20.1908607266       19.9619736428       20.5210188644
H    1.0       19.2417990316       20.4935651526       20.6756560988
H    1.0       20.9530148324       20.7282542549       20.3248819766
C    6.0       20.0638311212       19.0379090491       19.2942225058
H    1.0       19.2882594470       18.2779562891       19.4571900277
H    1.0       19.7933489094       19.6143530226       18.3999983016
H    1.0       21.0116382800       18.5216262303       19.0928732716
 $end
$$$$
! Edit this basic GAMESS input file as needed.
! Conformer was generated by a VeraChem VCPack run 
! and contains     17 atoms.
!
 $contrl scftyp=rhf runtyp=optimize nzvar=0
  maxit=200 icharg=0 $end
 $system mwords=50 $end
 $basis gbasis=pm3 $end
 $statpt nstep=200 $end
 $guess guess=huckel $end
 $data
VM2 Rank=6      G=-26.485           E=-36.460           -TS=9.974               
C1
C    6.0       20.0343394366       18.8557264576       25.1338344569
O    8.0       20.0800449486       17.6769006302       25.4258126731
O    8.0       19.2331782320       19.6354580469       25.6102895285
C    6.0       21.0425969082       19.3844143952       24.1221048587
H    1.0       22.0104238081       18.9176516923       24.3387918556
H    1.0       21.1620824938       20.4618184346       24.2879612761
C    6.0       20.6341618865       19.0950621599       22.6900248883
H    1.0       20.6513547612       18.0414376195       22.4167671878
C    6.0       20.2714143194       20.0381376550       21.8115427879
H    1.0       20.2622941937       21.0822706345       22.1226491327
C    6.0       19.8488649178       19.8198845418       20.3684899170
H    1.0       18.8444888800       20.2403845404       20.2238184199
H    1.0       20.5096412844       20.4014111840       19.7114459878
C    6.0       19.8483993509       18.3464161133       19.9049008897
H    1.0       19.1561818962       17.7440666669       20.5078094901
H    1.0       19.5319995708       18.2729739696       18.8563175316
H    1.0       20.8517839182       17.9079408370       19.9846669967
 $end
$$$$
! Edit this basic GAMESS input file as needed.
! Conformer was generated by a VeraChem VCPack run 
! and contains     17 atoms.
!
 $contrl scftyp=rhf runtyp=optimize nzvar=0
  maxit=200 icharg=0 $end
 $system mwords=50 $end
 $basis gbasis=pm3 $end
 $statpt nstep=200 $end
 $guess guess=huckel $end
 $data
VM2 Rank=7      G=-26.482           E=-36.117           -TS=9.636               
C1
C    6.0       20.1102406743       18.9988940199       25.2592086736
O    8.0       20.6752517763       19.9846197964       25.6903998051
O    8.0       20.2331245984       17.8896040610       25.7401817531
C    6.0       19.1935655904       19.1612368777       24.0538230981
H    1.0       18.8609273447       20.2054583400       24.0139151026
H    1.0       18.3020615927       18.5471265871       24.2258627986
C    6.0       19.8637624961       18.7541519796       22.7554164031
H    1.0       20.0788791823       17.6905904586       22.6566172618
C    6.0       20.1872289139       19.6061403850       21.7778114734
H    1.0       19.9747269457       20.6699736840       21.8786142685
C    6.0       20.8591579003       19.1989792535       20.4855066789
H    1.0       21.7100209638       19.8639571266       20.2845826497
H    1.0       21.2665068347       18.1818771338       20.5679074530
C    6.0       19.8706680503       19.2583736268       19.3046521147
H    1.0       20.3640919145       18.9625668114       18.3697102435
H    1.0       19.0227778890       18.5810023063       19.4715354586
H    1.0       19.4761161227       20.2746902232       19.1748171428
 $end
$$$$
! Edit this basic GAMESS input file as needed.
! Conformer was generated by a VeraChem VCPack run 
! and contains     17 atoms.
!
 $contrl scftyp=rhf runtyp=optimize nzvar=0
  maxit=200 icharg=0 $end
 $system mwords=50 $end
 $basis gbasis=pm3 $end
 $statpt nstep=200 $end
 $guess guess=huckel $end
 $data
VM2 Rank=8      G=-26.408           E=-36.055           -TS=9.647               
C1
C    6.0       20.1633208759       19.1350854696       25.1460289243
O    8.0       21.2735212244       19.5657071733       25.3885817195
O    8.0       19.1534426765       19.5353419343       25.6909552942
C    6.0       20.0289388526       18.0258809083       24.1109278963
H    1.0       19.3067801390       17.2959400929       24.4945395512
H    1.0       20.9941845988       17.5113715338       24.0319755773
C    6.0       19.5771751911       18.5445934889       22.7590341210
H    1.0       18.5593088688       18.9319915958       22.7260602141
C    6.0       20.3424717947       18.5521925098       21.6633678895
H    1.0       21.3619518960       18.1694294951       21.6981788011
C    6.0       19.8910566043       19.0725801308       20.3169799371
H    1.0       20.1379255858       18.3417633745       19.5350044968
H    1.0       18.7995332185       19.1969581068       20.2992258600
C    6.0       20.5630727805       20.4206183849       19.9911242181
H    1.0       20.2315976851       20.7938739301       19.0134370662
H    1.0       20.3100646469       21.1750761468       20.7477357203
H    1.0       21.6557531429       20.3170446774       19.9637613122
 $end
