$$$$
! Edit this basic GAMESS input file as needed.
! Conformer was generated by a VeraChem VCPack run 
! and contains     26 atoms.
!
 $contrl scftyp=rhf runtyp=optimize nzvar=0
  maxit=200 icharg=0 $end
 $system mwords=50 $end
 $basis gbasis=pm3 $end
 $statpt nstep=200 $end
 $guess guess=huckel $end
 $data
VM2 Rank=1      G=48.261            E=15.909            -TS=32.352              
C1
C    6.0       19.9052420576       19.3106543774       18.8162318403
H    1.0       20.2945394039       20.3369141828       18.7942564233
H    1.0       20.2786888902       18.7894590458       17.9251977069
H    1.0       18.8107838950       19.3584959947       18.7447011602
C    6.0       20.3457234401       18.5775995448       20.1010414976
H    1.0       21.4427189633       18.5157423358       20.1275437707
H    1.0       19.9704312751       17.5448508669       20.0783555286
C    6.0       19.8326675654       19.2912455397       21.3713904494
H    1.0       20.2083395884       20.3237315782       21.3883447436
H    1.0       18.7360161267       19.3526283447       21.3392440089
C    6.0       20.2719018430       18.5601574857       22.6601694521
H    1.0       21.3686241819       18.4989311121       22.6913083380
H    1.0       19.8961935415       17.5276669430       22.6421645690
C    6.0       19.7582874866       19.2745040098       23.9307797218
H    1.0       20.1339547717       20.3071341205       23.9492281085
H    1.0       18.6614430202       19.3359449087       23.9000079581
C    6.0       20.1968081810       18.5443018077       25.2192687556
H    1.0       21.2928323849       18.4854849884       25.2564167655
H    1.0       19.8187531846       17.5132652526       25.2071230883
C    6.0       19.6802385839       19.2637137151       26.4777028914
H    1.0       20.0676220309       20.2858648982       26.5026029008
H    1.0       18.5881247145       19.3101805812       26.4530588851
N    7.0       20.0901308425       18.5768235197       27.7644153917
H    1.0       19.7359452080       19.0719964838       28.5901411342
H    1.0       21.1094563375       18.5250166835       27.8621583725
H    1.0       19.7327987503       17.6171843555       27.8160694752
 $end
$$$$
! Edit this basic GAMESS input file as needed.
! Conformer was generated by a VeraChem VCPack run 
! and contains     26 atoms.
!
 $contrl scftyp=rhf runtyp=optimize nzvar=0
  maxit=200 icharg=0 $end
 $system mwords=50 $end
 $basis gbasis=pm3 $end
 $statpt nstep=200 $end
 $guess guess=huckel $end
 $data
VM2 Rank=2      G=48.509            E=16.054            -TS=32.455              
C1
C    6.0       20.1408036704       19.6498920139       19.0008440369
H    1.0       19.1347359084       20.0853363938       18.9420319598
H    1.0       20.8620850980       20.4696395913       19.1148962728
H    1.0       20.3477000423       19.1494308438       18.0459714160
C    6.0       20.2455606034       18.6516022472       20.1732662722
H    1.0       21.2510114495       18.2079322590       20.1855464268
H    1.0       19.5369812525       17.8266845507       20.0140402967
C    6.0       19.9586346883       19.3310140730       21.5306030390
H    1.0       20.6678350868       20.1561761552       21.6841061278
H    1.0       18.9536249856       19.7749435647       21.5126617172
C    6.0       20.0624807591       18.3343305576       22.7071507753
H    1.0       21.0677701082       17.8909295098       22.7245410964
H    1.0       19.3536378348       17.5091421958       22.5519326532
C    6.0       19.7748026815       19.0142351493       24.0648724102
H    1.0       20.4826415914       19.8408145479       24.2124211956
H    1.0       18.7683022836       19.4550980347       24.0483761332
C    6.0       19.8800795360       18.0150757979       25.2412752461
H    1.0       20.8922480962       17.5914034719       25.2861044083
H    1.0       19.1958737944       17.1740749098       25.0664599615
C    6.0       19.5295085807       18.6544345147       26.5987332440
H    1.0       18.5244210940       19.0826092593       26.5553798435
H    1.0       19.5389668790       17.8847573148       27.3753119560
N    7.0       20.4891294806       19.7484156464       27.0242549763
H    1.0       20.2355040748       20.1436980822       27.9362702575
H    1.0       20.5021272361       20.5238216617       26.3545440910
H    1.0       21.4503976275       19.4013946427       27.1053537596
 $end
$$$$
! Edit this basic GAMESS input file as needed.
! Conformer was generated by a VeraChem VCPack run 
! and contains     26 atoms.
!
 $contrl scftyp=rhf runtyp=optimize nzvar=0
  maxit=200 icharg=0 $end
 $system mwords=50 $end
 $basis gbasis=pm3 $end
 $statpt nstep=200 $end
 $guess guess=huckel $end
 $data
VM2 Rank=3      G=48.525            E=16.069            -TS=32.456              
C1
C    6.0       19.4925498969       19.2223243700       18.9791758522
H    1.0       19.4899506852       20.3198676837       18.9539844053
H    1.0       19.9155766861       18.8645352756       18.0315033111
H    1.0       18.4512118768       18.8790778099       19.0342781935
C    6.0       20.3139617999       18.6968068050       20.1755227896
H    1.0       21.3571832691       19.0276892762       20.0748589455
H    1.0       20.3264767899       17.5980213531       20.1545603674
C    6.0       19.7392384309       19.1862793853       21.5232629262
H    1.0       19.7266870811       20.2849367386       21.5385720594
H    1.0       18.6957781773       18.8552002720       21.6181244569
C    6.0       20.5592319875       18.6619768722       22.7237400087
H    1.0       21.6026819272       18.9926735931       22.6270966375
H    1.0       20.5711182435       17.5632856147       22.7079007819
C    6.0       19.9844341565       19.1524488818       24.0718820729
H    1.0       19.9753650502       20.2512253808       24.0887639202
H    1.0       18.9404434481       18.8235005740       24.1608691288
C    6.0       20.8061321091       18.6257892547       25.2722043559
H    1.0       21.8553923583       18.9280392115       25.1552512219
H    1.0       20.7957306414       17.5277129948       25.2828921339
C    6.0       20.2934618844       19.1582151386       26.6242642759
H    1.0       20.9605534389       18.8221878708       27.4227885530
H    1.0       20.2969851551       20.2515168345       26.6146289949
N    7.0       18.8919897347       18.6951592924       26.9709477185
H    1.0       18.2058269235       19.0096184404       26.2779598562
H    1.0       18.5861871445       19.0559012314       27.8812746454
H    1.0       18.8293691658       17.6729420649       27.0177403691
 $end
$$$$
! Edit this basic GAMESS input file as needed.
! Conformer was generated by a VeraChem VCPack run 
! and contains     26 atoms.
!
 $contrl scftyp=rhf runtyp=optimize nzvar=0
  maxit=200 icharg=0 $end
 $system mwords=50 $end
 $basis gbasis=pm3 $end
 $statpt nstep=200 $end
 $guess guess=huckel $end
 $data
VM2 Rank=4      G=48.731            E=16.280            -TS=32.451              
C1
C    6.0       19.7687299718       18.8533592275       18.9896802737
H    1.0       20.5474496062       19.5750369549       18.7103589750
H    1.0       19.7778415732       18.0439541684       18.2481770126
H    1.0       18.7959176006       19.3581132169       18.9256466388
C    6.0       20.0121309845       18.2957876306       20.4081210457
H    1.0       20.9759268001       17.7680976542       20.4319463032
H    1.0       19.2378993332       17.5527107873       20.6454428474
C    6.0       20.0041696685       19.4156432785       21.4721807498
H    1.0       20.7776461605       20.1571870788       21.2287074620
H    1.0       19.0396718142       19.9413501262       21.4433873085
C    6.0       20.2481329849       18.8613107877       22.8939996565
H    1.0       21.2140877961       18.3382792602       22.9220669953
H    1.0       19.4755841005       18.1166243667       23.1278313581
C    6.0       20.2381509800       19.9852669188       23.9577847853
H    1.0       20.9813290686       20.7473366519       23.6850767044
H    1.0       19.2615609678       20.4891564818       23.9558403185
C    6.0       20.5520618927       19.4746472782       25.3837255533
H    1.0       20.6145415656       20.3342453421       26.0642678100
H    1.0       21.5388581658       18.9928547154       25.3943348248
C    6.0       19.4900679706       18.4916099881       25.9111408374
H    1.0       18.5077117759       18.9714871412       25.9017985490
H    1.0       19.4490054886       17.6098331453       25.2665814015
N    7.0       19.7675555469       18.0213748906       27.3243670982
H    1.0       19.0495038751       17.3683860377       27.6566438650
H    1.0       19.7914726869       18.8017321093       27.9889655956
H    1.0       20.6680658546       17.5364275086       27.3958982036
 $end
$$$$
! Edit this basic GAMESS input file as needed.
! Conformer was generated by a VeraChem VCPack run 
! and contains     26 atoms.
!
 $contrl scftyp=rhf runtyp=optimize nzvar=0
  maxit=200 icharg=0 $end
 $system mwords=50 $end
 $basis gbasis=pm3 $end
 $statpt nstep=200 $end
 $guess guess=huckel $end
 $data
VM2 Rank=5      G=48.734            E=16.284            -TS=32.451              
C1
C    6.0       20.3709971621       19.2510354913       19.0098891101
H    1.0       21.1452328489       18.9462125875       18.2938664604
H    1.0       19.4151438559       18.8294882685       18.6724169540
H    1.0       20.2929279287       20.3455719173       18.9761521135
C    6.0       20.7212405827       18.7633993926       20.4317374522
H    1.0       21.6969257629       19.1737059953       20.7277183372
H    1.0       20.8258164340       17.6693412483       20.4264571724
C    6.0       19.6464261477       19.1796672493       21.4602615683
H    1.0       19.5439946585       20.2737237558       21.4604928625
H    1.0       18.6727827704       18.7694248550       21.1583504686
C    6.0       19.9934858396       18.6930340179       22.8854326701
H    1.0       20.9700476719       19.1015877927       23.1777973152
H    1.0       20.0930309693       17.5987270878       22.8843488957
C    6.0       18.9156203206       19.1126914964       23.9135918776
H    1.0       18.8363311510       20.2083959162       23.9415575090
H    1.0       17.9365112180       18.7388241542       23.5834365581
C    6.0       19.1951421344       18.5794440872       25.3384066395
H    1.0       19.2499175837       17.4828193756       25.3179528177
H    1.0       18.3493600997       18.8399233524       25.9885999398
C    6.0       20.4904249344       19.1514967159       25.9445098882
H    1.0       21.3465180859       18.8613863814       25.3300088708
H    1.0       20.4356576448       20.2432539934       25.9659301123
N    7.0       20.7476628785       18.6682315494       27.3571707939
H    1.0       19.9905743105       18.9336006355       27.9956203413
H    1.0       21.6139019278       19.0603006296       27.7422828037
H    1.0       20.8362337426       17.6477561471       27.4018141718
 $end
$$$$
! Edit this basic GAMESS input file as needed.
! Conformer was generated by a VeraChem VCPack run 
! and contains     26 atoms.
!
 $contrl scftyp=rhf runtyp=optimize nzvar=0
  maxit=200 icharg=0 $end
 $system mwords=50 $end
 $basis gbasis=pm3 $end
 $statpt nstep=200 $end
 $guess guess=huckel $end
 $data
VM2 Rank=6      G=48.855            E=16.392            -TS=32.463              
C1
C    6.0       19.4449360845       18.1621008539       19.5242204172
H    1.0       18.4489742497       18.6235903894       19.5136098875
H    1.0       19.6604887238       17.8056181099       18.5086438177
H    1.0       19.4106514286       17.2841977070       20.1811442825
C    6.0       20.5209248776       19.1726518889       19.9822706069
H    1.0       20.6012414203       19.9695314334       19.2297196076
H    1.0       21.5023272822       18.6790405844       20.0131046445
C    6.0       20.2153203343       19.8164153951       21.3562738742
H    1.0       20.9648963840       20.5960547840       21.5502514948
H    1.0       19.2429255340       20.3262620228       21.3142146532
C    6.0       20.2241188732       18.8044721113       22.5271072090
H    1.0       21.1783998650       18.2599174124       22.5339124927
H    1.0       19.4316830588       18.0585041521       22.3821716012
C    6.0       20.0184683609       19.5030127361       23.8903699794
H    1.0       20.8117128632       20.2475483072       24.0458485749
H    1.0       19.0656865859       20.0506666295       23.8823341179
C    6.0       20.0229907012       18.4950006646       25.0606890602
H    1.0       20.9757023604       17.9488843636       25.0748035703
H    1.0       19.2276954105       17.7522925183       24.9124001236
C    6.0       19.8179314865       19.2009595832       26.4125764588
H    1.0       20.6169650844       19.9300467741       26.5721156074
H    1.0       18.8625984182       19.7327515686       26.4090448948
N    7.0       19.8163092818       18.2443867667       27.5874923943
H    1.0       19.0681465532       17.5473971399       27.5119342856
H    1.0       19.6783873003       18.7349218180       28.4778928536
H    1.0       20.7005567107       17.7310042239       27.6636491160
 $end
$$$$
! Edit this basic GAMESS input file as needed.
! Conformer was generated by a VeraChem VCPack run 
! and contains     26 atoms.
!
 $contrl scftyp=rhf runtyp=optimize nzvar=0
  maxit=200 icharg=0 $end
 $system mwords=50 $end
 $basis gbasis=pm3 $end
 $statpt nstep=200 $end
 $guess guess=huckel $end
 $data
VM2 Rank=7      G=48.894            E=16.431            -TS=32.463              
C1
C    6.0       21.1081276473       19.2583549295       19.5797993642
H    1.0       21.8972100882       18.9231733832       20.2642287376
H    1.0       21.3980072472       18.9508631126       18.5667067946
H    1.0       21.0763926203       20.3554196258       19.6014039125
C    6.0       19.7358051627       18.6550846329       19.9560592036
H    1.0       19.8018381876       17.5580912608       19.9563406719
H    1.0       19.0074806141       18.9189144995       19.1764831818
C    6.0       19.2008157554       19.1476733137       21.3223872609
H    1.0       19.1166376423       20.2431293625       21.3099206904
H    1.0       18.1812457634       18.7609034257       21.4573507145
C    6.0       20.0723034215       18.7045577127       22.5220193860
H    1.0       21.0754526358       19.1426272659       22.4370676942
H    1.0       20.1972698162       17.6131450265       22.5010865594
C    6.0       19.4481006681       19.1270344583       23.8713206332
H    1.0       19.3197011821       20.2183252952       23.8908679047
H    1.0       18.4454810226       18.6872861074       23.9668068881
C    6.0       20.3177063508       18.6894392310       25.0705073717
H    1.0       21.3190554306       19.1317411251       24.9823594365
H    1.0       20.4446146340       17.5986553778       25.0568642613
C    6.0       19.6868077742       19.1143527231       26.4082051533
H    1.0       19.5736030868       20.2015721805       26.4329918437
H    1.0       18.6959722161       18.6629081708       26.5078026875
N    7.0       20.5113332200       18.7025029988       27.6107016272
H    1.0       20.6322058829       17.6855960308       27.6611438378
H    1.0       20.0734068399       18.9950148457       28.4911094175
H    1.0       21.4487780235       19.1173328667       27.5916191784
 $end
$$$$
! Edit this basic GAMESS input file as needed.
! Conformer was generated by a VeraChem VCPack run 
! and contains     26 atoms.
!
 $contrl scftyp=rhf runtyp=optimize nzvar=0
  maxit=200 icharg=0 $end
 $system mwords=50 $end
 $basis gbasis=pm3 $end
 $statpt nstep=200 $end
 $guess guess=huckel $end
 $data
VM2 Rank=8      G=48.924            E=16.473            -TS=32.451              
C1
C    6.0       20.1863040086       19.7827765249       19.1892394959
H    1.0       19.1865665137       20.2302934623       19.1150980127
H    1.0       20.9112916719       20.5117547571       18.8045022554
H    1.0       20.2158141204       18.9014048863       18.5353735569
C    6.0       20.5169964290       19.4033128273       20.6483281615
H    1.0       20.5180251975       20.3142812655       21.2613390924
H    1.0       21.5326628218       18.9862149714       20.6947977580
C    6.0       19.5050781653       18.3790560116       21.2142187402
H    1.0       18.4971889839       18.8165598749       21.2166833961
H    1.0       19.4623230868       17.5112123125       20.5416331051
C    6.0       19.8577976204       17.8795697936       22.6369000655
H    1.0       20.8595745566       17.4282011301       22.6300595499
H    1.0       19.1591304942       17.0751366158       22.9054924291
C    6.0       19.7903859545       18.9867353524       23.7163126743
H    1.0       20.5371282810       19.7634393004       23.5050716238
H    1.0       18.8053760409       19.4727915861       23.6834989372
C    6.0       20.0383344702       18.4224303245       25.1326330493
H    1.0       21.0225640593       17.9366080643       25.1698420409
H    1.0       19.2895775065       17.6521345408       25.3608660637
C    6.0       19.9736360043       19.5297937395       26.1992397989
H    1.0       20.7287468476       20.2911847445       25.9857904705
H    1.0       18.9894180545       20.0054941071       26.1768151518
N    7.0       20.2124673477       19.0153254261       27.6041280141
H    1.0       21.1353845460       18.5790463003       27.6996913996
H    1.0       19.5169944278       18.3132896956       27.8774716088
H    1.0       20.1650690001       19.7686557536       28.2988934809
 $end
