$$$$
! Edit this basic GAMESS input file as needed.
! Conformer was generated by a VeraChem VCPack run 
! and contains     20 atoms.
!
 $contrl scftyp=rhf runtyp=optimize nzvar=0
  maxit=200 icharg=0 $end
 $system mwords=50 $end
 $basis gbasis=pm3 $end
 $statpt nstep=200 $end
 $guess guess=huckel $end
 $data
VM2 Rank=1      G=53.937            E=31.435            -TS=22.502              
C1
C    6.0       19.8542987996       19.1509658914       18.8169470303
H    1.0       18.7731421002       18.9825929292       18.7279125728
H    1.0       20.0355114487       20.2331103813       18.7808618231
H    1.0       20.3378935762       18.6998858486       17.9407696273
C    6.0       20.4072897267       18.5374864873       20.1215826887
H    1.0       21.4948465032       18.6913685785       20.1650926561
H    1.0       20.2423241434       17.4507213114       20.1126025645
C    6.0       19.7439621507       19.1542363575       21.3727327130
H    1.0       19.9121760586       20.2393954635       21.3827451356
H    1.0       18.6579280744       18.9971265018       21.3301547848
C    6.0       20.3005687300       18.5373718202       22.6693626993
H    1.0       21.3791707233       18.7055704145       22.7224309359
H    1.0       20.1207943452       17.4593320043       22.6697258464
N    7.0       19.6775688164       19.1133059674       23.9258972336
H    1.0       18.6546795609       18.9806518076       23.9098681751
H    1.0       19.8197882962       20.1345085775       23.9586610747
C    6.0       20.2823117766       18.4506334761       25.1564776350
H    1.0       21.3590329823       18.6330316441       25.1709859889
H    1.0       19.8251081671       18.8743875661       26.0533647801
H    1.0       20.0899710713       17.3762401973       25.1178567486
 $end
$$$$
! Edit this basic GAMESS input file as needed.
! Conformer was generated by a VeraChem VCPack run 
! and contains     20 atoms.
!
 $contrl scftyp=rhf runtyp=optimize nzvar=0
  maxit=200 icharg=0 $end
 $system mwords=50 $end
 $basis gbasis=pm3 $end
 $statpt nstep=200 $end
 $guess guess=huckel $end
 $data
VM2 Rank=2      G=54.084            E=31.414            -TS=22.671              
C1
C    6.0       20.2446551504       19.5233629867       19.0575488430
H    1.0       21.0843607310       20.2045081840       19.2475631635
H    1.0       20.4068646951       19.0550687323       18.0780550352
H    1.0       19.3265063767       20.1220050170       18.9959184014
C    6.0       20.1365824136       18.4513670209       20.1636305869
H    1.0       21.0549286128       17.8474085324       20.1777906472
H    1.0       19.3109541562       17.7651500674       19.9275113523
C    6.0       19.9075183810       19.0821439554       21.5547958027
H    1.0       20.7340182603       19.7663402988       21.7861560989
H    1.0       18.9877734375       19.6817306906       21.5411277717
C    6.0       19.7994298982       18.0035518976       22.6524891287
H    1.0       20.7302288865       17.4332979905       22.7054597644
H    1.0       18.9938748237       17.3121883160       22.3921513006
N    7.0       19.5005667707       18.5423649049       24.0421380087
H    1.0       19.2825724314       17.7581345567       24.6767620543
H    1.0       18.6430618275       19.1152688916       24.0265677198
C    6.0       20.6772473860       19.3412092344       24.5923976300
H    1.0       20.8594398375       20.2064788079       23.9520845654
H    1.0       20.4391053172       19.6779984270       25.6037498039
H    1.0       21.5642698921       18.7045512420       24.6161646755
 $end
$$$$
! Edit this basic GAMESS input file as needed.
! Conformer was generated by a VeraChem VCPack run 
! and contains     20 atoms.
!
 $contrl scftyp=rhf runtyp=optimize nzvar=0
  maxit=200 icharg=0 $end
 $system mwords=50 $end
 $basis gbasis=pm3 $end
 $statpt nstep=200 $end
 $guess guess=huckel $end
 $data
VM2 Rank=3      G=54.174            E=31.503            -TS=22.670              
C1
C    6.0       19.4687310172       18.7548333235       19.0250106430
H    1.0       18.8813614192       19.6810514247       18.9772083351
H    1.0       19.9766020462       18.6288113858       18.0600209241
H    1.0       18.7727704720       17.9151777826       19.1506574664
C    6.0       20.4938777324       18.8051544578       20.1786174813
H    1.0       21.1967416744       19.6326098385       20.0065491260
H    1.0       21.0885571499       17.8806642314       20.1792611751
C    6.0       19.8068555970       18.9824942759       21.5505657086
H    1.0       19.2164462677       19.9082588885       21.5506220032
H    1.0       19.1062920041       18.1542803394       21.7179819876
C    6.0       20.8389682692       19.0332813815       22.6960499355
H    1.0       21.5476626985       19.8417791859       22.4991726196
H    1.0       21.3984028620       18.0951910991       22.7334677538
N    7.0       20.2444881824       19.2793020812       24.0733019691
H    1.0       19.6801063602       20.1425730335       24.0699861029
H    1.0       21.0030365370       19.4624513642       24.7488370984
C    6.0       19.4130792019       18.0889344800       24.5394542624
H    1.0       20.0405364130       17.1951550665       24.5522809343
H    1.0       19.0359791663       18.2879802097       25.5450122707
H    1.0       18.5740623683       17.9426862955       23.8564118048
 $end
$$$$
! Edit this basic GAMESS input file as needed.
! Conformer was generated by a VeraChem VCPack run 
! and contains     20 atoms.
!
 $contrl scftyp=rhf runtyp=optimize nzvar=0
  maxit=200 icharg=0 $end
 $system mwords=50 $end
 $basis gbasis=pm3 $end
 $statpt nstep=200 $end
 $guess guess=huckel $end
 $data
VM2 Rank=4      G=54.304            E=31.705            -TS=22.599              
C1
C    6.0       20.8667221037       19.3664324825       19.5193283338
H    1.0       20.5576778808       20.4198011088       19.5219594489
H    1.0       21.7364314601       19.2626475107       20.1803102661
H    1.0       21.1933495876       19.1162554862       18.5016267559
C    6.0       19.7056876099       18.4445540609       19.9579915267
H    1.0       20.0428995528       17.3983864769       19.9527269533
H    1.0       18.8957753182       18.5113490529       19.2179953278
C    6.0       19.1424309380       18.8035854153       21.3529881954
H    1.0       18.7742038524       19.8381027364       21.3460894109
H    1.0       18.2762489280       18.1625583121       21.5643406405
C    6.0       20.1839519631       18.6322686997       22.4759886658
H    1.0       21.0330082888       19.2957576359       22.2952883046
H    1.0       20.5483965190       17.6019857328       22.4843432090
N    7.0       19.6383540575       18.9444945942       23.8555931719
H    1.0       18.8279851936       18.3410713753       24.0636445953
H    1.0       19.2748706860       19.9094266805       23.8852565471
C    6.0       20.7288533277       18.7526647475       24.9011101065
H    1.0       21.0741182129       17.7168444167       24.8751612373
H    1.0       21.5607826046       19.4251778449       24.6810656194
H    1.0       20.3227187761       18.9806103400       25.8890874455
 $end
$$$$
! Edit this basic GAMESS input file as needed.
! Conformer was generated by a VeraChem VCPack run 
! and contains     20 atoms.
!
 $contrl scftyp=rhf runtyp=optimize nzvar=0
  maxit=200 icharg=0 $end
 $system mwords=50 $end
 $basis gbasis=pm3 $end
 $statpt nstep=200 $end
 $guess guess=huckel $end
 $data
VM2 Rank=5      G=54.310            E=31.711            -TS=22.599              
C1
C    6.0       19.6007471164       18.1121687002       19.4663414135
H    1.0       19.6691969010       17.2145772556       20.0938021659
H    1.0       18.5508425892       18.4315294370       19.4379051847
H    1.0       19.8909528344       17.8258384327       18.4471330208
C    6.0       20.5129899435       19.2444144362       19.9918129057
H    1.0       20.4842860308       20.0852177092       19.2845366836
H    1.0       21.5555817029       18.8971102968       20.0160650192
C    6.0       20.1001477058       19.7524218715       21.3931225077
H    1.0       20.7390076054       20.6023716133       21.6675319995
H    1.0       19.0700070237       20.1312067287       21.3585128047
C    6.0       20.2150237029       18.6630817395       22.4772752271
H    1.0       21.2408622025       18.2879327968       22.5132150927
H    1.0       19.5524480780       17.8292696685       22.2333128024
N    7.0       19.8496506546       19.1536441766       23.8644744194
H    1.0       18.8875934412       19.5258192406       23.8691136664
H    1.0       20.4509159756       19.9481027377       24.1317178120
C    6.0       19.9874408768       18.0182690761       24.8699735266
H    1.0       21.0203080535       17.6633315100       24.8727423297
H    1.0       19.7216258063       18.3850247928       25.8638733454
H    1.0       19.3174153403       17.2035447684       24.5869719512
 $end
$$$$
! Edit this basic GAMESS input file as needed.
! Conformer was generated by a VeraChem VCPack run 
! and contains     20 atoms.
!
 $contrl scftyp=rhf runtyp=optimize nzvar=0
  maxit=200 icharg=0 $end
 $system mwords=50 $end
 $basis gbasis=pm3 $end
 $statpt nstep=200 $end
 $guess guess=huckel $end
 $data
VM2 Rank=6      G=54.342            E=31.753            -TS=22.589              
C1
C    6.0       19.6844890385       18.8157576119       18.9888318395
H    1.0       18.8181739817       19.4883743907       18.9412204994
H    1.0       20.5415872536       19.3302425293       18.5351167114
H    1.0       19.4592352427       17.9336561292       18.3754934443
C    6.0       19.9895487837       18.4041871532       20.4453941861
H    1.0       20.8398077231       17.7075805409       20.4564720812
H    1.0       19.1273112183       17.8584539876       20.8518637591
C    6.0       20.3099990646       19.6309752127       21.3316714077
H    1.0       21.1480930797       20.1874426363       20.8914150553
H    1.0       19.4536372812       20.3181680747       21.3479746741
C    6.0       20.6878426394       19.2435773015       22.7755214155
H    1.0       20.9884568125       20.1404112859       23.3231872776
H    1.0       21.5356611449       18.5540666616       22.7609434455
N    7.0       19.5633462709       18.5876210863       23.5547013430
H    1.0       19.2485836098       17.7325653992       23.0727693361
H    1.0       18.7395987408       19.2079702889       23.5802856422
C    6.0       20.0307742029       18.2618816344       24.9668798082
H    1.0       19.2126167928       17.7906411015       25.5160080067
H    1.0       20.8814322540       17.5788241223       24.9158629255
H    1.0       20.3277202146       19.1849274354       25.4694684863
 $end
$$$$
! Edit this basic GAMESS input file as needed.
! Conformer was generated by a VeraChem VCPack run 
! and contains     20 atoms.
!
 $contrl scftyp=rhf runtyp=optimize nzvar=0
  maxit=200 icharg=0 $end
 $system mwords=50 $end
 $basis gbasis=pm3 $end
 $statpt nstep=200 $end
 $guess guess=huckel $end
 $data
VM2 Rank=7      G=54.383            E=31.794            -TS=22.589              
C1
C    6.0       20.1834520595       19.3099597988       19.0097772606
H    1.0       19.6811645590       18.4780741005       18.4990489735
H    1.0       19.5210244745       20.1845157913       18.9707444260
H    1.0       21.0926289860       19.5514635686       18.4440038369
C    6.0       20.5303878858       18.9398195459       20.4680822935
H    1.0       21.0659605427       19.7784865123       20.9331585491
H    1.0       21.2184498497       18.0825690696       20.4723395614
C    6.0       19.2644689916       18.5954247411       21.2878571727
H    1.0       18.5846805213       19.4575059066       21.3115319199
H    1.0       18.7198446344       17.7823650176       20.7896590577
C    6.0       19.5871502528       18.1534573890       22.7294128055
H    1.0       20.2692231536       17.2997890066       22.7079271130
H    1.0       18.6653677368       17.8396419902       23.2258570193
N    7.0       20.2193790002       19.2374262716       23.5821659376
H    1.0       19.6056838096       20.0658230757       23.6165886898
H    1.0       21.0967149106       19.5631303264       23.1501321656
C    6.0       20.4811618101       18.7079122536       24.9857045300
H    1.0       21.1582832463       17.8529892404       24.9273643604
H    1.0       20.9359794666       19.4973685314       25.5881077474
H    1.0       19.5351739425       18.3999356190       25.4363067179
 $end
$$$$
! Edit this basic GAMESS input file as needed.
! Conformer was generated by a VeraChem VCPack run 
! and contains     20 atoms.
!
 $contrl scftyp=rhf runtyp=optimize nzvar=0
  maxit=200 icharg=0 $end
 $system mwords=50 $end
 $basis gbasis=pm3 $end
 $statpt nstep=200 $end
 $guess guess=huckel $end
 $data
VM2 Rank=8      G=54.500            E=31.687            -TS=22.812              
C1
C    6.0       19.9201561641       18.3276492031       19.2181673112
H    1.0       19.1808619952       17.5280531003       19.3569202979
H    1.0       19.4296768057       19.1594491928       18.6959756972
H    1.0       20.7136217525       17.9421482078       18.5648658004
C    6.0       20.5031386216       18.7867598779       20.5721672533
H    1.0       21.2613543695       19.5632880446       20.3981165872
H    1.0       21.0179659530       17.9401352907       21.0463364651
C    6.0       19.4037506338       19.3331546250       21.5131918935
H    1.0       18.8683410626       20.1491948520       21.0101392814
H    1.0       18.6579527645       18.5528659351       21.7123848402
C    6.0       19.9678563167       19.8725764351       22.8464116156
H    1.0       19.1520190369       20.2798019386       23.4489656035
H    1.0       20.6648364668       20.6869966946       22.6329507503
N    7.0       20.7069473995       18.8540968900       23.7014403305
H    1.0       21.1548086116       19.3330477833       24.4984673749
H    1.0       21.4863238004       18.4408971920       23.1686469307
C    6.0       19.7641508642       17.7697629689       24.2116215959
H    1.0       19.3449761449       17.2259163506       23.3627756758
H    1.0       20.3227981615       17.0804995910       24.8486155106
H    1.0       18.9607589121       18.2339166171       24.7876256739
 $end
