$$$$
! Edit this basic GAMESS input file as needed.
! Conformer was generated by a VeraChem VCPack run 
! and contains    146 atoms.
!
 $contrl scftyp=rhf runtyp=optimize nzvar=0
  maxit=200 icharg=0 $end
 $system mwords=50 $end
 $basis gbasis=pm3 $end
 $statpt nstep=200 $end
 $guess guess=huckel $end
 $data
FE Rank=1      G=594.552           E=402.545           -TS=192.008              
C1
C    6.0       16.3979733063       15.4026201188       22.1237311355
H    1.0       15.3395435031       15.3285790575       22.4059467609
O    8.0       16.7307040968       16.7178208462       21.6389660175
C    6.0       17.2924944735       15.0982054276       23.3473943157
H    1.0       17.0903739087       14.0650254488       23.6588112626
O    8.0       16.9955503338       15.9923245066       24.4328613869
H    1.0       16.3252819198       16.6385665968       24.0999584057
C    6.0       18.7826849541       15.2072236793       22.9593633631
H    1.0       18.9829006343       16.2578449149       22.7209880678
O    8.0       19.5868181366       14.8065513036       24.0717837846
H    1.0       19.1522956060       15.2203540324       24.8517135327
C    6.0       19.1142151954       14.3502333822       21.7103387266
H    1.0       19.1733646432       13.2969830621       22.0159082128
C    6.0       18.0708514103       14.5170854590       20.5671935531
H    1.0       18.2324867137       15.5020525284       20.1131354832
O    8.0       16.7163536996       14.4553555242       21.0835772465
C    6.0       18.2134800755       13.4678047155       19.4389160185
H    1.0       19.1318709303       13.6829856906       18.8760042459
H    1.0       17.3708925010       13.5827636928       18.7437539010
O    8.0       18.2594458855       12.1300165801       19.9499142616
H    1.0       18.2648866959       11.5173824861       19.1822256015
C    6.0       14.7997329385       20.2731907730       20.6453092589
H    1.0       14.0789968035       21.0191604991       20.2883335016
O    8.0       16.0691671764       20.8663412279       20.9834714610
C    6.0       14.2600137132       19.5596094915       21.9127214259
H    1.0       13.3247641340       19.0570531079       21.6334751465
O    8.0       13.9892982568       20.5003573324       22.9635678375
H    1.0       14.7216236405       21.1676091892       22.9651322320
C    6.0       15.2562925908       18.4764250496       22.3939706973
H    1.0       16.1778701014       18.9752762875       22.7239444686
O    8.0       14.6847672170       17.7469522500       23.4848264729
H    1.0       14.2685676657       18.4313888667       24.0563506355
C    6.0       15.6097804436       17.5173231049       21.2303963349
H    1.0       14.7304702745       16.9019345330       20.9978627176
C    6.0       16.0406875076       18.2827789132       19.9527571348
H    1.0       16.9895044340       18.7894672885       20.1649066650
O    8.0       15.0328420169       19.2716103632       19.6295738126
C    6.0       16.2765520434       17.3750256191       18.7167313161
H    1.0       17.3194235745       17.0357191503       18.7293193762
H    1.0       16.1498007826       17.9785364609       17.8080661479
O    8.0       15.4085498835       16.2353978079       18.6767178609
H    1.0       15.6748673737       15.6358372224       19.4106865183
C    6.0       18.4256188650       24.2225625959       20.7958289830
H    1.0       18.8923002216       25.2066768217       20.6598731301
O    8.0       19.4148414661       23.1975501843       21.0372209011
C    6.0       17.3813513482       24.2462160401       21.9445478502
H    1.0       16.5772049567       24.9256720077       21.6329826002
O    8.0       17.9352487927       24.7278182177       23.1774015558
H    1.0       18.5997720307       24.0563513575       23.4731885914
C    6.0       16.7672105498       22.8387602369       22.1317092910
H    1.0       17.5606089075       22.1606086253       22.4742556585
O    8.0       15.7263134507       22.8950376314       23.1116064607
H    1.0       16.0903981031       23.4417649286       23.8433907361
C    6.0       16.2008616940       22.2880395478       20.7985290743
H    1.0       15.2365787741       22.7757454290       20.6066468906
C    6.0       17.1579134390       22.5052154047       19.5909869605
H    1.0       17.9834445880       21.7889523227       19.6848577065
O    8.0       17.7036067239       23.8489038587       19.6035422069
C    6.0       16.4956748787       22.2570440249       18.2134644504
H    1.0       16.2738841656       21.1861922634       18.1126065911
H    1.0       17.2236441849       22.5106625497       17.4314636961
O    8.0       15.2986614631       23.0235840549       18.0304947765
H    1.0       14.5668830970       22.5585069648       18.4865793509
C    6.0       23.2372929348       22.4136206288       22.4030953585
H    1.0       24.2338453237       22.4727330708       22.8580565893
O    8.0       23.0881431311       21.2139256048       21.6151088771
C    6.0       22.1498158317       22.4237210051       23.5075102628
H    1.0       22.3096202977       23.3265102427       24.1115471782
O    8.0       22.2503618386       21.2582988289       24.3436685899
H    1.0       23.2132928992       21.0561622935       24.4359272480
C    6.0       20.7284152386       22.4838219325       22.9075095989
H    1.0       20.5269959453       21.5167351955       22.4412235105
O    8.0       19.7940619511       22.6940324455       23.9688400433
H    1.0       20.1023356545       22.1086942051       24.6968554259
C    6.0       20.5768954415       23.5650060923       21.8085592143
H    1.0       20.4698657384       24.5486737018       22.2844617787
C    6.0       21.7749698301       23.5791459178       20.8192239247
H    1.0       21.7090074306       22.6829768152       20.1886683260
O    8.0       23.0269271381       23.5532996135       21.5449170976
C    6.0       21.7789269250       24.8048200954       19.8742809299
H    1.0       20.9594532111       24.6896708338       19.1519635772
H    1.0       22.7180170850       24.8051682250       19.3048059191
O    8.0       21.6271748446       26.0391286430       20.5865887989
H    1.0       21.7190723680       26.7709677466       19.9379415247
C    6.0       25.1380600880       17.6329914739       21.1053484774
H    1.0       25.8704074555       16.8427228676       20.8980208575
O    8.0       23.8167124151       17.1033850147       21.3249313693
C    6.0       25.5360717341       18.4089190789       22.3827970346
H    1.0       26.5140403050       18.8725611045       22.1987407376
O    8.0       25.6361510659       17.5196444820       23.5072482932
H    1.0       24.9661005782       16.8022340913       23.3781191649
C    6.0       24.5177719617       19.5362411813       22.6774568188
H    1.0       23.5614443015       19.0666701200       22.9334757599
O    8.0       24.9904738181       20.2967305357       23.7946960108
H    1.0       25.3575480430       19.6256612706       24.4147005070
C    6.0       24.2912785158       20.4373215415       21.4293175313
H    1.0       25.1667322681       21.0850750073       21.2932449673
C    6.0       24.0681447231       19.6070773682       20.1346243431
H    1.0       23.0839514553       19.1318423090       20.2028441573
O    8.0       25.0778582343       18.5749609025       20.0137157942
C    6.0       24.0602920604       20.4586124934       18.8410991676
H    1.0       23.1216740730       21.0275773301       18.8031647473
H    1.0       24.0631915192       19.7809285362       17.9771436116
O    8.0       25.1721113973       21.3582359371       18.7627227692
H    1.0       25.0126086012       22.0822664188       19.4057060947
C    6.0       21.3515446600       13.8375204735       20.8413344866
H    1.0       20.8819285828       12.8722742919       20.6118451414
O    8.0       20.3699247794       14.8371726436       21.1951207503
C    6.0       22.3797377362       13.7017942408       21.9958921711
H    1.0       23.1731235273       13.0270541217       21.6487785310
O    8.0       21.7852923395       13.1501725493       23.1801584407
H    1.0       21.0478636189       13.7545765610       23.4486175717
C    6.0       23.0197124966       15.0774610652       22.2972295860
H    1.0       22.2308271509       15.7385433839       22.6774631304
O    8.0       24.0446304115       14.9367343235       23.2855268422
H    1.0       23.6663123720       14.3347163663       23.9647221840
C    6.0       23.6108457456       15.7145089949       21.0151462330
H    1.0       24.5464862067       15.1961307391       20.7689443472
C    6.0       22.6347172849       15.6489801794       19.8075488602
H    1.0       21.8195147587       16.3561386936       19.9949269273
O    8.0       22.0748563765       14.3186828225       19.6882869698
C    6.0       23.2722013482       16.0434116473       18.4524161210
H    1.0       23.4092238730       17.1323837281       18.4292979906
H    1.0       22.5650354811       15.7906945933       17.6512374153
O    8.0       24.5270676762       15.3936349700       18.2196633006
H    1.0       25.2275596440       15.9538811923       18.6167401000
C    6.0       19.4502709225       19.5209870975       18.3397157631
H    1.0       19.4651316007       19.0318587949       17.3570109522
H    1.0       18.4054773971       19.7413283949       18.5866722983
H    1.0       19.9872490647       20.4743936195       18.2480608612
C    6.0       20.1012783308       18.6167234244       19.4080008433
H    1.0       21.1230357754       18.3726815405       19.0893111936
H    1.0       19.5547954826       17.6654406288       19.4730946038
C    6.0       20.1381122450       19.2933816006       20.7953311730
H    1.0       20.7004346548       20.2317284150       20.7186488600
H    1.0       19.1178502873       19.5505063530       21.1111665689
C    6.0       20.7923578856       18.3799493451       21.8504465306
H    1.0       21.8391280487       18.2123533060       21.5931389512
H    1.0       20.2888200161       17.4112879662       21.8476881516
N    7.0       20.7497945918       18.9178734322       23.2692498005
H    1.0       19.7838268444       19.1597961680       23.5358392161
H    1.0       21.2947718774       19.7988265580       23.3600610081
C    6.0       21.3084356359       17.8769425511       24.2290693386
H    1.0       22.3387825326       17.6441360964       23.9515115824
H    1.0       21.2834158644       18.2788683534       25.2443433390
H    1.0       20.6994698334       16.9726707252       24.1749623068
 $end
