$$$$
! Edit this basic GAMESS input file as needed.
! Conformer was generated by a VeraChem VCPack run 
! and contains     25 atoms.
!
 $contrl scftyp=rhf runtyp=optimize nzvar=0
  maxit=200 icharg=0 $end
 $system mwords=50 $end
 $basis gbasis=pm3 $end
 $statpt nstep=200 $end
 $guess guess=huckel $end
 $data
VM2 Rank=1      G=62.075            E=29.291            -TS=32.785              
C1
C    6.0       21.2649509542       19.5699900683       21.1383820720
H    1.0       21.7745901638       19.7414888845       20.1802893181
H    1.0       22.0468908452       19.7183033403       21.8916246365
C    6.0       20.7595374464       18.1038126228       21.1583146030
H    1.0       19.7152405149       18.0408761216       20.8265137673
H    1.0       21.3327054754       17.5468304378       20.4044848546
C    6.0       20.9529769164       17.3662015278       22.5093823830
H    1.0       22.0133498625       17.4004968618       22.7947236733
H    1.0       20.7266361911       16.3038612273       22.3451371682
C    6.0       20.0857671616       17.8547875487       23.7002743379
H    1.0       19.0202772977       17.7989509426       23.4478194409
H    1.0       20.2245787134       17.1309617114       24.5147305893
C    6.0       20.4544395738       19.2645843670       24.2301194301
H    1.0       21.4702657560       19.5138160596       23.9017306914
C    6.0       19.4857953474       20.3914237428       23.7945574991
H    1.0       18.5769437172       20.3182168848       24.4070485400
H    1.0       19.9398320597       21.3598075194       24.0411350660
C    6.0       19.0436449616       20.4095153305       22.3085555939
H    1.0       18.3090796905       21.2184700338       22.1958377884
H    1.0       18.4890367170       19.4966684972       22.0627646445
C    6.0       20.1645036921       20.6552427829       21.2675767368
H    1.0       19.6821646646       20.7603322547       20.2860933847
H    1.0       20.6410809271       21.6243707251       21.4681611269
O    8.0       20.4523839465       19.2274420093       25.6528373442
H    1.0       20.7315532497       20.1156400848       25.9587915585
 $end
$$$$
! Edit this basic GAMESS input file as needed.
! Conformer was generated by a VeraChem VCPack run 
! and contains     25 atoms.
!
 $contrl scftyp=rhf runtyp=optimize nzvar=0
  maxit=200 icharg=0 $end
 $system mwords=50 $end
 $basis gbasis=pm3 $end
 $statpt nstep=200 $end
 $guess guess=huckel $end
 $data
VM2 Rank=2      G=62.111            E=29.304            -TS=32.807              
C1
C    6.0       21.2655926721       19.5696016095       21.1386078177
H    1.0       21.7735257580       19.7405173639       20.1795023342
H    1.0       22.0494417410       19.7177576582       21.8898775377
C    6.0       20.7600447598       18.1033793920       21.1596358981
H    1.0       19.7157083604       18.0405673724       20.8279101694
H    1.0       21.3329926183       17.5460475536       20.4058855804
C    6.0       20.9534928380       17.3658767992       22.5108785286
H    1.0       22.0136890288       17.4008165309       22.7967539787
H    1.0       20.7279199587       16.3034208070       22.3459889366
C    6.0       20.0832630211       17.8542396612       23.6993013052
H    1.0       19.0191736449       17.8028768619       23.4394543735
H    1.0       20.2119772973       17.1259983704       24.5111003878
C    6.0       20.4528594441       19.2643190171       24.2284347116
H    1.0       21.4658132894       19.5190669966       23.8957203705
C    6.0       19.4814935141       20.3887533935       23.7950874518
H    1.0       18.5734214562       20.3112290295       24.4078463135
H    1.0       19.9343160451       21.3555601655       24.0498006787
C    6.0       19.0429472857       20.4114152319       22.3077788330
H    1.0       18.3104789903       21.2222982726       22.1955259978
H    1.0       18.4868464381       19.5004150207       22.0586621740
C    6.0       20.1665330497       20.6564932613       21.2693374648
H    1.0       20.6446940077       21.6241951982       21.4730239174
H    1.0       19.6859780820       20.7650316056       20.2873604067
O    8.0       20.4577734154       19.2289216343       25.6509379892
H    1.0       21.1308372435       18.5666811262       25.9134327216
 $end
$$$$
! Edit this basic GAMESS input file as needed.
! Conformer was generated by a VeraChem VCPack run 
! and contains     25 atoms.
!
 $contrl scftyp=rhf runtyp=optimize nzvar=0
  maxit=200 icharg=0 $end
 $system mwords=50 $end
 $basis gbasis=pm3 $end
 $statpt nstep=200 $end
 $guess guess=huckel $end
 $data
VM2 Rank=3      G=62.126            E=29.342            -TS=32.784              
C1
C    6.0       21.2426351002       19.6237958611       21.1382123486
H    1.0       21.7260552534       19.8584755810       20.1799247969
H    1.0       21.8986577746       20.0759040350       21.8905649154
C    6.0       21.2325174469       18.0789166783       21.2749653698
H    1.0       20.9680195234       17.6585771945       20.2949847555
H    1.0       22.2545718991       17.7322197414       21.4793535385
C    6.0       20.2644125206       17.4646446854       22.3169766391
H    1.0       20.3178566234       16.3727046037       22.2096977255
H    1.0       19.2271277753       17.7161639172       22.0678361117
C    6.0       20.5610427781       17.7975001518       23.8019823369
H    1.0       19.8656780293       17.2092380583       24.4159284989
H    1.0       21.5665268396       17.4355466122       24.0523970089
C    6.0       20.4475163442       19.2812795363       24.2300685277
H    1.0       21.3424233722       19.8222133221       23.9008407757
C    6.0       19.1906282833       20.0141853634       23.6940965404
H    1.0       18.3986317010       19.2985922402       23.4435212203
H    1.0       18.7749832542       20.6278992584       24.5047283670
C    6.0       19.4602488633       20.9672008440       22.4990827212
H    1.0       20.2333434784       21.6945439591       22.7824302943
H    1.0       18.5490367630       21.5570470458       22.3301249554
C    6.0       19.8480913068       20.3024543482       21.1520265742
H    1.0       19.0662074481       19.6064671191       20.8220730367
H    1.0       19.8605942870       21.0978933297       20.3943129475
O    8.0       20.4169073566       19.3130225315       25.6525889421
H    1.0       21.2419028791       18.8841981608       25.9623161283
 $end
$$$$
! Edit this basic GAMESS input file as needed.
! Conformer was generated by a VeraChem VCPack run 
! and contains     25 atoms.
!
 $contrl scftyp=rhf runtyp=optimize nzvar=0
  maxit=200 icharg=0 $end
 $system mwords=50 $end
 $basis gbasis=pm3 $end
 $statpt nstep=200 $end
 $guess guess=huckel $end
 $data
VM2 Rank=4      G=62.127            E=29.319            -TS=32.807              
C1
C    6.0       21.2430031174       19.6245408046       21.1385365155
H    1.0       21.7248986397       19.8584142850       20.1792806876
H    1.0       21.9002022979       20.0780980891       21.8889721923
C    6.0       21.2349941651       18.0794924661       21.2768258363
H    1.0       20.9743222982       17.6579808913       20.2963299371
H    1.0       22.2571259886       17.7349336680       21.4844340850
C    6.0       20.2652919435       17.4628140713       22.3161828243
H    1.0       20.3215733006       16.3709986195       22.2093568909
H    1.0       19.2283010412       17.7119765843       22.0636044851
C    6.0       20.5559596556       17.7963170351       23.8025250136
H    1.0       19.8579697243       17.2116950051       24.4166155425
H    1.0       21.5593993678       17.4346027099       24.0612029274
C    6.0       20.4460762831       19.2803140035       24.2283932300
H    1.0       21.3429038177       19.8152722678       23.8949400930
C    6.0       19.1883939160       20.0127862911       23.6930217273
H    1.0       18.4005868723       19.2949966221       23.4349848661
H    1.0       18.7624169294       20.6224536184       24.5009627594
C    6.0       19.4604258938       20.9678069865       22.5005132030
H    1.0       20.2338140381       21.6945726296       22.7844932542
H    1.0       18.5496889442       21.5582702910       22.3308194164
C    6.0       19.8483392238       20.3031604863       21.1533101622
H    1.0       19.0665474916       19.6070773662       20.8233172803
H    1.0       19.8605385436       21.0987146998       20.3957002794
O    8.0       20.4215158017       19.3157678555       25.6506914877
H    1.0       20.4280165794       20.2612483995       25.9085755500
 $end
$$$$
! Edit this basic GAMESS input file as needed.
! Conformer was generated by a VeraChem VCPack run 
! and contains     25 atoms.
!
 $contrl scftyp=rhf runtyp=optimize nzvar=0
  maxit=200 icharg=0 $end
 $system mwords=50 $end
 $basis gbasis=pm3 $end
 $statpt nstep=200 $end
 $guess guess=huckel $end
 $data
VM2 Rank=5      G=62.195            E=29.408            -TS=32.788              
C1
C    6.0       20.7558104508       19.2414853910       20.8005585859
H    1.0       20.7017977029       19.0670124220       19.7172560469
H    1.0       21.8174545813       19.4274334189       21.0081876804
C    6.0       20.2661935190       17.9508472168       21.5065812556
H    1.0       19.2040936010       18.0305786446       21.7639423122
H    1.0       20.3136615488       17.1256284804       20.7828581324
C    6.0       21.1003652884       17.5255152268       22.7406246432
H    1.0       22.0421418048       17.0936333105       22.3754021833
H    1.0       20.5849032719       16.7050338750       23.2571151383
C    6.0       21.4659587013       18.6396239081       23.7585085314
H    1.0       22.1040514233       18.1862151055       24.5283593818
H    1.0       22.1068439356       19.3873420051       23.2790792690
C    6.0       20.2996822484       19.3460949634       24.4923990993
H    1.0       20.7560763009       20.0337341262       25.2188326875
C    6.0       19.3297637929       20.1868134350       23.6260385741
H    1.0       18.5531901226       19.5556012235       23.1804380704
H    1.0       18.7873279803       20.8467136779       24.3157236337
C    6.0       19.9923155588       21.0753090978       22.5395988238
H    1.0       21.0293687201       21.3196478555       22.8029181467
H    1.0       19.4641112238       22.0386165374       22.5337524351
C    6.0       19.9095330461       20.5060445371       21.0994116034
H    1.0       18.8590737749       20.3095319182       20.8449440242
H    1.0       20.2359514551       21.2960664517       20.4093800766
O    8.0       19.5443773942       18.3712662241       25.1962788834
H    1.0       19.2505341754       17.7296921921       24.5185262864
 $end
$$$$
! Edit this basic GAMESS input file as needed.
! Conformer was generated by a VeraChem VCPack run 
! and contains     25 atoms.
!
 $contrl scftyp=rhf runtyp=optimize nzvar=0
  maxit=200 icharg=0 $end
 $system mwords=50 $end
 $basis gbasis=pm3 $end
 $statpt nstep=200 $end
 $guess guess=huckel $end
 $data
VM2 Rank=6      G=62.220            E=29.432            -TS=32.788              
C1
C    6.0       20.6500348030       19.4973013284       20.8001125668
H    1.0       21.5266940149       20.1245060167       21.0071319730
H    1.0       20.4905944659       19.5762131927       19.7160211880
C    6.0       20.9569574383       18.0085199241       21.1065969973
H    1.0       20.0807339535       17.3964856692       20.8526665710
H    1.0       21.7507796455       17.6838758361       20.4200993498
C    6.0       21.4170326840       17.6748367415       22.5495249229
H    1.0       22.3179148646       18.2438111011       22.8125728655
H    1.0       21.7331433776       16.6226638266       22.5493178352
C    6.0       20.3162241894       17.8307808282       23.6324164570
H    1.0       19.3227812943       17.7179358467       23.1847616780
H    1.0       20.4043253599       16.9844794028       24.3262323415
C    6.0       20.3950544446       19.1157565765       24.4930880378
H    1.0       21.2033706300       18.9620673154       25.2223722629
C    6.0       20.7115192455       20.4391679718       23.7539473152
H    1.0       20.8339328735       21.2155171127       24.5205688295
H    1.0       21.6952308499       20.3692859742       23.2774014950
C    6.0       19.6636756955       20.9553909877       22.7309533494
H    1.0       20.0174205225       21.9278694687       22.3621691335
H    1.0       18.7159937998       21.1658969570       23.2440225607
C    6.0       19.3848938969       20.0568352532       21.5003098781
H    1.0       18.8318808893       20.6661515289       20.7723513964
H    1.0       18.6960864523       19.2450845365       21.7596406258
O    8.0       19.1686076027       19.2644103885       25.1930504755
H    1.0       18.5070214937       19.5018674543       24.5124417549
 $end
$$$$
! Edit this basic GAMESS input file as needed.
! Conformer was generated by a VeraChem VCPack run 
! and contains     25 atoms.
!
 $contrl scftyp=rhf runtyp=optimize nzvar=0
  maxit=200 icharg=0 $end
 $system mwords=50 $end
 $basis gbasis=pm3 $end
 $statpt nstep=200 $end
 $guess guess=huckel $end
 $data
VM2 Rank=7      G=62.234            E=29.468            -TS=32.766              
C1
C    6.0       21.2427012507       19.6234023502       21.1389898141
H    1.0       21.7270133088       19.8591975294       20.1814309603
H    1.0       21.8982152273       20.0740832836       21.8927005718
C    6.0       21.2318685082       18.0785042961       21.2739592425
H    1.0       20.9661726039       17.6591401473       20.2938894819
H    1.0       22.2539883705       17.7312594641       21.4771339869
C    6.0       20.2648988799       17.4639631867       22.3167653144
H    1.0       20.3194901487       16.3720503571       22.2096708924
H    1.0       19.2272805353       17.7144823938       22.0679737642
C    6.0       20.5623852281       17.7974439601       23.8014724818
H    1.0       19.8736340617       17.2020815677       24.4152643163
H    1.0       21.5707459844       17.4429016694       24.0516571088
C    6.0       20.4456435943       19.2808712995       24.2302566002
H    1.0       21.3417264696       19.8210844441       23.9035300365
C    6.0       19.1892183993       20.0151058413       23.6943625781
H    1.0       18.3966175344       19.3011176688       23.4402726334
H    1.0       18.7731004121       20.6323311979       24.5021303353
C    6.0       19.4613274044       20.9675628086       22.4996513797
H    1.0       20.2357816137       21.6934119972       22.7832696420
H    1.0       18.5514265954       21.5593139089       22.3301137898
C    6.0       19.8483200678       20.3022382017       21.1527344568
H    1.0       19.8609250053       21.0974083398       20.3947345994
H    1.0       19.0661565978       19.6063747157       20.8231730059
O    8.0       20.4176366674       19.3139080558       25.6518081324
H    1.0       19.6032920864       18.8430479996       25.9238793708
 $end
$$$$
! Edit this basic GAMESS input file as needed.
! Conformer was generated by a VeraChem VCPack run 
! and contains     25 atoms.
!
 $contrl scftyp=rhf runtyp=optimize nzvar=0
  maxit=200 icharg=0 $end
 $system mwords=50 $end
 $basis gbasis=pm3 $end
 $statpt nstep=200 $end
 $guess guess=huckel $end
 $data
VM2 Rank=8      G=62.249            E=29.482            -TS=32.767              
C1
C    6.0       21.2647852988       19.5702812175       21.1391699469
H    1.0       21.7758417224       19.7415971909       20.1818046661
H    1.0       22.0453791798       19.7191642130       21.8937561436
C    6.0       20.7594937285       18.1041328605       21.1590128457
H    1.0       19.7150714253       18.0409969018       20.8276353951
H    1.0       21.3324800134       17.5473759486       20.4048733066
C    6.0       20.9539267805       17.3666897100       22.5099284238
H    1.0       22.0142016048       17.4029785224       22.7955412250
H    1.0       20.7298412381       16.3039348569       22.3450979391
C    6.0       20.0853425806       17.8531298313       23.7005098667
H    1.0       19.0205746597       17.7957713464       23.4445057299
H    1.0       20.2262563753       17.1264504902       24.5121087069
C    6.0       20.4527815539       19.2635136243       24.2303101555
H    1.0       21.4689384547       19.5140876891       23.9044516910
C    6.0       19.4867016699       20.3924137742       23.7940608478
H    1.0       18.5774578218       20.3288631394       24.4062816450
H    1.0       19.9480042845       21.3575724802       24.0405441432
C    6.0       19.0436052975       20.4104564021       22.3083276850
H    1.0       18.3099532302       21.2202794746       22.1957941010
H    1.0       18.4879801727       19.4981465006       22.0628091026
C    6.0       20.1639283885       20.6551381543       21.2666231410
H    1.0       20.6402599648       21.6246311732       21.4660702737
H    1.0       19.6814793104       20.7588058279       20.2850459347
O    8.0       20.4534347018       19.2272444258       25.6520570876
H    1.0       19.5442709360       18.9850260239       25.9234211826
 $end
$$$$
! Edit this basic GAMESS input file as needed.
! Conformer was generated by a VeraChem VCPack run 
! and contains     25 atoms.
!
 $contrl scftyp=rhf runtyp=optimize nzvar=0
  maxit=200 icharg=0 $end
 $system mwords=50 $end
 $basis gbasis=pm3 $end
 $statpt nstep=200 $end
 $guess guess=huckel $end
 $data
VM2 Rank=9      G=62.280            E=29.544            -TS=32.736              
C1
C    6.0       20.0802799568       19.1697383591       20.7504267111
H    1.0       19.0107328536       18.9952603758       20.9241850311
H    1.0       20.1849022955       19.2406942168       19.6591305345
C    6.0       20.9185240322       17.9470609808       21.2069164411
H    1.0       20.6299472655       17.0924687609       20.5798415954
H    1.0       21.9788217909       18.1292914444       20.9846892367
C    6.0       20.7705990604       17.5143483664       22.6887931222
H    1.0       21.3065298101       16.5617973123       22.7999672073
H    1.0       19.7235696125       17.2820392744       22.9199816710
C    6.0       21.3721692146       18.5110142866       23.7172618180
H    1.0       21.9097172950       17.9337756643       24.4817037745
H    1.0       22.1512727375       19.1196757662       23.2465201548
C    6.0       20.3595206493       19.4244325069       24.4523494410
H    1.0       20.9207308775       20.2485911994       24.9153171696
C    6.0       19.2244679898       20.0353595820       23.5968225722
H    1.0       18.6141846116       19.2441913198       23.1483911388
H    1.0       18.5458745308       20.5592429120       24.2830756265
C    6.0       19.6554911698       21.0578911822       22.5141056226
H    1.0       20.1730468665       21.8994110228       22.9943062282
H    1.0       18.7402524298       21.4817659105       22.0787001070
C    6.0       20.5312480364       20.5264018908       21.3509227237
H    1.0       20.5016466355       21.2807259348       20.5527124576
H    1.0       21.5851405453       20.4837999950       21.6482647254
O    8.0       19.7516998907       18.6567528451       25.4824015482
H    1.0       19.3541270735       17.8799644781       25.0395277714
 $end
$$$$
! Edit this basic GAMESS input file as needed.
! Conformer was generated by a VeraChem VCPack run 
! and contains     25 atoms.
!
 $contrl scftyp=rhf runtyp=optimize nzvar=0
  maxit=200 icharg=0 $end
 $system mwords=50 $end
 $basis gbasis=pm3 $end
 $statpt nstep=200 $end
 $guess guess=huckel $end
 $data
VM2 Rank=10     G=62.309            E=29.573            -TS=32.736              
C1
C    6.0       20.1531080894       19.0665259518       20.7484652973
H    1.0       19.2964081281       18.4001544877       20.9115019334
H    1.0       20.2913961125       19.0932398799       19.6589370295
C    6.0       21.4467695285       18.4773947062       21.3680357857
H    1.0       21.9914661274       17.9420774340       20.5782501004
H    1.0       22.1269395190       19.2804968907       21.6735082033
C    6.0       21.2260602870       17.4755943721       22.5299721865
H    1.0       22.1884935791       17.2848390004       23.0238807249
H    1.0       20.9216928025       16.5151771240       22.0919432137
C    6.0       20.1678845578       17.8554652664       23.5974832678
H    1.0       19.1789854751       17.9439268936       23.1351663274
H    1.0       20.0821462800       17.0027852165       24.2841214862
C    6.0       20.4783582096       19.1050543985       24.4551784042
H    1.0       21.4579997098       18.9582354995       24.9319195719
C    6.0       20.5055565340       20.4674186830       23.7180359667
H    1.0       20.4361659416       21.2553167349       24.4802276644
H    1.0       21.4878504022       20.6253249646       23.2606142474
C    6.0       19.3797990526       20.7007292095       22.6734227136
H    1.0       19.0429169698       21.7411551330       22.7781094944
H    1.0       18.4951689839       20.0902221537       22.8934123547
C    6.0       19.8184614211       20.5129220904       21.1978243395
H    1.0       20.6752437397       21.1671597911       20.9863491774
H    1.0       19.0039586191       20.8802894765       20.5587202539
O    8.0       19.4880023199       19.1818953220       25.4715820387
H    1.0       18.6539242078       19.4165596807       25.0167780248
 $end
$$$$
! Edit this basic GAMESS input file as needed.
! Conformer was generated by a VeraChem VCPack run 
! and contains     25 atoms.
!
 $contrl scftyp=rhf runtyp=optimize nzvar=0
  maxit=200 icharg=0 $end
 $system mwords=50 $end
 $basis gbasis=pm3 $end
 $statpt nstep=200 $end
 $guess guess=huckel $end
 $data
VM2 Rank=11     G=62.324            E=29.662            -TS=32.661              
C1
C    6.0       20.8850956541       19.4385281798       20.6771855618
H    1.0       20.0833012797       19.0984813761       20.0075710921
H    1.0       21.6959250285       19.7741870402       20.0163163278
C    6.0       21.4146450593       18.2317267402       21.4955818220
H    1.0       21.8471419692       17.5225001150       20.7765476470
H    1.0       22.2522520382       18.5335932424       22.1374897623
C    6.0       20.3317296906       17.4722102550       22.3048164817
H    1.0       20.5191007371       16.3944558581       22.2031242344
H    1.0       19.3425085808       17.6222615112       21.8576326458
C    6.0       20.2995934819       17.7914206941       23.8222499696
H    1.0       19.3731792782       17.3876339048       24.2514537410
H    1.0       21.1185981914       17.2322252034       24.2932935135
C    6.0       20.4466700862       19.2756987618       24.2333886084
H    1.0       21.3876714813       19.6707375129       23.8312543018
C    6.0       19.2855875337       20.2042639000       23.8067388467
H    1.0       18.3470807569       19.8297836416       24.2356935288
H    1.0       19.4603240999       21.1818919225       24.2752108776
C    6.0       19.0880140488       20.4405471143       22.2863466237
H    1.0       18.4538531056       21.3308128473       22.1758978315
H    1.0       18.5010910498       19.6284244050       21.8424870990
C    6.0       20.3926758092       20.6709124530       21.4805825386
H    1.0       21.1921345018       21.0630233255       22.1223963427
H    1.0       20.1939018044       21.4690915459       20.7522677439
O    8.0       20.5199886364       19.3176919018       25.6531095475
H    1.0       21.2928896839       18.7743038609       25.9127923788
 $end
$$$$
! Edit this basic GAMESS input file as needed.
! Conformer was generated by a VeraChem VCPack run 
! and contains     25 atoms.
!
 $contrl scftyp=rhf runtyp=optimize nzvar=0
  maxit=200 icharg=0 $end
 $system mwords=50 $end
 $basis gbasis=pm3 $end
 $statpt nstep=200 $end
 $guess guess=huckel $end
 $data
VM2 Rank=12     G=62.334            E=29.672            -TS=32.661              
C1
C    6.0       20.8852247963       19.4382439902       20.6771893255
H    1.0       20.0837222555       19.0975150584       20.0075722715
H    1.0       21.6958069424       19.7745060358       20.0163238407
C    6.0       21.4157304612       18.2318642417       21.4956691514
H    1.0       21.8490407270       17.5231118579       20.7766727321
H    1.0       22.2528582256       18.5341537068       22.1380453257
C    6.0       20.3335536140       17.4710607898       22.3047044395
H    1.0       20.5247279612       16.3936897581       22.2064320594
H    1.0       19.3448726725       17.6167564463       21.8549087658
C    6.0       20.2967272283       17.7935607387       23.8216405276
H    1.0       19.3699924233       17.3909969171       24.2507509481
H    1.0       21.1144970108       17.2380829477       24.2996085331
C    6.0       20.4461264215       19.2769788589       24.2333826462
H    1.0       21.3891537691       19.6672006184       23.8312927790
C    6.0       19.2860702029       20.2078232391       23.8073066955
H    1.0       18.3469094606       19.8344503816       24.2363422739
H    1.0       19.4590695502       21.1888651129       24.2688034059
C    6.0       19.0875635950       20.4384468380       22.2864740432
H    1.0       18.4504868560       21.3262383607       22.1726217424
H    1.0       18.5033519155       19.6229196022       21.8452719498
C    6.0       20.3918304764       20.6702379501       21.4805029631
H    1.0       20.1921554131       21.4681712563       20.7521492543
H    1.0       21.1913197895       21.0629793165       22.1218491131
O    8.0       20.5211732043       19.3147833536       25.6531302080
H    1.0       20.6738208638       20.2496643918       25.9036808266
 $end
$$$$
! Edit this basic GAMESS input file as needed.
! Conformer was generated by a VeraChem VCPack run 
! and contains     25 atoms.
!
 $contrl scftyp=rhf runtyp=optimize nzvar=0
  maxit=200 icharg=0 $end
 $system mwords=50 $end
 $basis gbasis=pm3 $end
 $statpt nstep=200 $end
 $guess guess=huckel $end
 $data
VM2 Rank=13     G=62.415            E=29.634            -TS=32.781              
C1
C    6.0       20.5590160363       19.2233768189       20.6053827838
H    1.0       20.0762577400       18.4738391443       19.9637889928
H    1.0       21.1340025197       19.8677899103       19.9263816396
C    6.0       21.5726163500       18.5184251715       21.5415040242
H    1.0       22.3219428817       18.0316981520       20.9024193001
H    1.0       22.1402001368       19.2598460385       22.1153460893
C    6.0       20.9931658031       17.4301620132       22.4800082398
H    1.0       21.8386927201       16.9473135238       22.9888173548
H    1.0       20.5211953858       16.6438646942       21.8754155370
C    6.0       19.9899997319       17.9010511179       23.5647609525
H    1.0       18.9905244863       18.0125111970       23.1324426262
H    1.0       19.8841441773       17.0796405849       24.2858862080
C    6.0       20.3949623816       19.1974173575       24.3132040408
H    1.0       21.4728270092       19.3728305912       24.1966096171
C    6.0       19.6236657949       20.4598809176       23.8541853054
H    1.0       18.5448765073       20.2748102154       23.9390642997
H    1.0       19.8434804013       21.2626606476       24.5704354751
C    6.0       19.9446911376       21.0003488523       22.4339450101
H    1.0       21.0133166628       21.2318002834       22.3378189750
H    1.0       19.4320466602       21.9670227232       22.3357524157
C    6.0       19.4628892480       20.0969453123       21.2692244118
H    1.0       19.0482672941       20.7444286704       20.4844395512
H    1.0       18.6157912605       19.4787272504       21.5870876962
O    8.0       20.1229935166       19.0153924387       25.6977852316
H    1.0       20.6687203237       18.2570206032       25.9937072227
 $end
$$$$
! Edit this basic GAMESS input file as needed.
! Conformer was generated by a VeraChem VCPack run 
! and contains     25 atoms.
!
 $contrl scftyp=rhf runtyp=optimize nzvar=0
  maxit=200 icharg=0 $end
 $system mwords=50 $end
 $basis gbasis=pm3 $end
 $statpt nstep=200 $end
 $guess guess=huckel $end
 $data
VM2 Rank=14     G=62.424            E=29.643            -TS=32.781              
C1
C    6.0       20.5224290480       19.3667227512       20.6071589415
H    1.0       19.6589840074       19.5528415701       19.9542230354
H    1.0       21.3927576655       19.3138713455       19.9388374892
C    6.0       20.3561371285       17.9772076440       21.2756637397
H    1.0       19.3161365223       17.8175080342       21.5817669725
H    1.0       20.5297493728       17.2223611271       20.4964977098
C    6.0       21.3213041299       17.6840351916       22.4535202938
H    1.0       22.2420916422       18.2749700583       22.3656746456
H    1.0       21.6428019279       16.6373433533       22.3641880954
C    6.0       20.6951542068       17.8463550389       23.8655530685
H    1.0       19.8000733651       17.2153803294       23.9426484368
H    1.0       21.4092577519       17.4370974380       24.5924306722
C    6.0       20.3433341880       19.2868355582       24.3134893877
H    1.0       21.2313117134       19.9238408188       24.2045144936
C    6.0       19.1498345433       19.9143138035       23.5476194019
H    1.0       18.5266460798       19.1270988219       23.1114975606
H    1.0       18.4858508628       20.4241124650       24.2583753010
C    6.0       19.5399602807       20.9512191421       22.4625420652
H    1.0       19.7908949411       21.8927757306       22.9699356785
H    1.0       18.6577359922       21.1711514037       21.8462124666
C    6.0       20.7302003245       20.5862312079       21.5400554564
H    1.0       21.6487335999       20.4654619577       22.1255981939
H    1.0       20.9241847001       21.4570832008       20.8991119583
O    8.0       20.0056461503       19.2300796627       25.6943976453
H    1.0       19.8523817719       20.1537240138       25.9840670786
 $end
$$$$
! Edit this basic GAMESS input file as needed.
! Conformer was generated by a VeraChem VCPack run 
! and contains     25 atoms.
!
 $contrl scftyp=rhf runtyp=optimize nzvar=0
  maxit=200 icharg=0 $end
 $system mwords=50 $end