$$$$
! Edit this basic GAMESS input file as needed.
! Conformer was generated by a VeraChem VCPack run 
! and contains     19 atoms.
!
 $contrl scftyp=rhf runtyp=optimize nzvar=0
  maxit=200 icharg=0 $end
 $system mwords=50 $end
 $basis gbasis=pm3 $end
 $statpt nstep=200 $end
 $guess guess=huckel $end
 $data
VM2 Rank=1      G=-26.151           E=-40.888           -TS=14.737              
C1
C    6.0       19.9538856790       19.2770577255       25.5145053167
O    8.0       20.6500896495       18.4763338322       26.1063862049
O    8.0       19.7318083521       20.4018270484       25.9166957560
C    6.0       19.3419102548       18.8540988368       24.1837303102
H    1.0       18.3778573109       19.3652886626       24.0740583671
H    1.0       19.1347245205       17.7781642909       24.2304225589
C    6.0       20.2548972878       19.1702554826       22.9735168349
H    1.0       20.4633332027       20.2488967868       22.9482849712
H    1.0       21.2201485903       18.6616637657       23.1045723411
C    6.0       19.6127665538       18.7327120909       21.6394043304
H    1.0       18.6474379208       19.2417311403       21.5119915195
H    1.0       19.4045151518       17.6542907248       21.6682344309
C    6.0       20.5244104722       19.0490146299       20.4355631339
H    1.0       20.7333686611       20.1273041075       20.4020979303
H    1.0       21.4905224870       18.5400698350       20.5584278791
C    6.0       19.8802317509       18.6107003538       19.1051981130
H    1.0       18.9261432137       19.1286621359       18.9413276711
H    1.0       20.5414561509       18.8429660008       18.2602463002
H    1.0       19.6890487845       17.5295762923       19.0987786719
 $end
$$$$
! Edit this basic GAMESS input file as needed.
! Conformer was generated by a VeraChem VCPack run 
! and contains     19 atoms.
!
 $contrl scftyp=rhf runtyp=optimize nzvar=0
  maxit=200 icharg=0 $end
 $system mwords=50 $end
 $basis gbasis=pm3 $end
 $statpt nstep=200 $end
 $guess guess=huckel $end
 $data
VM2 Rank=2      G=-25.408           E=-40.254           -TS=14.845              
C1
C    6.0       19.8291739944       19.3145421283       25.3694924370
O    8.0       20.1457203817       18.4558065370       26.1686545325
O    8.0       19.7258298000       20.4914910702       25.6529920905
C    6.0       19.5681915568       18.8951017831       23.9271627510
H    1.0       18.7935798682       19.5563332922       23.5226943274
H    1.0       19.1560892540       17.8789447131       23.9375111821
C    6.0       20.8441900845       18.9456611844       23.0471354116
H    1.0       21.2224243487       19.9765466717       23.0080945966
H    1.0       21.6285478114       18.3456065628       23.5289443582
C    6.0       20.6255739978       18.4140644364       21.6107737910
H    1.0       20.2556419470       17.3804467656       21.6531129690
H    1.0       21.5983169736       18.3753364361       21.1015749741
C    6.0       19.6560947406       19.2804734007       20.7759347304
H    1.0       18.6553152156       19.2709635885       21.2272803934
H    1.0       19.9983980715       20.3245502542       20.7758539009
C    6.0       19.5552254442       18.7748594600       19.3228542560
H    1.0       19.1884793882       17.7404799943       19.2918390985
H    1.0       18.8613466460       19.3980664433       18.7438596374
H    1.0       20.5339752469       18.8068578252       18.8264561204
 $end
$$$$
! Edit this basic GAMESS input file as needed.
! Conformer was generated by a VeraChem VCPack run 
! and contains     19 atoms.
!
 $contrl scftyp=rhf runtyp=optimize nzvar=0
  maxit=200 icharg=0 $end
 $system mwords=50 $end
 $basis gbasis=pm3 $end
 $statpt nstep=200 $end
 $guess guess=huckel $end
 $data
VM2 Rank=3      G=-25.370           E=-40.215           -TS=14.846              
C1
C    6.0       20.1746638632       19.3730598478       25.3607205615
O    8.0       20.1981805260       18.4646885436       26.1673171711
O    8.0       19.8984434888       20.5207185228       25.6485471003
C    6.0       20.4874525833       19.0508034855       23.9037809431
H    1.0       21.2109951667       18.2269994274       23.8852159032
H    1.0       20.9802914782       19.9267133779       23.4670475923
C    6.0       19.2240159929       18.6712443969       23.0884017193
H    1.0       18.7056726063       17.8505493849       23.6033796811
H    1.0       18.5261519431       19.5198668305       23.0767569794
C    6.0       19.5340624512       18.2291826476       21.6385820138
H    1.0       18.6043328203       17.8681629146       21.1778428755
H    1.0       20.2252096005       17.3753155166       21.6539100118
C    6.0       20.1217725288       19.3593685500       20.7640598855
H    1.0       19.4553244349       20.2325586549       20.7896466230
H    1.0       21.0909504239       19.6835894410       21.1652309635
C    6.0       20.3114085659       18.9029340058       19.3035906054
H    1.0       20.9961682788       18.0466792602       19.2458136774
H    1.0       19.3533691673       18.6068275529       18.8565240348
H    1.0       20.7319476959       19.7149124581       18.6961963271
 $end
$$$$
! Edit this basic GAMESS input file as needed.
! Conformer was generated by a VeraChem VCPack run 
! and contains     19 atoms.
!
 $contrl scftyp=rhf runtyp=optimize nzvar=0
  maxit=200 icharg=0 $end
 $system mwords=50 $end
 $basis gbasis=pm3 $end
 $statpt nstep=200 $end
 $guess guess=huckel $end
 $data
VM2 Rank=4      G=-25.273           E=-40.126           -TS=14.853              
C1
C    6.0       20.0105585423       19.3757545507       25.3742894801
O    8.0       20.8025760926       18.7067232880       26.0078113461
O    8.0       19.7500146314       20.5338735864       25.6333176076
C    6.0       19.3187845605       18.7318836658       24.1778876391
H    1.0       18.3202400663       19.1751222239       24.0820853706
H    1.0       19.1808283401       17.6662607428       24.3971887861
C    6.0       20.1097061683       18.9084030432       22.8581440603
H    1.0       20.2514361143       19.9807652160       22.6695338699
H    1.0       21.1098413862       18.4682002003       22.9729951649
C    6.0       19.3840318894       18.2495621425       21.6623258733
H    1.0       18.4036355590       18.7236097467       21.5170436314
H    1.0       19.1878771469       17.1950501576       21.9000643211
C    6.0       20.1897122141       18.3139003249       20.3442501697
H    1.0       21.1689807592       17.8355351830       20.4839830085
H    1.0       19.6631773677       17.7255382561       19.5801586771
C    6.0       20.3846159014       19.7518993984       19.8169738239
H    1.0       20.8827639492       19.7376711268       18.8389210461
H    1.0       19.4192546525       20.2607033413       19.6971709453
H    1.0       21.0061146973       20.3474484539       20.4972716161
 $end
$$$$
! Edit this basic GAMESS input file as needed.
! Conformer was generated by a VeraChem VCPack run 
! and contains     19 atoms.
!
 $contrl scftyp=rhf runtyp=optimize nzvar=0
  maxit=200 icharg=0 $end
 $system mwords=50 $end
 $basis gbasis=pm3 $end
 $statpt nstep=200 $end
 $guess guess=huckel $end
 $data
VM2 Rank=5      G=-25.257           E=-40.109           -TS=14.853              
C1
C    6.0       19.8728600229       19.2876659025       25.3816674487
O    8.0       20.1969785097       18.3193392420       26.0401012255
O    8.0       18.9513998552       20.0229701524       25.6757052703
C    6.0       20.6539091629       19.5858553615       24.1066994001
H    1.0       21.6934016223       19.2733766175       24.2631944270
H    1.0       20.6609263705       20.6722928466       23.9572556957
C    6.0       20.0648925877       18.8797015523       22.8605670812
H    1.0       20.0560373893       17.7940106073       23.0291966584
H    1.0       19.0199973934       19.1929642903       22.7353340990
C    6.0       20.8735385571       19.2025215306       21.5828599650
H    1.0       21.9286501923       18.9485263350       21.7537920822
H    1.0       20.8411345353       20.2830781032       21.3870222603
C    6.0       20.3802085848       18.4358518086       20.3340890301
H    1.0       21.0746891897       18.6287902870       19.5048023433
H    1.0       20.4166453760       17.3542318093       20.5240777739
C    6.0       18.9562127197       18.8380944501       19.8933105791
H    1.0       18.6877918610       18.3334959901       18.9561490411
H    1.0       18.2093563260       18.5580728799       20.6466614000
H    1.0       18.8879103995       19.9208681520       19.7257044424
 $end
$$$$
! Edit this basic GAMESS input file as needed.
! Conformer was generated by a VeraChem VCPack run 
! and contains     19 atoms.
!
 $contrl scftyp=rhf runtyp=optimize nzvar=0
  maxit=200 icharg=0 $end
 $system mwords=50 $end
 $basis gbasis=pm3 $end
 $statpt nstep=200 $end
 $guess guess=huckel $end
 $data
VM2 Rank=6      G=-24.722           E=-39.769           -TS=15.047              
C1
C    6.0       20.1397083252       19.2124589820       25.1802730936
O    8.0       20.9104829463       18.2974462623       25.3928946584
O    8.0       20.3192267473       20.3476000125       25.5751273089
C    6.0       18.8654862345       18.9175824442       24.3936659514
H    1.0       18.0325209278       19.3859395344       24.9311794550
H    1.0       18.6857133842       17.8357386161       24.4104859884
C    6.0       18.8927260770       19.4328928482       22.9312023508
H    1.0       17.8955142249       19.3034621386       22.4892174919
H    1.0       19.1020287388       20.5116972318       22.9293497209
C    6.0       19.9351381931       18.6959757518       22.0607792845
H    1.0       19.7294144312       17.6168707807       22.0762845700
H    1.0       20.9382771860       18.8348616622       22.4872123156
C    6.0       19.9230817509       19.2026108774       20.6034605336
H    1.0       18.9230550027       19.0623122255       20.1702252940
H    1.0       20.1309834159       20.2814552943       20.5848568195
C    6.0       20.9641497256       18.4654328216       19.7375968188
H    1.0       21.9783271176       18.6148447348       20.1307392369
H    1.0       20.7614363547       17.3866792064       19.7130666033
H    1.0       20.9423928769       18.8380793765       18.7052473827
 $end
$$$$
! Edit this basic GAMESS input file as needed.
! Conformer was generated by a VeraChem VCPack run 
! and contains     19 atoms.
!
 $contrl scftyp=rhf runtyp=optimize nzvar=0
  maxit=200 icharg=0 $end
 $system mwords=50 $end
 $basis gbasis=pm3 $end
 $statpt nstep=200 $end
 $guess guess=huckel $end
 $data
VM2 Rank=7      G=-24.721           E=-39.768           -TS=15.047              
C1
C    6.0       20.0469054613       19.4069187078       25.1611653861
O    8.0       21.0054813052       18.9084360384       25.7173377360
O    8.0       19.8125528590       20.5992301570       25.1659274508
C    6.0       19.0738838409       18.4808441736       24.4366262940
H    1.0       18.1247084729       19.0117555213       24.2945472004
H    1.0       18.8676721823       17.6353452038       25.1034994544
C    6.0       19.5996829891       17.9514186909       23.0770924080
H    1.0       20.5641232335       17.4476825602       23.2311549201
H    1.0       18.9032267268       17.1917183214       22.6971751540
C    6.0       19.7562639023       19.0709556325       22.0238000903
H    1.0       20.4649243974       19.8269397281       22.3894630512
H    1.0       18.7928065329       19.5797925898       21.8828609778
C    6.0       20.2501413731       18.5174114671       20.6709225287
H    1.0       21.2150867261       18.0100578143       20.8085705834
H    1.0       19.5429556553       17.7635060205       20.2981705916
C    6.0       20.4050882692       19.6367851325       19.6221281061
H    1.0       19.4467477772       20.1411704399       19.4416165809
H    1.0       21.1312442686       20.3896426461       19.9558104150
H    1.0       20.7572488031       19.2260099605       18.6669670677
 $end
$$$$
! Edit this basic GAMESS input file as needed.
! Conformer was generated by a VeraChem VCPack run 
! and contains     19 atoms.
!
 $contrl scftyp=rhf runtyp=optimize nzvar=0
  maxit=200 icharg=0 $end
 $system mwords=50 $end
 $basis gbasis=pm3 $end
 $statpt nstep=200 $end
 $guess guess=huckel $end
 $data
VM2 Rank=8      G=-24.443           E=-39.689           -TS=15.246              
C1
C    6.0       20.0072745118       19.2236370635       25.5349363661
O    8.0       19.9565824362       18.5580560563       26.5498720041
O    8.0       20.1008431695       20.4358084839       25.5404520253
C    6.0       19.9480830413       18.4725391994       24.2037624272
H    1.0       19.0189271323       17.8905764826       24.1975432441
H    1.0       20.7764818102       17.7543825154       24.1962423500
C    6.0       20.0162681193       19.3644733535       22.9355996268
H    1.0       19.1871668395       20.0854349654       22.9521366021
H    1.0       20.9465388673       19.9491368567       22.9508651921
C    6.0       19.9504240249       18.5266811708       21.6402115382
H    1.0       19.0197555560       17.9428706052       21.6271179951
H    1.0       20.7800822522       17.8065354241       21.6258102289
C    6.0       20.0183056925       19.4152454116       20.3807512033
H    1.0       19.1887940967       20.1358757834       20.3904871980
H    1.0       20.9489574593       19.9994631839       20.3891157217
C    6.0       19.9522190046       18.5755592610       19.0894148091
H    1.0       19.0158718201       18.0044107788       19.0397651274
H    1.0       20.0017057333       19.2228711809       18.2041765586
H    1.0       20.7892890915       17.8669474121       19.0383885608
 $end
$$$$
! Edit this basic GAMESS input file as needed.
! Conformer was generated by a VeraChem VCPack run 
! and contains     19 atoms.
!
 $contrl scftyp=rhf runtyp=optimize nzvar=0
  maxit=200 icharg=0 $end
 $system mwords=50 $end
 $basis gbasis=pm3 $end
 $statpt nstep=200 $end
 $guess guess=huckel $end
 $data
VM2 Rank=9      G=-24.231           E=-39.379           -TS=15.148              
C1
C    6.0       19.8396335638       19.3989740216       25.1883871983
O    8.0       20.2288806005       18.7001857182       26.1030482985
O    8.0       19.6639709335       20.5972912780       25.2858557262
C    6.0       19.5754566387       18.7386579847       23.8399018762
H    1.0       18.7541259313       19.2810836602       23.3578755077
H    1.0       19.2271702128       17.7152769582       24.0235969690
C    6.0       20.8266753473       18.7215962988       22.9240707220
H    1.0       21.1435388200       19.7521550246       22.7159237832
H    1.0       21.6569253080       18.2532103154       23.4704219476
C    6.0       20.6125701479       17.9504980377       21.5973107695
H    1.0       20.3971158044       16.8983177871       21.8281558287
H    1.0       21.5554994824       17.9501923311       21.0336936050
C    6.0       19.4865857055       18.5014558759       20.6881876651
H    1.0       19.4201786864       17.8692897137       19.7920633371
H    1.0       18.5152057349       18.4148626177       21.1926988525
C    6.0       19.7162270628       19.9633407851       20.2482377442
H    1.0       20.6931906669       20.0781803684       19.7610178062
H    1.0       18.9429805324       20.2757531285       19.5345823491
H    1.0       19.6748507600       20.6485409022       21.1044253461
 $end
$$$$
! Edit this basic GAMESS input file as needed.
! Conformer was generated by a VeraChem VCPack run 
! and contains     19 atoms.
!
 $contrl scftyp=rhf runtyp=optimize nzvar=0
  maxit=200 icharg=0 $end
 $system mwords=50 $end
 $basis gbasis=pm3 $end
 $statpt nstep=200 $end
 $guess guess=huckel $end
 $data
VM2 Rank=10     G=-24.222           E=-39.370           -TS=15.148              
C1
C    6.0       20.0745045086       19.4633587894       25.1809381650
O    8.0       20.1503610601       18.6786669823       26.1055608104
O    8.0       19.6200508747       20.5851963094       25.2871195127
C    6.0       20.5581432958       19.0080395478       23.8087158173
H    1.0       21.3893328343       18.3079754189       23.9549681493
H    1.0       20.9584714082       19.8853534640       23.2879304151
C    6.0       19.4386751593       18.3411291733       22.9681151628
H    1.0       18.9967529047       17.5240217173       23.5548341169
H    1.0       18.6293682372       19.0629840835       22.7957039961
C    6.0       19.9370737708       17.7653436965       21.6187473664
H    1.0       19.0944972270       17.2756462076       21.1117551352
H    1.0       20.6716399109       16.9735581021       21.8194506700
C    6.0       20.5694840799       18.7982890376       20.6538737991
H    1.0       21.4772694875       19.2267545729       21.0987924161
H    1.0       20.8957018387       18.2737611294       19.7452851302
C    6.0       19.6017072507       19.9319764636       20.2519293663
H    1.0       19.3386054635       20.5563606644       21.1151732213
H    1.0       20.0643540788       20.5831880989       19.4991370207
H    1.0       18.6757842543       19.5252486971       19.8249996019
 $end
$$$$
! Edit this basic GAMESS input file as needed.
! Conformer was generated by a VeraChem VCPack run 
! and contains     19 atoms.
!
 $contrl scftyp=rhf runtyp=optimize nzvar=0
  maxit=200 icharg=0 $end
 $system mwords=50 $end
 $basis gbasis=pm3 $end
 $statpt nstep=200 $end
 $guess guess=huckel $end
 $data
VM2 Rank=11     G=-23.760           E=-38.926           -TS=15.166              
C1
C    6.0       20.0016933953       19.2478267399       25.2108072021
O    8.0       20.7795794592       18.4084139964       25.6193685131
O    8.0       20.0126361751       20.4072658103       25.5745217234
C    6.0       18.9383769970       18.8198624943       24.2029958136
H    1.0       17.9820403864       19.2376003928       24.5391663428
H    1.0       18.8384784601       17.7282755671       24.2406322659
C    6.0       19.2215940616       19.2812169525       22.7494978211
H    1.0       18.3375861122       19.0636098857       22.1366926023
H    1.0       19.3584092997       20.3713391256       22.7338641908
C    6.0       20.4622839909       18.5878698414       22.1374164857
H    1.0       20.3073091626       17.5004651777       22.1186618475
H    1.0       21.3315054508       18.7655234319       22.7854266878
C    6.0       20.8051734597       19.0866829656       20.7145884651
H    1.0       20.9628945393       20.1739641287       20.7305937920
H    1.0       21.7598840652       18.6393118125       20.4053813499
C    6.0       19.7286624612       18.7328611997       19.6658039759
H    1.0       18.7846781572       19.2538660299       19.8684646621
H    1.0       20.0606025199       19.0264243626       18.6615264340
H    1.0       19.5313206624       17.6530147049       19.6541987704
 $end
$$$$
! Edit this basic GAMESS input file as needed.
! Conformer was generated by a VeraChem VCPack run 
! and contains     19 atoms.
!
 $contrl scftyp=rhf runtyp=optimize nzvar=0
  maxit=200 icharg=0 $end
 $system mwords=50 $end
 $basis gbasis=pm3 $end
 $statpt nstep=200 $end
 $guess guess=huckel $end
 $data
VM2 Rank=12     G=-23.753           E=-38.917           -TS=15.165              
C1
C    6.0       20.0790185951       19.3487734241       25.1049062486
O    8.0       20.9617890849       18.6235696957       25.5190032375
O    8.0       20.0481719233       20.5479108684       25.2993883436
C    6.0       18.9318551953       18.7174091759       24.3208731252
H    1.0       17.9973930142       19.1410911639       24.7073854449
H    1.0       18.9074369414       17.6430475626       24.5400861261
C    6.0       19.0112628271       18.9503905972       22.7896633077
H    1.0       18.0877218792       18.5806365364       22.3242903300
H    1.0       19.0549672599       20.0302454086       22.5952382722
C    6.0       20.2267388093       18.2423794612       22.1451185953
H    1.0       20.2100242855       17.1795751570       22.4226671574
H    1.0       21.1589793846       18.6548537791       22.5551178239
C    6.0       20.2516447630       18.3481372837       20.6027714803
H    1.0       21.0743541538       17.7284437215       20.2202295173
H    1.0       19.3262053755       17.9267692994       20.1865082575
C    6.0       20.4395188021       19.7934294939       20.0932756618
H    1.0       20.5391093903       19.8052503032       19.0001807196
H    1.0       19.5817730001       20.4252843981       20.3555336148
H    1.0       21.3441082917       20.2457867019       20.5202417231
 $end
$$$$
! Edit this basic GAMESS input file as needed.
! Conformer was generated by a VeraChem VCPack run 
! and contains     19 atoms.
!
 $contrl scftyp=rhf runtyp=optimize nzvar=0
  maxit=200 icharg=0 $end
 $system mwords=50 $end
 $basis gbasis=pm3 $end
 $statpt nstep=200 $end
 $guess guess=huckel $end
 $data
VM2 Rank=13     G=-23.747           E=-38.911           -TS=15.164              
C1
C    6.0       20.1194039886       19.2640914735       25.1132508789
O    8.0       21.0096854292       18.5319396358       25.4980319073
O    8.0       20.0869266452       20.4578194355       25.3382781389
C    6.0       18.9668802566       18.6439825433       24.3280958094
H    1.0       18.1063829344       19.3224198145       24.3746853722
H    1.0       18.6734466884       17.7237594622       24.8469455244
C    6.0       19.3130267548       18.3178182414       22.8519570983
H    1.0       20.1880706177       17.6548119127       22.8291859819
H    1.0       18.4794038600       17.7595741266       22.4051302856
C    6.0       19.5844847825       19.5889368469       22.0125108113
H    1.0       20.4607761071       20.1187173533       22.4109501954
H    1.0       18.7333562789       20.2754949474       22.1177922969
C    6.0       19.7988772644       19.2973962686       20.5092872930
H    1.0       18.9204845920       18.7773794700       20.1027506256
H    1.0       19.8702654389       20.2529178809       19.9716149812
C    6.0       21.0707148787       18.4700155549       20.2235880629
H    1.0       20.9956750299       17.4608289030       20.6474498833
H    1.0       21.2257833339       18.3654977471       19.1419484535
H    1.0       21.9590103597       18.9565421901       20.6471821451
 $end
$$$$
! Edit this basic GAMESS input file as needed.
! Conformer was generated by a VeraChem VCPack run 
! and contains     19 atoms.
!
 $contrl scftyp=rhf runtyp=optimize nzvar=0
  maxit=200 icharg=0 $end
 $system mwords=50 $end
 $basis gbasis=pm3 $end
 $statpt nstep=200 $end
 $guess guess=huckel $end
 $data
VM2 Rank=14     G=-23.723           E=-38.888           -TS=15.165              
C1
C    6.0       19.9846588271       19.2835639962       25.2072994758
O    8.0       20.8578821350       18.6350330061       25.7491450575
O    8.0       19.7982360852       20.4659491189       25.4167137396
C    6.0       19.0589620122       18.5671025547       24.2278888570
H    1.0       18.1512611508       19.1690659644       24.0987513112
H    1.0       18.7509305623       17.6256672046       24.6979011823
C    6.0       19.7041269063       18.2696597478       22.8491184219
H    1.0       20.6324106461       17.7006430021       22.9968924788
H    1.0       19.0240365454       17.6245656207       22.2784322716
C    6.0       20.0002560636       19.5563390357       22.0419939176
H    1.0       20.6374797340       20.2202898320       22.6421094933
H    1.0       19.0651914234       20.1041760758       21.8621424872
C    6.0       20.7097582753       19.2866955462       20.6948753398
H    1.0       20.9917718181       20.2494411015       20.2467561760
H    1.0       21.6466766843       18.7406260619       20.8718005213
C    6.0       19.8361196953       18.5076569944       19.6879651908
H    1.0       19.6258102938       17.4908106065       20.0421061005
H    1.0       18.8795322452       19.0192584602       19.5195860466
H    1.0       20.3486205386       18.4227761488       18.7209724001
 $end
$$$$
! Edit this basic GAMESS input file as needed.
! Conformer was generated by a VeraChem VCPack run 
! and contains     19 atoms.
!
 $contrl scftyp=rhf runtyp=optimize nzvar=0
  maxit=200 icharg=0 $end
 $system mwords=50 $end
 $basis gbasis=pm3 $end
 $statpt nstep=200 $end
 $guess guess=huckel $end
 $data
VM2 Rank=15     G=-23.456           E=-38.650           -TS=15.194              
C1
C    6.0       20.1989858402       19.1455661208       24.9735801585
O    8.0       21.2081028316       18.4714561676       24.9122788815
O    8.0       20.1027299291       20.1502084204       25.6506956075
C    6.0       18.9748570112       18.6903052086       24.1838657572
H    1.0       18.1272162697       18.6729165524       24.8788507908
H    1.0       19.1305956761       17.6550480107       23.8597265757
C    6.0       18.6261686462       19.5978562546       22.9724597566
H    1.0       17.6998027928       19.2360059309       22.5063422512
H    1.0       18.4097404670       20.6099302132       23.3415073490
C    6.0       19.7367606013       19.6865091239       21.8972490488
H    1.0       20.6553242799       20.0904545543       22.3448347027
H    1.0       19.4225087365       20.4089079259       21.1316055611
C    6.0       20.0436270241       18.3337237835       21.2169794103
H    1.0       20.4486267546       17.6264397870       21.9531575452
H    1.0       19.1154970187       17.8955372602       20.8250203511
C    6.0       21.0587681163       18.4963749205       20.0678913797
H    1.0       20.6713773678       19.1708696577       19.2930987654
H    1.0       22.0069957668       18.9075764136       20.4383474586
H    1.0       21.2700694767       17.5268151844       19.5985007727
 $end
$$$$
! Edit this basic GAMESS input file as needed.
! Conformer was generated by a VeraChem VCPack run 
! and contains     19 atoms.
!
 $contrl scftyp=rhf runtyp=optimize nzvar=0
  maxit=200 icharg=0 $end
 $system mwords=50 $end
 $basis gbasis=pm3 $end
 $statpt nstep=200 $end
 $guess guess=huckel $end
 $data
VM2 Rank=16     G=-23.425           E=-38.618           -TS=15.194              
C1
C    6.0       20.0347099174       19.0209866114       24.9860903939
O    8.0       20.4075901434       17.8645798766       24.9725754994
O    8.0       19.1612163635       19.4362641855       25.7220333712
C    6.0       20.7206120353       20.0140448849       24.0518640691
H    1.0       21.6415130727       19.5589848192       23.6698452580
H    1.0       21.0286706412       20.8729882426       24.6594152909
C    6.0       19.8264392318       20.5079764659       22.8817235142
H    1.0       18.9481453134       21.0181403154       23.3008430630
H    1.0       20.3746952221       21.2643630909       22.3041000253
C    6.0       19.3439420174       19.3886093550       21.9269616527
H    1.0       18.6609266828       19.8314017363       21.1892274366
H    1.0       18.7556027633       18.6498248366       22.4884947433
C    6.0       20.4953611483       18.6762957145       21.1827784818
H    1.0       21.1243716873       19.4189653950       20.6730207199
H    1.0       21.1370283631       18.1484695936       21.9010374463
C    6.0       19.9601291430       17.6632429062       20.1509730179
H    1.0       20.7894020283       17.1623984168       19.6347528436
H    1.0       19.3497103717       16.8923200052       20.6393652690
H    1.0       19.3414726004       18.1624103473       19.3937319080
 $end
$$$$
! Edit this basic GAMESS input file as needed.
! Conformer was generated by a VeraChem VCPack run 
! and contains     19 atoms.
!
 $contrl scftyp=rhf runtyp=optimize nzvar=0
  maxit=200 icharg=0 $end
 $system mwords=50 $end
 $basis gbasis=pm3 $end
 $statpt nstep=200 $end
 $guess guess=huckel $end
 $data
VM2 Rank=17     G=-22.479           E=-38.023           -TS=15.544              
C1
C    6.0       20.1779238362       19.1937180395       24.9613247880
O    8.0       20.8440264676       18.1849983343       25.0858380889
O    8.0       19.3427803865       19.5503407260       25.7691092583
C    6.0       20.4232240597       20.0785737378       23.7422327946
H    1.0       21.3701592534       19.7817966248       23.2769016464
H    1.0       20.5637258012       21.1032202879       24.1055898636
C    6.0       19.2722173004       20.0566637258       22.6996516358
H    1.0       18.3545965449       20.4214985731       23.1812922578
H    1.0       19.4965918831       20.7723377070       21.8981956386
C    6.0       18.9890742766       18.6605759042       22.0873913714
H    1.0       18.1495699311       18.7477880348       21.3843851041
H    1.0       18.6477637876       17.9833159083       22.8823169379
C    6.0       20.1871326560       18.0052559947       21.3577162560
H    1.0       21.0022192381       17.8128052121       22.0683782468
H    1.0       19.8728231071       17.0210877033       20.9841932763
C    6.0       20.7136210170       18.8418735377       20.1717358069
H    1.0       19.9082810636       19.0639730806       19.4596206220
H    1.0       21.1437708379       19.7916273707       20.5135648374
H    1.0       21.4993275248       18.2949066502       19.6348146208
 $end
$$$$
! Edit this basic GAMESS input file as needed.
! Conformer was generated by a VeraChem VCPack run 
! and contains     19 atoms.
!
 $contrl scftyp=rhf runtyp=optimize nzvar=0
  maxit=200 icharg=0 $end
 $system mwords=50 $end
 $basis gbasis=pm3 $end
 $statpt nstep=200 $end
 $guess guess=huckel $end
 $data
VM2 Rank=18     G=-22.463           E=-38.007           -TS=15.544              
C1
C    6.0       20.0733285325       19.4130793859       24.9397231525
O    8.0       19.7588375503       18.6779531475       25.8550619333
O    8.0       19.7074078762       20.5684805117       24.8510564349
C    6.0       21.0031716455       18.8623679251       23.8620221342
H    1.0       21.8543514282       18.3966177120       24.3721595037
H    1.0       21.4085553214       19.7013079032       23.2848389402
C    6.0       20.3375306060       17.8225609223       22.9196881709