$$$$
! Edit this basic GAMESS input file as needed.
! Conformer was generated by a VeraChem VCPack run 
! and contains     29 atoms.
!
 $contrl scftyp=rhf runtyp=optimize nzvar=0
  maxit=200 icharg=0 $end
 $system mwords=50 $end
 $basis gbasis=pm3 $end
 $statpt nstep=200 $end
 $guess guess=huckel $end
 $data
VM2 Rank=1      G=33.702            E=-3.682            -TS=37.384              
C1
C    6.0       19.5306443126       19.9313372305       18.7439446464
H    1.0       18.5905927981       20.4924465246       18.8258656399
H    1.0       20.3585301038       20.6520761440       18.7240698192
H    1.0       19.5233421374       19.3997958074       17.7834952134
C    6.0       19.6877295083       18.9384709701       19.9150117008
H    1.0       20.6190382963       18.3689505997       19.7876852370
H    1.0       18.8647199519       18.2105515064       19.8887442792
C    6.0       19.7010543245       19.6615310815       21.2799141158
H    1.0       20.5237871632       20.3896120273       21.3005753595
H    1.0       18.7693093980       20.2311440535       21.4015404095
C    6.0       19.8583634340       18.6704256261       22.4550821376
H    1.0       20.7897518684       18.1006218450       22.3313735014
H    1.0       19.0351452913       17.9428523302       22.4338690581
C    6.0       19.8723913692       19.3942336733       23.8203959579
H    1.0       20.6980898481       20.1191161503       23.8420602699
H    1.0       18.9418169178       19.9661333830       23.9336676482
C    6.0       20.0288546716       18.3990490792       24.9957707335
H    1.0       20.9353920854       17.8002441048       24.8353713589
H    1.0       19.1855191826       17.6956643133       25.0018425487
C    6.0       20.1313905232       19.0989296375       26.3682197862
H    1.0       20.9619149552       19.8105194346       26.3292005761
C    6.0       20.4280289409       18.0708468205       27.4715589310
H    1.0       20.5383324686       18.5660067798       28.4442157780
H    1.0       19.6207487527       17.3322344778       27.5534150461
H    1.0       21.3622173501       17.5343580413       27.2636343846
N    7.0       18.8975429157       19.8911758813       26.7041019908
H    1.0       18.9909903972       20.3638915553       27.6076960288
H    1.0       18.0710145184       19.2898003511       26.7565275531
H    1.0       18.7120653136       20.6104240496       25.9998540822
 $end
$$$$
! Edit this basic GAMESS input file as needed.
! Conformer was generated by a VeraChem VCPack run 
! and contains     29 atoms.
!
 $contrl scftyp=rhf runtyp=optimize nzvar=0
  maxit=200 icharg=0 $end
 $system mwords=50 $end
 $basis gbasis=pm3 $end
 $statpt nstep=200 $end
 $guess guess=huckel $end
 $data
VM2 Rank=2      G=34.127            E=-3.403            -TS=37.530              
C1
C    6.0       19.0307968077       19.3523559963       18.8498091810
H    1.0       18.5002493917       18.3915040472       18.8266853185
H    1.0       18.2859106751       20.1518868599       18.9553712003
H    1.0       19.5318858738       19.4841074777       17.8820274810
C    6.0       20.0549572907       19.3927105646       20.0036374552
H    1.0       20.5927677397       20.3508947970       19.9804340403
H    1.0       20.8054087034       18.6040686893       19.8527649448
C    6.0       19.3750660919       19.2094743244       21.3784419907
H    1.0       18.6243904264       19.9986306599       21.5237325734
H    1.0       18.8369047691       18.2516251508       21.3959525500
C    6.0       20.3976586994       19.2491755471       22.5363976112
H    1.0       20.9355262226       20.2071872517       22.5173668115
H    1.0       21.1481201770       18.4600168803       22.3897875526
C    6.0       19.7172842676       19.0656063003       23.9117585310
H    1.0       18.9679394984       19.8559402831       24.0511559285
H    1.0       19.1790344086       18.1087032601       23.9191019848
C    6.0       20.7489918793       19.1031005985       25.0691458507
H    1.0       21.3130716962       20.0437087547       25.0188332971
H    1.0       21.4853722947       18.3014031593       24.9249106975
C    6.0       20.1433715128       18.9722338462       26.4866298529
H    1.0       20.9693544786       19.0446683615       27.2009700552
C    6.0       19.4612104195       17.6098970250       26.7011993683
H    1.0       19.1633123804       17.4914457232       27.7502142203
H    1.0       18.5610728615       17.5050512652       26.0839730370
H    1.0       20.1452087054       16.7882431557       26.4550029340
N    7.0       19.2066630311       20.1014457977       26.8169801592
H    1.0       19.6665271566       21.0112703340       26.7196750327
H    1.0       18.8632773764       20.0332393440       27.7793225712
H    1.0       18.3913431143       20.1000645756       26.1990873044
 $end
$$$$
! Edit this basic GAMESS input file as needed.
! Conformer was generated by a VeraChem VCPack run 
! and contains     29 atoms.
!
 $contrl scftyp=rhf runtyp=optimize nzvar=0
  maxit=200 icharg=0 $end
 $system mwords=50 $end
 $basis gbasis=pm3 $end
 $statpt nstep=200 $end
 $guess guess=huckel $end
 $data
VM2 Rank=3      G=34.129            E=-3.270            -TS=37.399              
C1
C    6.0       20.2030692726       19.4673438709       18.6904264048
H    1.0       20.5985061553       20.4913985327       18.7044521841
H    1.0       21.0524504106       18.7733481417       18.6437879173
H    1.0       19.6168545015       19.3449347173       17.7704155486
C    6.0       19.3302238916       19.1928419384       19.9332636557
H    1.0       18.9221020044       18.1740854472       19.8743589855
H    1.0       18.4716024050       19.8788934428       19.9345016582
C    6.0       20.1320335501       19.3584993677       21.2430700103
H    1.0       20.9904338838       18.6725637205       21.2360486253
H    1.0       20.5397787934       20.3774749450       21.2964406720
C    6.0       19.2612641586       19.0843351801       22.4899450562
H    1.0       18.8541278976       18.0651007030       22.4360493688
H    1.0       18.4026560171       19.7700667730       22.4947336757
C    6.0       20.0638087236       19.2507035735       23.8002144683
H    1.0       20.9233281942       18.5679207540       23.7813377776
H    1.0       20.4665687667       20.2715626539       23.8562887973
C    6.0       19.1902201924       18.9708525203       25.0477542322
H    1.0       18.8391572504       17.9305103543       25.0283564201
H    1.0       18.2937497438       19.6027708611       24.9953154985
C    6.0       19.9085936914       19.2523654658       26.3872070960
H    1.0       20.2850822415       20.2797016152       26.3655374592
C    6.0       21.0972290366       18.3023926597       26.6195408639
H    1.0       20.7789110900       17.2529742340       26.5862031773
H    1.0       21.8786981545       18.4491074600       25.8651210912
H    1.0       21.5542245018       18.4881174440       27.5993473750
N    7.0       18.9495574831       19.1766654236       27.5425782126
H    1.0       19.4123438360       19.4012776612       28.4280807997
H    1.0       18.5498651454       18.2389659454       27.6360959612
H    1.0       18.1715328702       19.8332180878       27.4306268192
 $end
$$$$
! Edit this basic GAMESS input file as needed.
! Conformer was generated by a VeraChem VCPack run 
! and contains     29 atoms.
!
 $contrl scftyp=rhf runtyp=optimize nzvar=0
  maxit=200 icharg=0 $end
 $system mwords=50 $end
 $basis gbasis=pm3 $end
 $statpt nstep=200 $end
 $guess guess=huckel $end
 $data
VM2 Rank=4      G=34.285            E=-3.210            -TS=37.496              
C1
C    6.0       18.8287018857       18.7943581333       19.4037464810
H    1.0       18.6828562101       17.8743335636       19.9831807739
H    1.0       17.9438944741       19.4300506103       19.5380596488
H    1.0       18.8815866427       18.5119520218       18.3443194705
C    6.0       20.1156770486       19.5360686608       19.8304544108
H    1.0       20.2825408519       20.3785310132       19.1447610670
H    1.0       20.9818513078       18.8695875888       19.7152367367
C    6.0       20.0615024890       20.0782841364       21.2790657392
H    1.0       20.9616515103       20.6821337002       21.4590536450
H    1.0       19.2059873387       20.7597261424       21.3837253858
C    6.0       19.9770013502       18.9654518526       22.3510358483
H    1.0       20.8046792338       18.2568855964       22.2093708273
H    1.0       19.0455076864       18.3975740012       22.2275022583
C    6.0       20.0307452156       19.5437801428       23.7831660700
H    1.0       20.9657004780       20.1056012672       23.9168482192
H    1.0       19.2069370693       20.2581544543       23.9130714948
C    6.0       19.9407730194       18.4306034558       24.8551529383
H    1.0       20.7388171031       17.6982321518       24.6738829159
H    1.0       18.9901905086       17.8906120863       24.7512359292
C    6.0       20.0775002944       18.9690328594       26.2957427781
H    1.0       21.0190906540       19.5221553231       26.3672707493
C    6.0       20.1236948770       17.8055610904       27.2989837755
H    1.0       20.2575654578       18.1796220853       28.3215123981
H    1.0       19.1976038497       17.2178844450       27.2683068341
H    1.0       20.9623378187       17.1334676363       27.0782346911
N    7.0       18.9804038200       19.9328596686       26.6566519587
H    1.0       18.9655181610       20.7363910818       26.0227709810
H    1.0       19.0980795625       20.2946338793       27.6074091338
H    1.0       18.0609436737       19.4856790566       26.6101508176
 $end
$$$$
! Edit this basic GAMESS input file as needed.
! Conformer was generated by a VeraChem VCPack run 
! and contains     29 atoms.
!
 $contrl scftyp=rhf runtyp=optimize nzvar=0
  maxit=200 icharg=0 $end
 $system mwords=50 $end
 $basis gbasis=pm3 $end
 $statpt nstep=200 $end
 $guess guess=huckel $end
 $data
VM2 Rank=5      G=34.301            E=-3.195            -TS=37.495              
C1
C    6.0       20.4857627631       18.8971781775       19.3013293138
H    1.0       20.3542657904       18.5903818109       18.2556146531
H    1.0       21.2784850924       19.6559333459       19.3315228987
H    1.0       20.8284536418       18.0186659619       19.8618941206
C    6.0       19.1617682571       19.4538682501       19.8720045782
H    1.0       18.3940957435       18.6675878256       19.8589821641
H    1.0       18.7974460445       20.2503670372       19.2082119694
C    6.0       19.3010817453       20.0256827356       21.3034541104
H    1.0       20.0550204656       20.8249317600       21.3073236360
H    1.0       18.3492128814       20.4971577474       21.5844019017
C    6.0       19.6675136844       18.9572120741       22.3611819069
H    1.0       20.6507207379       18.5262336740       22.1311178233
H    1.0       18.9400811796       18.1348484325       22.3189904597
C    6.0       19.6949806575       19.5492278620       23.7884731054
H    1.0       20.4226644678       20.3717256431       23.8293192832
H    1.0       18.7116140702       19.9804859922       24.0182910428
C    6.0       20.0643370673       18.4806064271       24.8458659991
H    1.0       21.0239390616       18.0240201172       24.5687526667
H    1.0       19.3188470736       17.6743006452       24.8352647975
C    6.0       20.1827095023       19.0599925944       26.2721287436
H    1.0       20.9119488992       19.8757376597       26.2515573816
C    6.0       20.6893709167       17.9840156752       27.2457170702
H    1.0       19.9897978669       17.1407593616       27.3045914724
H    1.0       21.6648882323       17.5969843105       26.9258234698
H    1.0       20.8105678413       18.3987681757       28.2540330200
N    7.0       18.8884754061       19.6482162041       26.7638451725
H    1.0       18.9905610638       20.0449256942       27.7023890078
H    1.0       18.1503807264       18.9405674295       26.8084847311
H    1.0       18.5610242513       20.3976856407       26.1484145484
 $end
$$$$
! Edit this basic GAMESS input file as needed.
! Conformer was generated by a VeraChem VCPack run 
! and contains     29 atoms.
!
 $contrl scftyp=rhf runtyp=optimize nzvar=0
  maxit=200 icharg=0 $end
 $system mwords=50 $end
 $basis gbasis=pm3 $end
 $statpt nstep=200 $end
 $guess guess=huckel $end
 $data
VM2 Rank=6      G=34.353            E=-3.103            -TS=37.456              
C1
C    6.0       20.6750840575       18.9877637199       19.1353910293
H    1.0       21.2759849380       18.1144478599       19.4208290101
H    1.0       20.3357733457       18.8401688859       18.1018878427
H    1.0       21.3260786214       19.8715773349       19.1535020022
C    6.0       19.4708132661       19.1665854090       20.0839286710
H    1.0       18.8214144961       18.2822457898       20.0196421662
H    1.0       18.8706950762       20.0255797914       19.7524757600
C    6.0       19.9210458819       19.3772028903       21.5464967062
H    1.0       20.5269457343       18.5174334172       21.8603571918
H    1.0       20.5677105322       20.2634803198       21.6058610427
C    6.0       18.7136354049       19.5520994795       22.4989080221
H    1.0       18.0964881680       18.6431004375       22.4865386884
H    1.0       18.0757606229       20.3624701990       22.1196777241
C    6.0       19.1142010564       19.8877794391       23.9566985520
H    1.0       19.7291665339       20.7983617577       23.9681012116
H    1.0       18.1983679469       20.1263672201       24.5131306468
C    6.0       19.8698666880       18.7379594427       24.6715536003
H    1.0       20.7968351688       18.5194226630       24.1272997726
H    1.0       19.2649482271       17.8219426552       24.6440495640
C    6.0       20.2342297435       19.0751184297       26.1338792153
H    1.0       20.8045799682       20.0091044600       26.1386921411
C    6.0       21.1161065056       17.9681481411       26.7335025033
H    1.0       21.4077469705       18.2179069060       27.7611115413
H    1.0       20.5881884044       17.0064216671       26.7520085812
H    1.0       22.0356258806       17.8419860037       26.1484165905
N    7.0       19.0210173961       19.3033430488       26.9936417005
H    1.0       18.4310930422       18.4680117017       27.0354175743
H    1.0       18.4460678611       20.0697201796       26.6335295758
H    1.0       19.2830295615       19.5423687579       27.9542981509
 $end
$$$$
! Edit this basic GAMESS input file as needed.
! Conformer was generated by a VeraChem VCPack run 
! and contains     29 atoms.
!
 $contrl scftyp=rhf runtyp=optimize nzvar=0
  maxit=200 icharg=0 $end
 $system mwords=50 $end
 $basis gbasis=pm3 $end
 $statpt nstep=200 $end
 $guess guess=huckel $end
 $data
VM2 Rank=7      G=34.363            E=-3.215            -TS=37.578              
C1
C    6.0       19.7045262848       20.0254539371       19.0212985132
H    1.0       20.4611326867       20.3915352957       18.3151975660
H    1.0       19.2423500475       19.1298912470       18.5858499416
H    1.0       18.9303348657       20.7980033039       19.1163912496
C    6.0       20.3439945507       19.7097570585       20.3899582352
H    1.0       20.8267962347       20.6149567797       20.7841722313
H    1.0       21.1362922376       18.9596159075       20.2578526594
C    6.0       19.2994688386       19.1920680545       21.4033348821
H    1.0       18.5086050928       19.9442207111       21.5305152260
H    1.0       18.8178851174       18.2890317792       21.0033147179
C    6.0       19.9362791301       18.8743330402       22.7749135543
H    1.0       20.4223151476       19.7790153960       23.1635672377
H    1.0       20.7242096713       18.1193274972       22.6462831838
C    6.0       18.8870624949       18.3578489570       23.7883715200
H    1.0       18.1090584211       19.1181407476       23.9388786308
H    1.0       18.3771541645       17.4826606462       23.3624647226
C    6.0       19.5031408557       17.9514474911       25.1516007692
H    1.0       20.2034809381       17.1213518141       24.9889986264
H    1.0       18.7087992701       17.5594351183       25.8006195331
C    6.0       20.2407043970       19.0964180365       25.8813811385
H    1.0       21.0408226671       19.4613952031       25.2307431107
C    6.0       20.8785619188       18.5793606154       27.1804296967
H    1.0       20.1165844790       18.2048298506       27.8754381291
H    1.0       21.5811668721       17.7630487842       26.9713149216
H    1.0       21.4369087789       19.3784184519       27.6835638591
N    7.0       19.3422615294       20.2693128095       26.1627116909
H    1.0       19.8512886988       21.0296862716       26.6224086227
H    1.0       18.5657510347       20.0052760875       26.7749273345
H    1.0       18.9410900149       20.6448117099       25.2990027603
 $end
$$$$
! Edit this basic GAMESS input file as needed.
! Conformer was generated by a VeraChem VCPack run 
! and contains     29 atoms.
!
 $contrl scftyp=rhf runtyp=optimize nzvar=0
  maxit=200 icharg=0 $end
 $system mwords=50 $end
 $basis gbasis=pm3 $end
 $statpt nstep=200 $end
 $guess guess=huckel $end
 $data
VM2 Rank=8      G=34.366            E=-3.137            -TS=37.503              
C1
C    6.0       18.6220806578       18.9159232595       19.2918096837
H    1.0       18.8579243691       18.8308070850       18.2230829677
H    1.0       18.1682557170       17.9693780787       19.6132626951
H    1.0       17.8744454381       19.7111417316       19.4097668029
C    6.0       19.8949415462       19.2261070358       20.1076230167
H    1.0       20.3445899330       20.1592294244       19.7402394288
H    1.0       20.6358497153       18.4310244134       19.9439189356
C    6.0       19.5904659922       19.3519446127       21.6167680861
H    1.0       18.8511620000       20.1490728899       21.7754959948
H    1.0       19.1338174836       18.4176619201       21.9686118652
C    6.0       20.8668992151       19.6586978611       22.4362470900
H    1.0       21.3513514156       20.5538555106       22.0222780743
H    1.0       21.5875329239       18.8372753332       22.3211746492
C    6.0       20.5920559754       19.9013089866       23.9405539423
H    1.0       21.5303343785       20.2143600992       24.4193420699
H    1.0       19.8929472694       20.7413374258       24.0482218767
C    6.0       20.0435192018       18.6519414375       24.6760726218
H    1.0       20.7002951891       17.7977438885       24.4641934874
H    1.0       19.0505183624       18.3901888676       24.2893578092
C    6.0       19.9585413720       18.8473237837       26.2051195751
H    1.0       20.9522838205       19.1228271539       26.5714641005
C    6.0       19.5379602329       17.5368779340       26.8893043877
H    1.0       18.5423206888       17.2171671229       26.5570029264
H    1.0       20.2487377130       16.7327006234       26.6615967495
H    1.0       19.5117893890       17.6589394665       27.9791742166
N    7.0       19.0295358065       19.9658750891       26.5905015966
H    1.0       19.0020396375       20.0963488822       27.6058208356
H    1.0       18.0725600418       19.7799630670       26.2788875316
H    1.0       19.3225859585       20.8543028782       26.1751164819
 $end
