$$$$
! Edit this basic GAMESS input file as needed.
! Conformer was generated by a VeraChem VCPack run 
! and contains     26 atoms.
!
 $contrl scftyp=rhf runtyp=optimize nzvar=0
  maxit=200 icharg=0 $end
 $system mwords=50 $end
 $basis gbasis=pm3 $end
 $statpt nstep=200 $end
 $guess guess=huckel $end
 $data
VM2 Rank=1      G=75.466            E=43.303            -TS=32.163              
C1
N    7.0       19.9837473480       18.6238236219       26.4860900028
H    1.0       20.8629308313       18.0856019725       26.5333387133
H    1.0       19.2304950871       17.9185800555       26.4752221800
C    6.0       19.9443337770       19.4506906700       25.2166121401
H    1.0       20.7598678468       20.1767511071       25.2639661657
H    1.0       18.9976664251       19.9966678839       25.2013948690
C    6.0       20.0760500502       18.6065566124       23.9359323037
H    1.0       21.0206873782       18.0470921533       23.9630365580
H    1.0       19.2643899630       17.8676091870       23.9007358759
C    6.0       20.0306804182       19.4900390609       22.6695015920
H    1.0       20.8409033333       20.2314204618       22.7110446830
H    1.0       19.0866599695       20.0523887967       22.6490082515
C    6.0       20.1618226178       18.6528389517       21.3767219696
H    1.0       21.1057467594       18.0905836122       21.3969555681
H    1.0       19.3517076870       17.9115541819       21.3349774028
C    6.0       20.1163457243       19.5367320564       20.1102813226
H    1.0       20.9265803037       20.2785150310       20.1459829427
H    1.0       19.1726999147       20.0996220720       20.0840980606
C    6.0       20.2474305391       18.6973483082       18.8214276354
H    1.0       21.1981338797       18.1487103861       18.8023786396
H    1.0       20.2130465634       19.3421064219       17.9336584387
H    1.0       19.4305098886       17.9685085952       18.7399626251
C    6.0       19.8475895253       19.5319707184       27.7004330336
H    1.0       18.8960983998       20.0654233121       27.6451039378
H    1.0       19.8774502230       18.9240973729       28.6074873068
H    1.0       20.6730362648       20.2471922798       27.7084148624
 $end
