$$$$
! Edit this basic GAMESS input file as needed.
! Conformer was generated by a VeraChem VCPack run 
! and contains     22 atoms.
!
 $contrl scftyp=rhf runtyp=optimize nzvar=0
  maxit=200 icharg=0 $end
 $system mwords=50 $end
 $basis gbasis=pm3 $end
 $statpt nstep=200 $end
 $guess guess=huckel $end
 $data
VM2 Rank=1      G=47.363            E=20.694            -TS=26.669              
C1
C    6.0       19.8825186768       19.0489895495       20.9026203628
H    1.0       20.8932054472       19.1565925313       20.4858299286
H    1.0       19.2823605353       18.5759991879       20.1133895305
C    6.0       19.2916935247       20.4492726683       21.1835772567
H    1.0       19.3610548026       21.0411906054       20.2607451366
H    1.0       18.2185379681       20.3558803627       21.3989389625
C    6.0       19.9805990911       21.2344374622       22.3249372799
H    1.0       19.6223829418       22.2719656861       22.2799408905
H    1.0       21.0669568195       21.2803169914       22.1687940666
C    6.0       19.6466397496       20.6732369295       23.7282572613
H    1.0       19.7184973868       21.4904424646       24.4577413092
H    1.0       18.5973605083       20.3506322939       23.7486635058
C    6.0       20.5644088815       19.5313035340       24.2234465680
H    1.0       21.4771098112       19.9849527033       24.6358413584
C    6.0       21.0067827746       18.5018446282       23.1577922625
H    1.0       21.8883528321       18.8894527293       22.6311599888
H    1.0       21.3563943330       17.5991042412       23.6766424788
C    6.0       19.9264516972       18.1000561588       22.1234830421
H    1.0       20.1659948717       17.0930954064       21.7555067424
H    1.0       18.9370936759       18.0248567785       22.5939672424
O    8.0       19.8869056044       18.8388590695       25.2628859669
H    1.0       19.1422650391       18.3714160367       24.8326920161
 $end
