$$$$
! Edit this basic GAMESS input file as needed.
! Conformer was generated by a VeraChem VCPack run 
! and contains     26 atoms.
!
 $contrl scftyp=rhf runtyp=optimize nzvar=0
  maxit=200 icharg=0 $end
 $system mwords=50 $end
 $basis gbasis=pm3 $end
 $statpt nstep=200 $end
 $guess guess=huckel $end
 $data
VM2 Rank=1      G=75.466            E=43.303            -TS=32.163              
C1
N    7.0       19.9837473480       18.6238236219       26.4860900028
H    1.0       20.8629308313       18.0856019725       26.5333387133
H    1.0       19.2304950871       17.9185800555       26.4752221800
C    6.0       19.9443337770       19.4506906700       25.2166121401
H    1.0       20.7598678468       20.1767511071       25.2639661657
H    1.0       18.9976664251       19.9966678839       25.2013948690
C    6.0       20.0760500502       18.6065566124       23.9359323037
H    1.0       21.0206873782       18.0470921533       23.9630365580
H    1.0       19.2643899630       17.8676091870       23.9007358759
C    6.0       20.0306804182       19.4900390609       22.6695015920
H    1.0       20.8409033333       20.2314204618       22.7110446830
H    1.0       19.0866599695       20.0523887967       22.6490082515
C    6.0       20.1618226178       18.6528389517       21.3767219696
H    1.0       21.1057467594       18.0905836122       21.3969555681
H    1.0       19.3517076870       17.9115541819       21.3349774028
C    6.0       20.1163457243       19.5367320564       20.1102813226
H    1.0       20.9265803037       20.2785150310       20.1459829427
H    1.0       19.1726999147       20.0996220720       20.0840980606
C    6.0       20.2474305391       18.6973483082       18.8214276354
H    1.0       21.1981338797       18.1487103861       18.8023786396
H    1.0       20.2130465634       19.3421064219       17.9336584387
H    1.0       19.4305098886       17.9685085952       18.7399626251
C    6.0       19.8475895253       19.5319707184       27.7004330336
H    1.0       18.8960983998       20.0654233121       27.6451039378
H    1.0       19.8774502230       18.9240973729       28.6074873068
H    1.0       20.6730362648       20.2471922798       27.7084148624
 $end
$$$$
! Edit this basic GAMESS input file as needed.
! Conformer was generated by a VeraChem VCPack run 
! and contains     26 atoms.
!
 $contrl scftyp=rhf runtyp=optimize nzvar=0
  maxit=200 icharg=0 $end
 $system mwords=50 $end
 $basis gbasis=pm3 $end
 $statpt nstep=200 $end
 $guess guess=huckel $end
 $data
VM2 Rank=2      G=75.757            E=43.423            -TS=32.334              
C1
N    7.0       20.3922788362       19.0035263078       26.6222552246
H    1.0       20.8628837917       19.5627258147       27.3515185401
H    1.0       20.8761661442       18.0923474834       26.6321898303
C    6.0       20.5689295497       19.6776019135       25.2718395255
H    1.0       21.6303097484       19.9154652244       25.1643014584
H    1.0       20.0110511301       20.6172140660       25.2890835620
C    6.0       20.1224030718       18.8244832406       24.0670803076
H    1.0       20.6514948966       17.8624943515       24.0861139091
H    1.0       19.0499843922       18.6039202055       24.1454578649
C    6.0       20.4033757510       19.5462173095       22.7304686391
H    1.0       21.4768162952       19.7686996495       22.6529351167
H    1.0       19.8774502049       20.5111278595       22.7181187203
C    6.0       19.9614870937       18.7009341106       21.5140698183
H    1.0       20.4871488283       17.7360247439       21.5264573448
H    1.0       18.8881132138       18.4785979797       21.5912783844
C    6.0       20.2426084250       19.4230755953       20.1774079756
H    1.0       21.3157198478       19.6455650878       20.0941837986
H    1.0       19.7168476625       20.3880806217       20.1590684660
C    6.0       19.8000681664       18.5760786400       18.9651205076
H    1.0       20.0076622906       19.1051807368       18.0259808648
H    1.0       18.7231922326       18.3659124668       19.0021412587
H    1.0       20.3345975795       17.6176032353       18.9367415674
C    6.0       18.9168491063       18.8380828826       26.9687580016
H    1.0       18.4413732736       18.1919913742       26.2281239685
H    1.0       18.8312038356       18.3855997065       27.9592220616
H    1.0       18.4361779887       19.8187978240       26.9687586703
 $end
$$$$
! Edit this basic GAMESS input file as needed.
! Conformer was generated by a VeraChem VCPack run 
! and contains     26 atoms.
!
 $contrl scftyp=rhf runtyp=optimize nzvar=0
  maxit=200 icharg=0 $end
 $system mwords=50 $end
 $basis gbasis=pm3 $end
 $statpt nstep=200 $end
 $guess guess=huckel $end
 $data
VM2 Rank=3      G=75.762            E=43.429            -TS=32.333              
C1
N    7.0       19.4983225261       18.9125059440       26.5905897279
H    1.0       19.2083349528       17.9225071435       26.5731546041
H    1.0       18.8748831771       19.3603070603       27.2810941000
C    6.0       19.2845401073       19.5467720027       25.2263276674
H    1.0       19.6392068885       20.5793219609       25.2758422166
H    1.0       18.2071889943       19.5668171296       25.0430641574
C    6.0       19.9768957561       18.8095980748       24.0619147956
H    1.0       21.0635839305       18.8088354691       24.2167749465
H    1.0       19.6522428870       17.7606938251       24.0506898827
C    6.0       19.6507238637       19.4695403313       22.7038064132
H    1.0       19.9711771914       20.5206352199       22.7214709578
H    1.0       18.5625971947       19.4719173010       22.5496676693
C    6.0       20.3378611594       18.7392572544       21.5274093359
H    1.0       21.4259212512       18.7371047841       21.6811817177
H    1.0       20.0177451867       17.6881909085       21.5098448213
C    6.0       20.0113699206       19.3994881883       20.1692234725
H    1.0       20.3318278248       20.4507565605       20.1809034595
H    1.0       18.9239661646       19.4017359633       20.0094004861
C    6.0       20.6993975114       18.6677557457       18.9970179965
H    1.0       21.7912366561       18.6787670321       19.1108952162
H    1.0       20.4557054943       19.1508084103       18.0418734058
H    1.0       20.3724191883       17.6214185828       18.9381463596
C    6.0       20.9488891554       19.0450824589       27.0407105909
H    1.0       21.2210369713       20.1024707874       27.0673639648
H    1.0       21.0543283681       18.6120776670       28.0379484628
H    1.0       21.5953895224       18.5132498779       26.3398227028
 $end
$$$$
! Edit this basic GAMESS input file as needed.
! Conformer was generated by a VeraChem VCPack run 
! and contains     26 atoms.
!
 $contrl scftyp=rhf runtyp=optimize nzvar=0
  maxit=200 icharg=0 $end
 $system mwords=50 $end
 $basis gbasis=pm3 $end
 $statpt nstep=200 $end
 $guess guess=huckel $end
 $data
VM2 Rank=4      G=75.941            E=43.686            -TS=32.255              
C1
N    7.0       20.5559031905       19.2936699264       25.9474159848
H    1.0       20.9607234406       20.0234700777       25.3418792675
H    1.0       21.2649755364       18.5452867841       25.9905182203
C    6.0       19.2732283556       18.7625118153       25.3370372873
H    1.0       18.5524876628       19.5832064641       25.2990543242
H    1.0       18.8814339525       17.9952859972       26.0097094464
C    6.0       19.4518504417       18.1634211729       23.9280382568
H    1.0       20.1816815875       17.3438262630       23.9677785699
H    1.0       18.4975266322       17.7176306339       23.6174267139
C    6.0       19.8904854511       19.2154261813       22.8816235458
H    1.0       20.8629010402       19.6407995217       23.1634534728
H    1.0       19.1699009287       20.0451771612       22.8729553364
C    6.0       19.9934401574       18.6072540331       21.4643198339
H    1.0       20.7114432862       17.7754229741       21.4726164994
H    1.0       19.0215743786       18.1846690112       21.1737692312
C    6.0       20.4320943258       19.6554742232       20.4173757850
H    1.0       21.4055548686       20.0793134571       20.7014656649
H    1.0       19.7156905755       20.4888878038       20.4037796309
C    6.0       20.5331931844       19.0444852707       19.0033948605
H    1.0       21.2682752158       18.2295277864       18.9769285059
H    1.0       20.8457068486       19.8034741963       18.2744944332
H    1.0       19.5652738941       18.6424571670       18.6767319838
C    6.0       20.2778048935       19.8477573771       27.3377944458
H    1.0       21.2087641677       20.2268530488       27.7652596106
H    1.0       19.5495208348       20.6582242654       27.2623676926
H    1.0       19.8799497419       19.0502312348       27.9691436296
 $end
$$$$
! Edit this basic GAMESS input file as needed.
! Conformer was generated by a VeraChem VCPack run 
! and contains     26 atoms.
!
 $contrl scftyp=rhf runtyp=optimize nzvar=0
  maxit=200 icharg=0 $end
 $system mwords=50 $end
 $basis gbasis=pm3 $end
 $statpt nstep=200 $end
 $guess guess=huckel $end
 $data
VM2 Rank=5      G=75.942            E=43.687            -TS=32.255              
C1
N    7.0       19.3272356298       19.1676904204       25.9039523123
H    1.0       18.7833643294       18.2908103444       25.9026502303
H    1.0       18.8262433577       19.8046365297       25.2664013823
C    6.0       20.7304494145       18.9120255800       25.3886191484
H    1.0       21.2216354877       18.2353898773       26.0925561626
H    1.0       21.2706661574       19.8620630847       25.3952394480
C    6.0       20.7760243150       18.2992507313       23.9749259339
H    1.0       21.8202530955       18.0584287844       23.7350648193
H    1.0       20.2265600040       17.3484472478       23.9694122724
C    6.0       20.2075341287       19.2479331907       22.8928335863
H    1.0       20.7437129460       20.2065950905       22.9286510756
H    1.0       19.1517778633       19.4652722105       23.1028464772
C    6.0       20.3294947087       18.6416990848       21.4762061734
H    1.0       21.3847530088       18.4269900580       21.2574595992
H    1.0       19.7962400609       17.6815525503       21.4401811610
C    6.0       19.7618795871       19.5867229951       20.3936083412
H    1.0       20.2935782095       20.5481564831       20.4242676812
H    1.0       18.7052390680       19.8023292594       20.6057357710
C    6.0       19.8861113509       18.9781203510       18.9804423761
H    1.0       20.9359026798       18.7830437463       18.7253215740
H    1.0       19.4780801973       19.6632097129       18.2259968722
H    1.0       19.3352292248       18.0312644455       18.9083753406
C    6.0       19.3892708653       19.7565576468       27.3064121285
H    1.0       19.9416499199       20.6983226328       27.2763928125
H    1.0       18.3732181413       19.9360178245       27.6649589702
H    1.0       19.8953168611       19.0516540897       27.9697121943
 $end
$$$$
! Edit this basic GAMESS input file as needed.
! Conformer was generated by a VeraChem VCPack run 
! and contains     26 atoms.
!
 $contrl scftyp=rhf runtyp=optimize nzvar=0
  maxit=200 icharg=0 $end
 $system mwords=50 $end
 $basis gbasis=pm3 $end
 $statpt nstep=200 $end
 $guess guess=huckel $end
 $data
VM2 Rank=6      G=76.026            E=43.766            -TS=32.260              
C1
N    7.0       19.9281407683       18.8063458588       26.2895486815
H    1.0       20.7993605650       19.0417983594       26.7899275232
H    1.0       19.8671019053       17.7765581991       26.3144898626
C    6.0       20.0011326553       19.2913979653       24.8557315013
H    1.0       20.0753384448       20.3816231083       24.8738522917
H    1.0       19.0647520823       19.0175586012       24.3639425864
C    6.0       21.1920916518       18.7039247744       24.0742062076
H    1.0       22.1234579340       18.9486492986       24.6020267679
H    1.0       21.1186054185       17.6083442429       24.0576374069
C    6.0       21.2798678734       19.2409719386       22.6260644735
H    1.0       22.1973003154       18.8533845871       22.1617589286
H    1.0       21.3809672284       20.3350637567       22.6466041875
C    6.0       20.0626304269       18.8451141969       21.7557079574
H    1.0       19.9445000771       17.7526822245       21.7645491406
H    1.0       19.1428789385       19.2680389195       22.1814694005
C    6.0       20.2162637568       19.3333130580       20.2978910279
H    1.0       21.1299030033       18.9090738896       19.8582645732
H    1.0       20.3355494750       20.4258129157       20.2830738631
C    6.0       19.0011322442       18.9392826405       19.4312093500
H    1.0       18.8758996513       17.8491079018       19.3989991354
H    1.0       19.1289511091       19.2939925386       18.4002535420
H    1.0       18.0754684952       19.3781746732       19.8258165847
C    6.0       18.7267406233       19.4296495675       26.9866408008
H    1.0       17.8151878129       19.1396023021       26.4594796243
H    1.0       18.6859214175       19.0723156611       28.0180430853
H    1.0       18.8300314922       20.5169382410       26.9768355021
 $end
$$$$
! Edit this basic GAMESS input file as needed.
! Conformer was generated by a VeraChem VCPack run 
! and contains     26 atoms.
!
 $contrl scftyp=rhf runtyp=optimize nzvar=0
  maxit=200 icharg=0 $end
 $system mwords=50 $end
 $basis gbasis=pm3 $end
 $statpt nstep=200 $end
 $guess guess=huckel $end
 $data
VM2 Rank=7      G=76.057            E=43.796            -TS=32.260              
C1
N    7.0       20.0150596430       18.8152972855       26.2926824805
H    1.0       20.2814839154       17.8190606238       26.3293154486
H    1.0       19.0813216529       18.8658676815       26.7290502875
C    6.0       19.9460384293       19.2856878660       24.8537929358
H    1.0       20.9505914871       19.2106718129       24.4308267217
H    1.0       19.6514876166       20.3381330174       24.8587629910
C    6.0       18.9564994578       18.4747697314       23.9950086105
H    1.0       19.2513924962       17.4169426975       23.9914353099
H    1.0       17.9602485275       18.5219172106       24.4545615972
C    6.0       18.8633465201       18.9933694300       22.5404952393
H    1.0       18.5416774714       20.0441674550       22.5461440662
H    1.0       18.0781445490       18.4314589314       22.0158993520
C    6.0       20.1933592261       18.8584166525       21.7602737720
H    1.0       20.9763886649       19.4556124713       22.2463848312
H    1.0       20.5292323059       17.8124639035       21.7850399554
C    6.0       20.0464706157       19.3160515087       20.2918851817
H    1.0       19.7099150720       20.3618941816       20.2610815621
H    1.0       19.2706141566       18.7189401408       19.7923941076
C    6.0       21.3737787977       19.1823775173       19.5151433517
H    1.0       21.7189333588       18.1403495059       19.4993962631
H    1.0       22.1615790584       19.7965640560       19.9704882706
H    1.0       21.2492690368       19.5114424654       18.4753160822
C    6.0       21.0134473103       19.6640300086       27.0677184285
H    1.0       21.9995122461       19.5683707126       26.6078493878
H    1.0       20.6930383000       20.7079078819       27.0428227392
H    1.0       21.0533944006       19.3150364373       28.1020068276
 $end
$$$$
! Edit this basic GAMESS input file as needed.
! Conformer was generated by a VeraChem VCPack run 
! and contains     26 atoms.
!
 $contrl scftyp=rhf runtyp=optimize nzvar=0
  maxit=200 icharg=0 $end
 $system mwords=50 $end
 $basis gbasis=pm3 $end
 $statpt nstep=200 $end
 $guess guess=huckel $end
 $data
VM2 Rank=8      G=76.060            E=43.581            -TS=32.479              
C1
N    7.0       19.5898195241       19.7658581833       26.0203330796
H    1.0       18.9698828575       19.9958381150       26.8132255514
H    1.0       19.4484217600       20.5277565258       25.3404462121
C    6.0       19.1668791214       18.4374401405       25.4125137054
H    1.0       18.0906928303       18.4906048898       25.2291595754
H    1.0       19.3418678159       17.6608426578       26.1613657619
C    6.0       19.8813948503       18.0563993082       24.0973357773
H    1.0       20.9579564648       17.9415834519       24.2781759741
H    1.0       19.5152926570       17.0713111736       23.7791049941
C    6.0       19.6408678041       19.0827826599       22.9649335901
H    1.0       20.0423800182       20.0618941115       23.2586214711
H    1.0       18.5604661092       19.2128649230       22.8117716611
C    6.0       20.3006647699       18.6403401825       21.6390444161
H    1.0       21.3805261413       18.5069095507       21.7927235471
H    1.0       19.8998811498       17.6628218363       21.3368516450
C    6.0       20.0645455432       19.6653012341       20.5072748951
H    1.0       20.4664109614       20.6445113104       20.8032881482
H    1.0       18.9854857929       19.8007711284       20.3483214624
C    6.0       20.7246847619       19.2199085505       19.1848884827
H    1.0       20.3179612730       18.2586789366       18.8445728892
H    1.0       21.8104444896       19.1089418498       19.3032553897
H    1.0       20.5461868087       19.9598927949       18.3939497541
C    6.0       21.0391436251       19.7219697411       26.4906760537
H    1.0       21.1549223876       18.9185405245       27.2213505614
H    1.0       21.6913997389       19.5411555656       25.6339125433
H    1.0       21.2945492881       20.6789259178       26.9511622803
 $end
