$$$$
! Edit this basic GAMESS input file as needed.
! Conformer was generated by a VeraChem VCPack run 
! and contains     26 atoms.
!
 $contrl scftyp=rhf runtyp=optimize nzvar=0
  maxit=200 icharg=0 $end
 $system mwords=50 $end
 $basis gbasis=pm3 $end
 $statpt nstep=200 $end
 $guess guess=huckel $end
 $data
VM2 Rank=1      G=23.710            E=-8.843            -TS=32.553              
C1
C    6.0       20.2414271829       18.6563379591       18.8059620115
H    1.0       19.6045619617       19.4972138643       18.5017020424
H    1.0       21.0557207692       18.5686914891       18.0750096170
H    1.0       19.6424169707       17.7377423297       18.7548719927
C    6.0       20.8050685970       18.8728304209       20.2263728997
H    1.0       21.4264279752       19.7793180907       20.2376838824
H    1.0       21.4641786736       18.0333790146       20.4886977207
C    6.0       19.6784665146       18.9994678713       21.2756932309
H    1.0       19.0207560209       19.8376282120       21.0066821172
H    1.0       19.0592416867       18.0918364404       21.2594309719
C    6.0       20.2389147870       19.2173130874       22.6994269486
H    1.0       20.8549410978       20.1272502670       22.7150327421
H    1.0       20.8999642213       18.3793092887       22.9575609319
C    6.0       19.1075874133       19.3422484031       23.7488090252
H    1.0       18.4279217836       20.1490029400       23.4433384167
H    1.0       18.5118877718       18.4198094910       23.7645922558
C    6.0       19.6331333513       19.6455877025       25.1687635818
H    1.0       20.2418535926       20.5538902076       25.1222210176
C    6.0       18.4605301929       19.8995986157       26.1295936277
H    1.0       17.8446259762       20.7376662708       25.7802571156
H    1.0       18.8275533560       20.1520800332       27.1320522747
H    1.0       17.8172727592       19.0147043926       26.2138257588
N    7.0       20.5228719610       18.5546159400       25.6993786747
H    1.0       20.8768970980       18.7814836245       26.6329856700
H    1.0       20.0217100218       17.6651249902       25.7696930388
H    1.0       21.3337115672       18.4049480168       25.0931368601
 $end
