$$$$
! Edit this basic GAMESS input file as needed.
! Conformer was generated by a VeraChem VCPack run 
! and contains     20 atoms.
!
 $contrl scftyp=rhf runtyp=optimize nzvar=0
  maxit=200 icharg=0 $end
 $system mwords=50 $end
 $basis gbasis=pm3 $end
 $statpt nstep=200 $end
 $guess guess=huckel $end
 $data
VM2 Rank=1      G=2.706             E=-20.181           -TS=22.887              
C1
N    7.0       20.3911859260       20.1731403674       24.1279424365
H    1.0       20.0069863684       20.9379731559       23.5675801162
H    1.0       21.3895336388       20.1069569463       23.9147132502
H    1.0       20.3064930575       20.4446406182       25.1111871860
C    6.0       19.6810920796       18.8752292298       23.8517929527
H    1.0       18.6271242180       19.0338560672       24.1005419791
C    6.0       20.2261358074       17.7582354187       24.7569018873
H    1.0       19.6672798107       16.8262706608       24.6060365786
H    1.0       20.1318989240       18.0343127849       25.8143356589
H    1.0       21.2848094853       17.5590627887       24.5487339119
C    6.0       19.7688314092       18.4547068588       22.3680118207
H    1.0       20.8203969252       18.3117650162       22.0857137925
H    1.0       19.2771457676       17.4802696949       22.2464128772
C    6.0       19.1035956590       19.4719564517       21.4097939791
H    1.0       19.6147216689       20.4422034880       21.4714246045
H    1.0       18.0612758082       19.6412457183       21.7150021037
C    6.0       19.1341591189       18.9807316735       19.9465569237
H    1.0       18.5959165728       18.0302017382       19.8369306897
H    1.0       20.1656168785       18.8311319014       19.6016343897
H    1.0       18.6600054766       19.7140861174       19.2813849962
 $end
