$$$$
! Edit this basic GAMESS input file as needed.
! Conformer was generated by a VeraChem VCPack run 
! and contains     20 atoms.
!
 $contrl scftyp=rhf runtyp=optimize nzvar=0
  maxit=200 icharg=0 $end
 $system mwords=50 $end
 $basis gbasis=pm3 $end
 $statpt nstep=200 $end
 $guess guess=huckel $end
 $data
VM2 Rank=1      G=-21.890           E=-37.139           -TS=15.249              
C1
C    6.0       20.4456249097       18.0660842050       18.7398882409
H    1.0       20.5838096267       17.2884342080       19.4880271686
H    1.0       20.6599045442       17.7974520243       17.7068768157
C    6.0       20.0331001874       19.2995081480       19.0535796373
H    1.0       19.9132161658       20.0361378446       18.2594563758
C    6.0       19.6971972089       19.8196533901       20.4412506031
H    1.0       18.6642666165       20.1927156416       20.4377203686
H    1.0       20.3270744160       20.6942192788       20.6522586784
C    6.0       19.8604644621       18.7896854024       21.5833943513
H    1.0       19.2167472472       17.9208543629       21.3888499946
H    1.0       20.8975849921       18.4277888391       21.6057236032
C    6.0       19.5002071122       19.3965361449       22.9570625904
H    1.0       18.4634923658       19.7606495870       22.9412275009
H    1.0       20.1408998787       20.2665263682       23.1576506351
C    6.0       19.6628844636       18.3671109283       24.1024451395
H    1.0       19.0191379940       17.4973643082       23.9243056032
H    1.0       20.6966335390       18.0030908725       24.1405863673
C    6.0       19.3129727174       18.9429781335       25.4698970851
O    8.0       20.1972365119       19.4749810026       26.1115346883
O    8.0       18.1613124269       18.8614626452       25.8489476640
 $end
