$$$$
! Edit this basic GAMESS input file as needed.
! Conformer was generated by a VeraChem VCPack run 
! and contains     26 atoms.
!
 $contrl scftyp=rhf runtyp=optimize nzvar=0
  maxit=200 icharg=0 $end
 $system mwords=50 $end
 $basis gbasis=pm3 $end
 $statpt nstep=200 $end
 $guess guess=huckel $end
 $data
VM2 Rank=1      G=48.261            E=15.909            -TS=32.352              
C1
C    6.0       19.9052420576       19.3106543774       18.8162318403
H    1.0       20.2945394039       20.3369141828       18.7942564233
H    1.0       20.2786888902       18.7894590458       17.9251977069
H    1.0       18.8107838950       19.3584959947       18.7447011602
C    6.0       20.3457234401       18.5775995448       20.1010414976
H    1.0       21.4427189633       18.5157423358       20.1275437707
H    1.0       19.9704312751       17.5448508669       20.0783555286
C    6.0       19.8326675654       19.2912455397       21.3713904494
H    1.0       20.2083395884       20.3237315782       21.3883447436
H    1.0       18.7360161267       19.3526283447       21.3392440089
C    6.0       20.2719018430       18.5601574857       22.6601694521
H    1.0       21.3686241819       18.4989311121       22.6913083380
H    1.0       19.8961935415       17.5276669430       22.6421645690
C    6.0       19.7582874866       19.2745040098       23.9307797218
H    1.0       20.1339547717       20.3071341205       23.9492281085
H    1.0       18.6614430202       19.3359449087       23.9000079581
C    6.0       20.1968081810       18.5443018077       25.2192687556
H    1.0       21.2928323849       18.4854849884       25.2564167655
H    1.0       19.8187531846       17.5132652526       25.2071230883
C    6.0       19.6802385839       19.2637137151       26.4777028914
H    1.0       20.0676220309       20.2858648982       26.5026029008
H    1.0       18.5881247145       19.3101805812       26.4530588851
N    7.0       20.0901308425       18.5768235197       27.7644153917
H    1.0       19.7359452080       19.0719964838       28.5901411342
H    1.0       21.1094563375       18.5250166835       27.8621583725
H    1.0       19.7327987503       17.6171843555       27.8160694752
 $end
$$$$
! Edit this basic GAMESS input file as needed.
! Conformer was generated by a VeraChem VCPack run 
! and contains     26 atoms.
!
 $contrl scftyp=rhf runtyp=optimize nzvar=0
  maxit=200 icharg=0 $end
 $system mwords=50 $end
 $basis gbasis=pm3 $end
 $statpt nstep=200 $end
 $guess guess=huckel $end
 $data
VM2 Rank=2      G=48.509            E=16.054            -TS=32.455              
C1
C    6.0       20.1408036704       19.6498920139       19.0008440369
H    1.0       19.1347359084       20.0853363938       18.9420319598
H    1.0       20.8620850980       20.4696395913       19.1148962728
H    1.0       20.3477000423       19.1494308438       18.0459714160
C    6.0       20.2455606034       18.6516022472       20.1732662722
H    1.0       21.2510114495       18.2079322590       20.1855464268
H    1.0       19.5369812525       17.8266845507       20.0140402967
C    6.0       19.9586346883       19.3310140730       21.5306030390
H    1.0       20.6678350868       20.1561761552       21.6841061278
H    1.0       18.9536249856       19.7749435647       21.5126617172
C    6.0       20.0624807591       18.3343305576       22.7071507753
H    1.0       21.0677701082       17.8909295098       22.7245410964
H    1.0       19.3536378348       17.5091421958       22.5519326532
C    6.0       19.7748026815       19.0142351493       24.0648724102
H    1.0       20.4826415914       19.8408145479       24.2124211956
H    1.0       18.7683022836       19.4550980347       24.0483761332
C    6.0       19.8800795360       18.0150757979       25.2412752461
H    1.0       20.8922480962       17.5914034719       25.2861044083
H    1.0       19.1958737944       17.1740749098       25.0664599615
C    6.0       19.5295085807       18.6544345147       26.5987332440
H    1.0       18.5244210940       19.0826092593       26.5553798435
H    1.0       19.5389668790       17.8847573148       27.3753119560
N    7.0       20.4891294806       19.7484156464       27.0242549763
H    1.0       20.2355040748       20.1436980822       27.9362702575
H    1.0       20.5021272361       20.5238216617       26.3545440910
H    1.0       21.4503976275       19.4013946427       27.1053537596
 $end
$$$$
! Edit this basic GAMESS input file as needed.
! Conformer was generated by a VeraChem VCPack run 
! and contains     26 atoms.
!
 $contrl scftyp=rhf runtyp=optimize nzvar=0
  maxit=200 icharg=0 $end
 $system mwords=50 $end
 $basis gbasis=pm3 $end
 $statpt nstep=200 $end
 $guess guess=huckel $end
 $data
VM2 Rank=3      G=48.525            E=16.069            -TS=32.456              
C1
C    6.0       19.4925713907       19.2221981443       18.9791420136
H    1.0       18.4512048852       18.8790434865       19.0342825604
H    1.0       19.4900658559       20.3197393132       18.9538497699
H    1.0       19.9155638225       18.8642820404       18.0315009579
C    6.0       20.3139432394       18.6967234010       20.1755343100
H    1.0       21.3571904735       19.0275167251       20.0748431335
H    1.0       20.3263725392       17.5979348728       20.1546651626
C    6.0       19.7392590111       19.1863520544       21.5232367461
H    1.0       19.7267975823       20.2850117190       21.5384626787
H    1.0       18.6957732444       18.8553636778       21.6181273148
C    6.0       20.5592232004       18.6620746686       22.7237447433
H    1.0       21.6026714348       18.9927792570       22.6271167249
H    1.0       20.5711200482       17.5633841088       22.7079204909
C    6.0       19.9844015796       19.1525424968       24.0718791003
H    1.0       19.9752643539       20.2513179803       24.0887439847
H    1.0       18.9404330915       18.8235306981       24.1608842987
C    6.0       20.8061525368       18.6259533657       25.2721967246
H    1.0       21.8553728129       18.9283458820       25.1552611326
H    1.0       20.7958967271       17.5278754921       25.2828538253
C    6.0       20.2933999858       19.1582708386       26.6242673098
H    1.0       20.9605947781       18.8224001464       27.4227720632
H    1.0       20.2966704263       20.2515735953       26.6146240358
N    7.0       18.8920490563       18.6948850307       26.9709990523
H    1.0       18.5861825910       19.0555799790       27.8813227086
H    1.0       18.8296786356       17.6726543420       27.0178305376
H    1.0       18.2057886551       19.0091485850       26.2780180876
 $end
$$$$
! Edit this basic GAMESS input file as needed.
! Conformer was generated by a VeraChem VCPack run 
! and contains     26 atoms.
!
 $contrl scftyp=rhf runtyp=optimize nzvar=0
  maxit=200 icharg=0 $end
 $system mwords=50 $end
 $basis gbasis=pm3 $end
 $statpt nstep=200 $end
 $guess guess=huckel $end
 $data
VM2 Rank=4      G=48.730            E=16.279            -TS=32.451              
C1
C    6.0       19.7686559105       18.8534018094       18.9896792958
H    1.0       20.5472433619       19.5752264474       18.7103661679
H    1.0       19.7778713477       18.0440392086       18.2481310075
H    1.0       18.7957570166       19.3579982786       18.9257133348
C    6.0       20.0122049695       18.2957989906       20.4080837486
H    1.0       20.9760671750       17.7682262151       20.4318355149
H    1.0       19.2380799481       17.5526164899       20.6454192343
C    6.0       20.0041739206       19.4156222381       21.4721792533
H    1.0       20.7776458296       20.1571836681       21.2287502894
H    1.0       19.0396707568       19.9413166251       21.4433581137
C    6.0       20.2480811756       18.8612738199       22.8940032515
H    1.0       21.2139784465       18.3381394478       22.9220781557
H    1.0       19.4754512308       18.1166726326       23.1278389784
C    6.0       20.2382159931       19.9852398518       23.9577812548
H    1.0       20.9814576391       20.7472412760       23.6850556243
H    1.0       19.2616722599       20.4892176680       23.9558477534
C    6.0       20.5521069837       19.4746105677       25.3837260320
H    1.0       20.6146481747       20.3342084759       26.0642622018
H    1.0       21.5388731300       18.9927567811       25.3943294433
C    6.0       19.4900545163       18.4916454450       25.9111569207
H    1.0       18.5077280130       18.9715822856       25.9018084070
H    1.0       19.4489381041       17.6098629448       25.2666088124
N    7.0       19.7675065309       18.0214072775       27.3243902433
H    1.0       19.0494557209       17.3684041336       27.6566391508
H    1.0       19.7913856998       18.8017609790       27.9889950777
H    1.0       20.6680222571       17.5364759058       27.3959502576
 $end
$$$$
! Edit this basic GAMESS input file as needed.
! Conformer was generated by a VeraChem VCPack run 
! and contains     26 atoms.
!
 $contrl scftyp=rhf runtyp=optimize nzvar=0
  maxit=200 icharg=0 $end
 $system mwords=50 $end
 $basis gbasis=pm3 $end
 $statpt nstep=200 $end
 $guess guess=huckel $end
 $data
VM2 Rank=5      G=48.735            E=16.284            -TS=32.451              
C1
C    6.0       20.3709547724       19.2509517204       19.0098631955
H    1.0       21.1451486593       18.9460668707       18.2938224202
H    1.0       19.4150702994       18.8294312761       18.6724455647
H    1.0       20.2929292963       20.3454898360       18.9760838323
C    6.0       20.7212319771       18.7633636809       20.4317192424
H    1.0       21.6969345644       19.1736619687       20.7276559809
H    1.0       20.8257815740       17.6693026183       20.4264766910
C    6.0       19.6464502729       19.1796969086       21.4602525620
H    1.0       19.5440355437       20.2737543833       21.4604344697
H    1.0       18.6727947589       18.7694569424       21.1583774323
C    6.0       19.9935332535       18.6931235994       22.8854400568
H    1.0       20.9700773811       19.1017289651       23.1777915219
H    1.0       20.0931289493       17.5988215268       22.8843863560
C    6.0       18.9156500183       19.1127611430       23.9135908803
H    1.0       18.8363601244       20.2084649764       23.9415785773
H    1.0       17.9365475019       18.7388975036       23.5834107895
C    6.0       19.1951378617       18.5794734276       25.3383978743
H    1.0       19.2499241003       17.4828503035       25.3179057606
H    1.0       18.3493342632       18.8399213874       25.9885768829
C    6.0       20.4903970301       19.1515162402       25.9445617347
H    1.0       21.3465037408       18.8615011493       25.3300348973
H    1.0       20.4355849913       20.2432698659       25.9660949299
N    7.0       20.7476448140       18.6681132798       27.3571744539
H    1.0       19.9905223256       18.9333502662       27.9956381933
H    1.0       21.6138463876       19.0602082740       27.7423461240
H    1.0       20.8362966851       17.6476392096       27.4017068367
 $end
$$$$
! Edit this basic GAMESS input file as needed.
! Conformer was generated by a VeraChem VCPack run 
! and contains     26 atoms.
!
 $contrl scftyp=rhf runtyp=optimize nzvar=0
  maxit=200 icharg=0 $end
 $system mwords=50 $end
 $basis gbasis=pm3 $end
 $statpt nstep=200 $end
 $guess guess=huckel $end
 $data
VM2 Rank=6      G=48.853            E=16.390            -TS=32.463              
C1
C    6.0       19.4448950023       18.1621097274       19.5242816935
H    1.0       19.4107296319       17.2841637425       20.1811550495
H    1.0       18.4489181862       18.6235718795       19.5138431582
H    1.0       19.6603150832       17.8056971503       18.5086529726
C    6.0       20.5209169535       19.1726650970       19.9822479827
H    1.0       20.6011628714       19.9695508055       19.2296958111
H    1.0       21.5023271916       18.6790603954       20.0129973638
C    6.0       20.2154157085       19.8164210826       21.3562772478
H    1.0       20.9650805312       20.5959749870       21.5502591454
H    1.0       19.2430763767       20.3263764987       21.3142476603
C    6.0       20.2241195434       18.8044545127       22.5270934448
H    1.0       21.1783646416       18.2598374058       22.5339102374
H    1.0       19.4316369485       18.0585412321       22.3821295893
C    6.0       20.0184796786       19.5029878145       23.8903609084
H    1.0       20.8117593159       20.2474823258       24.0458570607
H    1.0       19.0657254572       20.0506900729       23.8823153688
C    6.0       20.0229378569       18.4949773937       25.0606823136
H    1.0       20.9756337514       17.9488340750       25.0748236081
H    1.0       19.2276239725       17.7522901387       24.9123846581
C    6.0       19.8178660815       19.2009600669       26.4125553706
H    1.0       20.6168423430       19.9301215133       26.5720426393
H    1.0       18.8624885441       19.7326714662       26.4090409083
N    7.0       19.8163691753       18.2444243053       27.5875010386
H    1.0       19.6785020660       18.7349829016       28.4778978315
H    1.0       20.7006400817       17.7310745068       27.6636013829
H    1.0       19.0682234479       17.5474085527       27.5120218361
 $end
$$$$
! Edit this basic GAMESS input file as needed.
! Conformer was generated by a VeraChem VCPack run 
! and contains     26 atoms.
!
 $contrl scftyp=rhf runtyp=optimize nzvar=0
  maxit=200 icharg=0 $end
 $system mwords=50 $end
 $basis gbasis=pm3 $end
 $statpt nstep=200 $end
 $guess guess=huckel $end
 $data
VM2 Rank=7      G=48.890            E=16.427            -TS=32.463              
C1
C    6.0       21.1080425445       19.2587697828       19.5797829296
H    1.0       21.3980102263       18.9514189422       18.5666721346
H    1.0       21.0759309708       20.3558223536       19.6014289181
H    1.0       21.8972524746       18.9238343191       20.2641850459
C    6.0       19.7359300164       18.6550156191       19.9560370578
H    1.0       19.8023289404       17.5580439189       19.9562711562
H    1.0       19.0075131023       18.9186354647       19.1764771979
C    6.0       19.2007804042       19.1473804523       21.3223844044
H    1.0       19.1163292431       20.2428160779       21.3099792356
H    1.0       18.1813018207       18.7603494300       21.4572930926
C    6.0       20.0723261550       18.7044067031       22.5220273410
H    1.0       21.0754267196       19.1425848611       22.4370587930
H    1.0       20.1974152880       17.6130068284       22.5011364575
C    6.0       19.4480745836       19.1268781209       23.8713111107
H    1.0       19.3195988307       20.2181610141       23.8908166783
H    1.0       18.4454831050       18.6870647329       23.9667986097
C    6.0       20.3176836398       18.6893853544       25.0705333899
H    1.0       21.3190631059       19.1316022469       24.9823034385
H    1.0       20.4445111903       17.5985899251       25.0570286847
C    6.0       19.6868564938       19.1145277119       26.4081946716
H    1.0       19.5738449628       20.2017699740       26.4328875322
H    1.0       18.6959405118       18.6632690928       26.5078327820
N    7.0       20.5113061627       18.7026362555       27.6107290950
H    1.0       20.0734309369       18.9953026816       28.4911115781
H    1.0       21.4488271549       19.1172941045       27.5916143500
H    1.0       20.6319933856       17.6857121552       27.6612591933
 $end
$$$$
! Edit this basic GAMESS input file as needed.
! Conformer was generated by a VeraChem VCPack run 
! and contains     26 atoms.
!
 $contrl scftyp=rhf runtyp=optimize nzvar=0
  maxit=200 icharg=0 $end
 $system mwords=50 $end
 $basis gbasis=pm3 $end
 $statpt nstep=200 $end
 $guess guess=huckel $end
 $data
VM2 Rank=8      G=48.924            E=16.474            -TS=32.451              
C1
C    6.0       20.1860152255       19.7828653724       19.1892671654
H    1.0       20.2155981844       18.9015393719       18.5353421174
H    1.0       19.1861974987       20.2302250213       19.1152614303
H    1.0       20.9108440941       20.5119866942       18.8045019311
C    6.0       20.5169222724       19.4033612960       20.6482956966
H    1.0       20.5179054976       20.3142983030       21.2613543108
H    1.0       21.5326453363       18.9863882818       20.6946297091
C    6.0       19.5051901833       18.3789509834       21.2142417363
H    1.0       18.4972424630       18.8163183263       21.2167774559
H    1.0       19.4625066870       17.5111081515       20.5416502691
C    6.0       19.8580592970       17.8795063478       22.6369001787
H    1.0       20.8598799305       17.4282355433       22.6300063959
H    1.0       19.1594830797       17.0750095985       22.9055420795
C    6.0       19.7906023848       18.9866866888       23.7162926622
H    1.0       20.5373694541       19.7633741389       23.5050788653
H    1.0       18.8056014118       19.4727570931       23.6834068116
C    6.0       20.0384381123       18.4224208470       25.1326459140
H    1.0       21.0226667114       17.9366034604       25.1699597483
H    1.0       19.2896634037       17.6521301805       25.3608366089
C    6.0       19.9736384734       19.5298268974       26.1992027093
H    1.0       20.7288670356       20.2911361009       25.9858732136
H    1.0       18.9894731782       20.0056252801       26.1765694864
N    7.0       20.2121340514       19.0153815672       27.6041539375
H    1.0       21.1349654556       18.5789632872       27.6999070010
H    1.0       19.5165003586       18.3134653105       27.8773930345
H    1.0       20.1647198774       19.7687477362       28.2988805686
 $end
