$$$$
! Edit this basic GAMESS input file as needed.
! Conformer was generated by a VeraChem VCPack run 
! and contains     17 atoms.
!
 $contrl scftyp=rhf runtyp=optimize nzvar=0
  maxit=200 icharg=0 $end
 $system mwords=50 $end
 $basis gbasis=pm3 $end
 $statpt nstep=200 $end
 $guess guess=huckel $end
 $data
VM2 Rank=1      G=-26.662           E=-36.827           -TS=10.165              
C1
C    6.0       20.1216976428       19.0267447107       25.0643070233
O    8.0       21.2294611796       19.3331988263       25.4592614478
O    8.0       19.0986431953       19.5456894235       25.4656776430
C    6.0       20.0075777936       17.9136228136       24.0272012105
H    1.0       19.0745677831       17.3709563599       24.2188901576
H    1.0       20.8160292268       17.1971730496       24.2138716657
C    6.0       20.0478945712       18.3594374425       22.5718659177
H    1.0       19.9647177787       17.5395471287       21.8612930777
C    6.0       20.1721873664       19.6233368893       22.1416645380
H    1.0       20.2548887211       20.4372032588       22.8608473844
C    6.0       20.2145140593       20.0872363571       20.6950347831
H    1.0       19.4069147293       20.8133311420       20.5304797184
H    1.0       21.1477343593       20.6414460461       20.5263342179
C    6.0       20.1010241917       18.9627335370       19.6419874366
H    1.0       20.1400043073       19.3804525734       18.6275768236
H    1.0       20.9258160192       18.2449405384       19.7414703761
H    1.0       19.1521639210       18.4201852469       19.7454690530
 $end
$$$$
! Edit this basic GAMESS input file as needed.
! Conformer was generated by a VeraChem VCPack run 
! and contains     17 atoms.
!
 $contrl scftyp=rhf runtyp=optimize nzvar=0
  maxit=200 icharg=0 $end
 $system mwords=50 $end
 $basis gbasis=pm3 $end
 $statpt nstep=200 $end
 $guess guess=huckel $end
 $data
VM2 Rank=2      G=-26.575           E=-36.434           -TS=9.859               
C1
C    6.0       19.9357555453       19.0108135064       25.0042219021
O    8.0       18.8065809234       18.5758744794       25.1172938028
O    8.0       20.3103714264       20.0471822529       25.5167481037
C    6.0       20.9450185991       18.1982620624       24.1987882726
H    1.0       20.6940472583       17.1377129904       24.3171838063
H    1.0       21.9289675784       18.3288995316       24.6640817574
C    6.0       21.0314472119       18.5397583331       22.7179838222
H    1.0       21.7578987164       17.9483827087       22.1620275149
C    6.0       20.3098575714       19.4701253455       22.0818070304
H    1.0       19.5761748714       20.0744978697       22.6139498043
C    6.0       20.4355577186       19.7721121880       20.6050069470
H    1.0       20.5193353495       20.8569474936       20.4545638801
H    1.0       21.3529788656       19.3257249340       20.1972946404
C    6.0       19.2184110040       19.2378718324       19.8251501192
H    1.0       19.3142039881       19.4610793185       18.7546072531
H    1.0       19.1291496840       18.1495386414       19.9398541675
H    1.0       18.2891717314       19.6970548113       20.1872609416
 $end
$$$$
! Edit this basic GAMESS input file as needed.
! Conformer was generated by a VeraChem VCPack run 
! and contains     17 atoms.
!
 $contrl scftyp=rhf runtyp=optimize nzvar=0
  maxit=200 icharg=0 $end
 $system mwords=50 $end
 $basis gbasis=pm3 $end
 $statpt nstep=200 $end
 $guess guess=huckel $end
 $data
VM2 Rank=3      G=-26.549           E=-36.408           -TS=9.860               
C1
C    6.0       20.3002208567       18.9747486559       25.0032365297
O    8.0       20.1385362219       20.0640925204       25.5173071442
O    8.0       21.3229741914       18.3270734478       25.1104094789
C    6.0       19.1470656594       18.3760306666       24.2036448290
H    1.0       18.2102782642       18.6964452843       24.6742660597
H    1.0       19.1861966984       17.2867888469       24.3210753486
C    6.0       19.1210980501       18.7288714949       22.7232046155
H    1.0       18.2897917615       18.2917163089       22.1715060732
C    6.0       20.0076230012       19.5000704442       22.0826406745
H    1.0       20.8485517279       19.9484045244       22.6104374981
C    6.0       19.9355491651       19.8216741458       20.6063905071
H    1.0       18.9461612221       19.5641942426       20.2039372689
H    1.0       20.0654250852       20.9019453513       20.4558351982
C    6.0       21.0199328542       19.0594386245       19.8201662212
H    1.0       20.9639158561       19.2976662353       18.7500406419
H    1.0       22.0231733833       19.3272039666       20.1769130931
H    1.0       20.8945755782       17.9746821320       19.9349855477
 $end
$$$$
! Edit this basic GAMESS input file as needed.
! Conformer was generated by a VeraChem VCPack run 
! and contains     17 atoms.
!
 $contrl scftyp=rhf runtyp=optimize nzvar=0
  maxit=200 icharg=0 $end
 $system mwords=50 $end
 $basis gbasis=pm3 $end
 $statpt nstep=200 $end
 $guess guess=huckel $end
 $data
VM2 Rank=4      G=-26.538           E=-36.512           -TS=9.974               
C1
C    6.0       20.2302951425       19.0496927424       25.1478106756
O    8.0       21.3844458316       18.9676209786       25.5195234979
O    8.0       19.4244415921       19.8247159266       25.6240334105
C    6.0       19.7682081839       18.1233340689       24.0306567748
H    1.0       18.6807226924       18.0063837418       24.1099324855
H    1.0       20.2104438689       17.1364781426       24.2096961813
C    6.0       20.1635684792       18.6292937027       22.6562115561
H    1.0       21.2340459974       18.6181692384       22.4586214789
C    6.0       19.2893776754       19.0661419500       21.7409720188
H    1.0       18.2255785170       19.0665672588       21.9763716393
C    6.0       19.6147630588       19.5881499753       20.3516470907
H    1.0       19.0773860000       18.9836017053       19.6085087518
H    1.0       19.2134403631       20.6055900953       20.2502618503
C    6.0       21.1179000365       19.6030506554       19.9961449756
H    1.0       21.2694767113       19.9927871446       18.9811770352
H    1.0       21.6802038861       20.2425712879       20.6891934631
H    1.0       21.5418714513       18.5910267520       20.0343183728
 $end
$$$$
! Edit this basic GAMESS input file as needed.
! Conformer was generated by a VeraChem VCPack run 
! and contains     17 atoms.
!
 $contrl scftyp=rhf runtyp=optimize nzvar=0
  maxit=200 icharg=0 $end
 $system mwords=50 $end
 $basis gbasis=pm3 $end
 $statpt nstep=200 $end
 $guess guess=huckel $end
 $data
VM2 Rank=5      G=-26.495           E=-36.131           -TS=9.636               
C1
C    6.0       20.1140897442       18.9945396197       25.2590333158
O    8.0       21.1851840688       19.4020669330       25.6633794082
O    8.0       19.0545304829       19.2354415223       25.8033316525
C    6.0       20.0969615354       18.1296354866       24.0055377688
H    1.0       19.3781695927       17.3182342309       24.1682508591
H    1.0       21.0845868655       17.6659031819       23.8951397389
C    6.0       19.7231869502       18.9151011054       22.7629259053
H    1.0       18.6943651472       19.2724244026       22.7305771862
C    6.0       20.5644500202       19.1754023124       21.7575653261
H    1.0       21.5939203411       18.8203375451       21.7919231056
C    6.0       20.1910266739       19.9619742976       20.5209629328
H    1.0       19.2421350088       20.4938434963       20.6756874664
H    1.0       20.9533673502       20.7280274383       20.3246646125
C    6.0       20.0635705244       19.0378387229       19.2942636905
H    1.0       19.2878296258       18.2780977166       19.4574160573
H    1.0       19.7931000605       19.6142730218       18.4000299553
H    1.0       21.0112145130       18.5212940906       19.0928180582
 $end
$$$$
! Edit this basic GAMESS input file as needed.
! Conformer was generated by a VeraChem VCPack run 
! and contains     17 atoms.
!
 $contrl scftyp=rhf runtyp=optimize nzvar=0
  maxit=200 icharg=0 $end
 $system mwords=50 $end
 $basis gbasis=pm3 $end
 $statpt nstep=200 $end
 $guess guess=huckel $end
 $data
VM2 Rank=6      G=-26.486           E=-36.460           -TS=9.975               
C1
C    6.0       20.0345152677       18.8556260717       25.1338580984
O    8.0       20.0814471041       17.6768495211       25.4258407039
O    8.0       19.2325673813       19.6345310937       25.6103418923
C    6.0       21.0422266569       19.3853656887       24.1221316496
H    1.0       22.0105330562       18.9195984966       24.3388254657
H    1.0       21.1605997571       20.4628907035       24.2880041638
C    6.0       20.6341137885       19.0956022198       22.6900381220
H    1.0       20.6525043452       18.0420064486       22.4167501318
C    6.0       20.2703165735       20.0382849413       21.8115660438
H    1.0       20.2600141378       21.0824029280       22.1226879470
C    6.0       19.8480796053       19.8195793794       20.3684865918
H    1.0       18.8431136246       20.2386769697       20.2238361607
H    1.0       20.5080481789       20.4021020005       19.7115121839
C    6.0       19.8497336227       18.3461610843       19.9047368983
H    1.0       19.5335738333       18.2723920882       18.8561041619
H    1.0       20.8537230401       17.9090850103       19.9845819558
H    1.0       19.1582817494       17.7427743461       20.5074875422
 $end
$$$$
! Edit this basic GAMESS input file as needed.
! Conformer was generated by a VeraChem VCPack run 
! and contains     17 atoms.
!
 $contrl scftyp=rhf runtyp=optimize nzvar=0
  maxit=200 icharg=0 $end
 $system mwords=50 $end
 $basis gbasis=pm3 $end
 $statpt nstep=200 $end
 $guess guess=huckel $end
 $data
VM2 Rank=7      G=-26.480           E=-36.116           -TS=9.636               
C1
C    6.0       20.1102389939       18.9989406463       25.2592317133
O    8.0       20.6748567440       19.9848259555       25.6905724499
O    8.0       20.2334888282       17.8896453439       25.7400973997
C    6.0       19.1935738823       19.1610802735       24.0538117470
H    1.0       18.8607724635       20.2052466445       24.0138433447
H    1.0       18.3021617472       18.5468399868       24.2258635312
C    6.0       19.8638563206       18.7540388164       22.7554343724
H    1.0       20.0791388413       17.6905052588       22.6566875160
C    6.0       20.1871780972       19.6060326827       21.7777859781
H    1.0       19.9744977131       20.6698356765       21.8785381063
C    6.0       20.8591262200       19.1989197315       20.4854745509
H    1.0       21.7100542254       19.8638420698       20.2846381895
H    1.0       21.2663774170       18.1817710982       20.5677962468
C    6.0       19.8706809138       19.2585165501       19.3045917888
H    1.0       19.4762833142       20.2748984071       19.1747926970
H    1.0       20.3640868025       18.9626823655       18.3696495904
H    1.0       19.0226860702       18.5812614486       19.4714166502
 $end
$$$$
! Edit this basic GAMESS input file as needed.
! Conformer was generated by a VeraChem VCPack run 
! and contains     17 atoms.
!
 $contrl scftyp=rhf runtyp=optimize nzvar=0
  maxit=200 icharg=0 $end
 $system mwords=50 $end
 $basis gbasis=pm3 $end
 $statpt nstep=200 $end
 $guess guess=huckel $end
 $data
VM2 Rank=8      G=-26.408           E=-36.054           -TS=9.646               
C1
C    6.0       20.1634141155       19.1350706985       25.1459737358
O    8.0       21.2738271093       19.5651049837       25.3885966582
O    8.0       19.1537027133       19.5359310430       25.6907635126
C    6.0       20.0285214140       18.0258712163       24.1109336393
H    1.0       19.3060382203       17.2962746485       24.4945895914
H    1.0       20.9935345738       17.5109235360       24.0319879729
C    6.0       19.5769687381       18.5447301418       22.7590278691
H    1.0       18.5592400655       18.9324870430       22.7260335554
C    6.0       20.3422867668       18.5520613208       21.6633771512
H    1.0       21.3616333635       18.1689439644       21.6982027557
C    6.0       19.8910691701       19.0726017069       20.3169833113
H    1.0       20.1379790542       18.3418400561       19.5349698402
H    1.0       18.7995561107       19.1970526272       20.2991109357
C    6.0       20.5632099728       20.4206288891       19.9913441225
H    1.0       21.6558908614       20.3170072591       19.9642034100
H    1.0       20.2319536390       20.7939596384       19.0136116303
H    1.0       20.3100784853       21.1750524491       20.7479487711
 $end
