$$$$
! Edit this basic GAMESS input file as needed.
! Conformer was generated by a VeraChem VCPack run 
! and contains     25 atoms.
!
 $contrl scftyp=rhf runtyp=optimize nzvar=0
  maxit=200 icharg=0 $end
 $system mwords=50 $end
 $basis gbasis=pm3 $end
 $statpt nstep=200 $end
 $guess guess=huckel $end
 $data
VM2 Rank=1      G=62.075            E=29.291            -TS=32.785              
C1
C    6.0       21.2649509542       19.5699900683       21.1383820720
H    1.0       21.7745901638       19.7414888845       20.1802893181
H    1.0       22.0468908452       19.7183033403       21.8916246365
C    6.0       20.7595374464       18.1038126228       21.1583146030
H    1.0       19.7152405149       18.0408761216       20.8265137673
H    1.0       21.3327054754       17.5468304378       20.4044848546
C    6.0       20.9529769164       17.3662015278       22.5093823830
H    1.0       22.0133498625       17.4004968618       22.7947236733
H    1.0       20.7266361911       16.3038612273       22.3451371682
C    6.0       20.0857671616       17.8547875487       23.7002743379
H    1.0       19.0202772977       17.7989509426       23.4478194409
H    1.0       20.2245787134       17.1309617114       24.5147305893
C    6.0       20.4544395738       19.2645843670       24.2301194301
H    1.0       21.4702657560       19.5138160596       23.9017306914
C    6.0       19.4857953474       20.3914237428       23.7945574991
H    1.0       18.5769437172       20.3182168848       24.4070485400
H    1.0       19.9398320597       21.3598075194       24.0411350660
C    6.0       19.0436449616       20.4095153305       22.3085555939
H    1.0       18.3090796905       21.2184700338       22.1958377884
H    1.0       18.4890367170       19.4966684972       22.0627646445
C    6.0       20.1645036921       20.6552427829       21.2675767368
H    1.0       19.6821646646       20.7603322547       20.2860933847
H    1.0       20.6410809271       21.6243707251       21.4681611269
O    8.0       20.4523839465       19.2274420093       25.6528373442
H    1.0       20.7315532497       20.1156400848       25.9587915585
 $end
