$$$$
! Edit this basic GAMESS input file as needed.
! Conformer was generated by a VeraChem VCPack run 
! and contains     25 atoms.
!
 $contrl scftyp=rhf runtyp=optimize nzvar=0
  maxit=200 icharg=0 $end
 $system mwords=50 $end
 $basis gbasis=pm3 $end
 $statpt nstep=200 $end
 $guess guess=huckel $end
 $data
VM2 Rank=1      G=-7.962            E=-32.361           -TS=24.398              
C1
C    6.0       20.1602065229       19.3401411080       27.8084372927
O    8.0       21.2159589754       19.7053428482       28.2865964626
O    8.0       19.0780526488       19.5686889805       28.3117557552
C    6.0       20.1937962887       18.5723634153       26.4918253382
H    1.0       19.3541558245       17.8669632587       26.4873570158
H    1.0       21.1158404637       17.9792219867       26.4668532181
C    6.0       20.1203323014       19.4990273744       25.2533118360
H    1.0       19.1983763131       20.0951675297       25.3003044053
H    1.0       20.9599421589       20.2075072870       25.2798796589
C    6.0       20.1560867914       18.6985799615       23.9334535660
H    1.0       19.3162690896       17.9905102685       23.9105481808
H    1.0       21.0782391184       18.1028081345       23.8901887249
C    6.0       20.0828048914       19.6249574996       22.7006034337
H    1.0       19.1606816074       20.2207295158       22.7435887329
H    1.0       20.9225003929       20.3331235088       22.7233273469
C    6.0       20.1186516363       18.8252071862       21.3803794976
H    1.0       19.2790159658       18.1169882013       21.3573054616
H    1.0       21.0406985614       18.2293461166       21.3370871330
C    6.0       20.0454653125       19.7510148135       20.1479497479
H    1.0       19.1233031407       20.3473344380       20.1867845781
H    1.0       20.8849718548       20.4597934400       20.1666530527
C    6.0       20.0816446312       18.9486768127       18.8316870701
H    1.0       19.2341059334       18.2533205623       18.7720715874
H    1.0       20.0288649489       19.6221989489       17.9664305082
H    1.0       21.0090438995       18.3664750928       18.7518792274
 $end
