$$$$
! Edit this basic GAMESS input file as needed.
! Conformer was generated by a VeraChem VCPack run 
! and contains     20 atoms.
!
 $contrl scftyp=rhf runtyp=optimize nzvar=0
  maxit=200 icharg=0 $end
 $system mwords=50 $end
 $basis gbasis=pm3 $end
 $statpt nstep=200 $end
 $guess guess=huckel $end
 $data
VM2 Rank=1      G=27.007            E=4.319             -TS=22.689              
C1
N    7.0       19.7358161692       18.9390315245       25.6478579673
H    1.0       19.5332247340       17.9360484342       25.7059031626
H    1.0       20.2631807127       19.1850006925       26.4922424508
H    1.0       18.8386518523       19.4312891598       25.7041376460
C    6.0       20.4972459668       19.2912382627       24.3858497791
H    1.0       21.4511174932       18.7572002369       24.4070347910
H    1.0       20.7044114593       20.3646574981       24.4051200410
C    6.0       19.7325560772       18.9344789278       23.0985122237
H    1.0       19.5126480679       17.8585368149       23.0909739293
H    1.0       18.7685515589       19.4604756111       23.0890314506
C    6.0       20.5420969619       19.3089769188       21.8371151485
H    1.0       21.5080443727       18.7850485533       21.8524757460
H    1.0       20.7647893106       20.3850902467       21.8505079591
C    6.0       19.7838683273       18.9551588470       20.5381007672
H    1.0       19.5609847878       17.8790413236       20.5195949879
H    1.0       18.8177617751       19.4788658836       20.5176554879
C    6.0       20.5964164977       19.3311155192       19.2805641142
H    1.0       20.0420563794       19.0724460645       18.3690722713
H    1.0       20.8056252718       20.4084645467       19.2528970101
H    1.0       21.5547094575       18.7961111065       19.2548747407
 $end
