$$$$
! Edit this basic GAMESS input file as needed.
! Conformer was generated by a VeraChem VCPack run 
! and contains     20 atoms.
!
 $contrl scftyp=rhf runtyp=optimize nzvar=0
  maxit=200 icharg=0 $end
 $system mwords=50 $end
 $basis gbasis=pm3 $end
 $statpt nstep=200 $end
 $guess guess=huckel $end
 $data
VM2 Rank=1      G=53.936            E=31.434            -TS=22.502              
C1
C    6.0       19.8541917767       19.1508540665       18.8169413259
H    1.0       20.3378193632       18.6997962925       17.9407703285
H    1.0       18.7730568657       18.9823163447       18.7279553586
H    1.0       20.0352433315       20.2330228045       18.7807886320
C    6.0       20.4073222410       18.5375240947       20.1215877139
H    1.0       21.4948660140       18.6915150057       20.1650232817
H    1.0       20.2424651044       17.4507424392       20.1126889031
C    6.0       19.7440086406       19.1542863316       21.3727396477
H    1.0       19.9121652846       20.2394549996       21.3827137782
H    1.0       18.6579808879       18.9971157513       21.3302050243
C    6.0       20.3006849037       18.5374838355       22.6693679403
H    1.0       21.3792695955       18.7057931561       22.7224455125
H    1.0       20.1210263684       17.4594246745       22.6697283198
N    7.0       19.6776095390       19.1133470788       23.9258962433
H    1.0       18.6547125314       18.9807639587       23.9097578192
H    1.0       19.8198976192       20.1345374052       23.9587674341
C    6.0       20.2821828990       18.4505045930       25.1564671289
H    1.0       21.3589272695       18.6327568235       25.1710630928
H    1.0       19.8249710795       18.8742482506       26.0533544928
H    1.0       20.0897016711       17.3761397637       25.1177498205
 $end
$$$$
! Edit this basic GAMESS input file as needed.
! Conformer was generated by a VeraChem VCPack run 
! and contains     20 atoms.
!
 $contrl scftyp=rhf runtyp=optimize nzvar=0
  maxit=200 icharg=0 $end
 $system mwords=50 $end
 $basis gbasis=pm3 $end
 $statpt nstep=200 $end
 $guess guess=huckel $end
 $data
VM2 Rank=2      G=54.084            E=31.414            -TS=22.671              
C1
C    6.0       20.2445178772       19.5234238116       19.0575719569
H    1.0       21.0841521256       20.2046588433       19.2475741650
H    1.0       20.4067319523       19.0551924588       18.0780494321
H    1.0       19.3262971504       20.1219647466       18.9960133672
C    6.0       20.1366208895       18.4513731770       20.1636174556
H    1.0       21.0550316845       17.8475107256       20.1777075617
H    1.0       19.3110512242       17.7650778905       19.9275181802
C    6.0       19.9075613849       19.0820920096       21.5548093079
H    1.0       20.7340183529       19.7663472584       21.7861519676
H    1.0       18.9877693799       19.6816082044       21.5411872337
C    6.0       19.7995972115       18.0034790429       22.6524942737
H    1.0       20.7304825493       17.4333689372       22.7055031670
H    1.0       18.9941561535       17.3119913404       22.3921321121
N    7.0       19.5006012741       18.5422576797       24.0421288302
H    1.0       19.2827687192       17.7579947926       24.6767678907
H    1.0       18.6429723490       19.1149747843       24.0265386821
C    6.0       20.6771013629       19.3413742791       24.5923781757
H    1.0       20.4389262056       19.6780362768       25.6037653104
H    1.0       21.5642910176       18.7049472005       24.6160523269
H    1.0       20.8590274225       20.2067320160       23.9521078421
 $end
$$$$
! Edit this basic GAMESS input file as needed.
! Conformer was generated by a VeraChem VCPack run 
! and contains     20 atoms.
!
 $contrl scftyp=rhf runtyp=optimize nzvar=0
  maxit=200 icharg=0 $end
 $system mwords=50 $end
 $basis gbasis=pm3 $end
 $statpt nstep=200 $end
 $guess guess=huckel $end
 $data
VM2 Rank=3      G=54.174            E=31.503            -TS=22.670              
C1
C    6.0       19.4687053811       18.7547230421       19.0250469431
H    1.0       19.9765568852       18.6287895957       18.0600351972
H    1.0       18.7729191035       17.9149302259       19.1507371202
H    1.0       18.8811455285       19.6808220526       18.9772612441
C    6.0       20.4938898991       18.8052629919       20.1786108839
H    1.0       21.1965712320       19.6328696534       20.0065189963
H    1.0       21.0887645693       17.8808981068       20.1792360973
C    6.0       19.8068696512       18.9824606364       21.5505764990
H    1.0       19.2163304372       19.9081418865       21.5506699683
H    1.0       19.1064204240       18.1541466961       21.7179736502
C    6.0       20.8389815558       19.0333508873       22.6960561229
H    1.0       21.5475928911       19.8419228306       22.4991828500
H    1.0       21.3985105501       18.0953159384       22.7334707772
N    7.0       20.2444708445       19.2793041569       24.0733075378
H    1.0       19.6800651035       20.1425595473       24.0700117600
H    1.0       21.0030002901       19.4624548963       24.7488628729
C    6.0       19.4130826683       18.0888982854       24.5394020133
H    1.0       20.0405707248       17.1951418288       24.5522274144
H    1.0       19.0359400858       18.2879080609       25.5449520261
H    1.0       18.5740957425       17.9426332163       23.8563249739
 $end
$$$$
! Edit this basic GAMESS input file as needed.
! Conformer was generated by a VeraChem VCPack run 
! and contains     20 atoms.
!
 $contrl scftyp=rhf runtyp=optimize nzvar=0
  maxit=200 icharg=0 $end
 $system mwords=50 $end
 $basis gbasis=pm3 $end
 $statpt nstep=200 $end
 $guess guess=huckel $end
 $data
VM2 Rank=4      G=54.305            E=31.706            -TS=22.599              
C1
C    6.0       20.8668296313       19.3662796743       19.5193444921
H    1.0       20.5580109425       20.4197144106       19.5219559681
H    1.0       21.7364977489       19.2623160459       20.1803524534
H    1.0       21.1934346372       19.1160241233       18.5016554510
C    6.0       19.7055852792       18.4446552881       19.9579835332
H    1.0       20.0425537450       17.3984094827       19.9526842626
H    1.0       18.8956823945       18.5116619509       19.2179958114
C    6.0       19.1424238575       18.8037773474       21.3529943441
H    1.0       18.7744652854       19.8383909513       21.3461321516
H    1.0       18.2760762718       18.1629676345       21.5643250350
C    6.0       20.1838997652       18.6321470527       22.4759895316
H    1.0       21.0331655114       19.2953659232       22.2952786342
H    1.0       20.5480177414       17.6017479227       22.4843591674
N    7.0       19.6383966120       18.9445722865       23.8555860429
H    1.0       18.8278938729       18.3413439774       24.0636828980
H    1.0       19.2751301198       19.9095871727       23.8851984421
C    6.0       20.7288648549       18.7525683510       24.9011020562
H    1.0       21.5609152109       19.4249253805       24.6810380960
H    1.0       20.3227743509       18.9806140749       25.8890743510
H    1.0       21.0739417353       17.7166851724       24.8751792776
 $end
$$$$
! Edit this basic GAMESS input file as needed.
! Conformer was generated by a VeraChem VCPack run 
! and contains     20 atoms.
!
 $contrl scftyp=rhf runtyp=optimize nzvar=0
  maxit=200 icharg=0 $end
 $system mwords=50 $end
 $basis gbasis=pm3 $end
 $statpt nstep=200 $end
 $guess guess=huckel $end
 $data
VM2 Rank=5      G=54.310            E=31.711            -TS=22.599              
C1
C    6.0       19.6005859236       18.1122660354       19.4663422918
H    1.0       19.6688565184       17.2146589624       20.0938002096
H    1.0       18.5507463961       18.4318410447       19.4379135108
H    1.0       19.8907268190       17.8258792976       18.4471313098
C    6.0       20.5130630331       19.2443242224       19.9918110894
H    1.0       20.4845262222       20.0851352298       19.2845373002
H    1.0       21.5555840656       18.8968073143       20.0160557261
C    6.0       20.1003332464       19.7524121196       21.3931246446
H    1.0       20.7393682634       20.6022307672       21.6675324021
H    1.0       19.0702696486       20.1314072324       21.3585224246
C    6.0       20.2149937992       18.6630456672       22.4772737242
H    1.0       21.2407559647       18.2876873431       22.5132061435
H    1.0       19.5522465409       17.8293694470       22.2333132259
N    7.0       19.8497295531       19.1536789197       23.8644765249
H    1.0       18.8877483205       19.5260502438       23.8691228097
H    1.0       20.4511586259       19.9480140771       24.1317182706
C    6.0       19.9872944446       18.0182730356       24.8699717251
H    1.0       21.0200892024       17.6631247426       24.8727330920
H    1.0       19.7215604458       18.3850803126       25.8638741955
H    1.0       19.3171009241       17.2036862030       24.5869721740
 $end
$$$$
! Edit this basic GAMESS input file as needed.
! Conformer was generated by a VeraChem VCPack run 
! and contains     20 atoms.
!
 $contrl scftyp=rhf runtyp=optimize nzvar=0
  maxit=200 icharg=0 $end
 $system mwords=50 $end
 $basis gbasis=pm3 $end
 $statpt nstep=200 $end
 $guess guess=huckel $end
 $data
VM2 Rank=6      G=54.342            E=31.753            -TS=22.589              
C1
C    6.0       19.6844156098       18.8157447386       18.9888685230
H    1.0       20.5414904239       19.3302063017       18.5350822443
H    1.0       19.4590916891       17.9336419429       18.3755582620
H    1.0       18.8181115294       19.4883802029       18.9413173429
C    6.0       19.9895740350       18.4041814228       20.4454103594
H    1.0       20.8398350939       17.7075756471       20.4564379405
H    1.0       19.1273630084       17.8584466150       20.8519328745
C    6.0       20.3100772688       19.6309722880       21.3316648956
H    1.0       21.1482071618       20.1873851738       20.8914078668
H    1.0       19.4537515116       20.3182111475       21.3479435193
C    6.0       20.6878716778       19.2435821572       22.7755282678
H    1.0       20.9885122796       20.1404122544       23.3231875383
H    1.0       21.5356590816       18.5540322766       22.7609816350
N    7.0       19.5633209978       18.5876966291       23.5546892540
H    1.0       19.2484568705       17.7327035435       23.0727119694
H    1.0       18.7396399110       19.2081313941       23.5803258302
C    6.0       20.0307404108       18.2618227643       24.9668387003
H    1.0       19.2125566275       17.7905981599       25.5159403967
H    1.0       20.8813506280       17.5787096309       24.9157653325
H    1.0       20.3277522159       19.1848145301       25.4694873851
 $end
$$$$
! Edit this basic GAMESS input file as needed.
! Conformer was generated by a VeraChem VCPack run 
! and contains     20 atoms.
!
 $contrl scftyp=rhf runtyp=optimize nzvar=0
  maxit=200 icharg=0 $end
 $system mwords=50 $end
 $basis gbasis=pm3 $end
 $statpt nstep=200 $end
 $guess guess=huckel $end
 $data
VM2 Rank=7      G=54.382            E=31.793            -TS=22.589              
C1
C    6.0       20.1834087552       19.3099771625       19.0097667632
H    1.0       21.0925732028       19.5514296460       18.4439518278
H    1.0       19.6810423747       18.4781309235       18.4990522443
H    1.0       19.5210339203       20.1845746986       18.9707774360
C    6.0       20.5303902614       18.9397935456       20.4680501312
H    1.0       21.0660194841       19.7784243433       20.9331252075
H    1.0       21.2184130810       18.0825122130       20.4722608093
C    6.0       19.2644884037       18.5954338145       21.2878634204
H    1.0       18.5847221162       19.4575317639       21.3115559428
H    1.0       18.7198316918       17.7823881962       20.7896778441
C    6.0       19.5871967014       18.1534555608       22.7294093810
H    1.0       20.2692724358       17.2997897214       22.7079068254
H    1.0       18.6654219855       17.8396339813       23.2258637521
N    7.0       20.2194323279       19.2374147977       23.5821683719
H    1.0       19.6057833651       20.0658483565       23.6165259808
H    1.0       21.0968156806       19.5630535271       23.1501814149
C    6.0       20.4810835504       18.7079251189       24.9857419323
H    1.0       19.5350449175       18.4000092224       25.4362796895
H    1.0       21.1581636076       17.8529639018       24.9274783084
H    1.0       20.9358951099       19.4973729868       25.5881603808
 $end
$$$$
! Edit this basic GAMESS input file as needed.
! Conformer was generated by a VeraChem VCPack run 
! and contains     20 atoms.
!
 $contrl scftyp=rhf runtyp=optimize nzvar=0
  maxit=200 icharg=0 $end
 $system mwords=50 $end
 $basis gbasis=pm3 $end
 $statpt nstep=200 $end
 $guess guess=huckel $end
 $data
VM2 Rank=8      G=54.497            E=31.685            -TS=22.812              
C1
C    6.0       19.9181188467       18.3278797885       19.2182400161
H    1.0       20.7102726303       17.9398994116       18.5648143005
H    1.0       19.1764133613       17.5305582087       19.3572107872
H    1.0       19.4300792515       19.1611316492       18.6960776630
C    6.0       20.5027725054       18.7853129846       20.5720847334
H    1.0       21.2633262103       19.5595046711       20.3978248260
H    1.0       21.0151000695       17.9371532399       21.0462179735
C    6.0       19.4052493886       19.3351390655       21.5132841756
H    1.0       18.8722758735       20.1528153268       21.0103005307
H    1.0       18.6570770357       18.5571698410       21.7126426803
C    6.0       19.9712778774       19.8728487636       22.8463790016
H    1.0       19.1568290146       20.2826505794       23.4490637560
H    1.0       20.6707675267       20.6850718035       22.6327534169
N    7.0       20.7073359447       18.8520899171       23.7013061512
H    1.0       21.1568499745       19.3296623571       24.4982301441
H    1.0       21.4853113766       18.4364325123       23.1683775215
C    6.0       19.7612454372       17.7707294807       24.2117059221
H    1.0       20.3178711743       17.0796991083       24.8485554122
H    1.0       18.9594630472       18.2374092129       24.7879111673
H    1.0       19.3401469950       17.2282160792       23.3629587650
 $end
