$$$$
! Edit this basic GAMESS input file as needed.
! Conformer was generated by a VeraChem VCPack run 
! and contains     26 atoms.
!
 $contrl scftyp=rhf runtyp=optimize nzvar=0
  maxit=200 icharg=0 $end
 $system mwords=50 $end
 $basis gbasis=pm3 $end
 $statpt nstep=200 $end
 $guess guess=huckel $end
 $data
VM2 Rank=1      G=23.710            E=-8.843            -TS=32.553              
C1
C    6.0       20.2414271829       18.6563379591       18.8059620115
H    1.0       19.6045619617       19.4972138643       18.5017020424
H    1.0       21.0557207692       18.5686914891       18.0750096170
H    1.0       19.6424169707       17.7377423297       18.7548719927
C    6.0       20.8050685970       18.8728304209       20.2263728997
H    1.0       21.4264279752       19.7793180907       20.2376838824
H    1.0       21.4641786736       18.0333790146       20.4886977207
C    6.0       19.6784665146       18.9994678713       21.2756932309
H    1.0       19.0207560209       19.8376282120       21.0066821172
H    1.0       19.0592416867       18.0918364404       21.2594309719
C    6.0       20.2389147870       19.2173130874       22.6994269486
H    1.0       20.8549410978       20.1272502670       22.7150327421
H    1.0       20.8999642213       18.3793092887       22.9575609319
C    6.0       19.1075874133       19.3422484031       23.7488090252
H    1.0       18.4279217836       20.1490029400       23.4433384167
H    1.0       18.5118877718       18.4198094910       23.7645922558
C    6.0       19.6331333513       19.6455877025       25.1687635818
H    1.0       20.2418535926       20.5538902076       25.1222210176
C    6.0       18.4605301929       19.8995986157       26.1295936277
H    1.0       17.8446259762       20.7376662708       25.7802571156
H    1.0       18.8275533560       20.1520800332       27.1320522747
H    1.0       17.8172727592       19.0147043926       26.2138257588
N    7.0       20.5228719610       18.5546159400       25.6993786747
H    1.0       20.8768970980       18.7814836245       26.6329856700
H    1.0       20.0217100218       17.6651249902       25.7696930388
H    1.0       21.3337115672       18.4049480168       25.0931368601
 $end
$$$$
! Edit this basic GAMESS input file as needed.
! Conformer was generated by a VeraChem VCPack run 
! and contains     26 atoms.
!
 $contrl scftyp=rhf runtyp=optimize nzvar=0
  maxit=200 icharg=0 $end
 $system mwords=50 $end
 $basis gbasis=pm3 $end
 $statpt nstep=200 $end
 $guess guess=huckel $end
 $data
VM2 Rank=2      G=24.183            E=-8.383            -TS=32.566              
C1
C    6.0       20.2651472123       18.6437449212       18.8025826044
H    1.0       20.3175500107       19.2783084939       17.9083613725
H    1.0       21.1741916531       18.0289774844       18.8332419789
H    1.0       19.4028207907       17.9736679654       18.6902034537
C    6.0       20.1353836217       19.5061528509       20.0759779533
H    1.0       19.2364475708       20.1339952868       20.0007915856
H    1.0       20.9941437751       20.1887794612       20.1429473336
C    6.0       20.0595823275       18.6366082015       21.3505515847
H    1.0       19.2008163114       17.9548539533       21.2782271689
H    1.0       20.9588373972       18.0087873096       21.4186545647
C    6.0       19.9301409587       19.4968352387       22.6281297324
H    1.0       19.0340036918       20.1256763984       22.5454800030
H    1.0       20.7917082207       20.1748780418       22.7022241109
C    6.0       19.8498724953       18.6221971342       23.9035785149
H    1.0       18.9532128960       17.9895123812       23.8630635489
H    1.0       20.7109635671       17.9409319937       23.9146759403
C    6.0       19.8535202297       19.4354652312       25.2183034702
H    1.0       20.7326570540       20.0872395204       25.2160466926
C    6.0       18.5969318012       20.3129918452       25.3617838633
H    1.0       18.5528158749       21.0781457037       24.5782531325
H    1.0       18.5996348490       20.8367195049       26.3256467791
H    1.0       17.6826072329       19.7092317567       25.3055043355
N    7.0       19.9974213536       18.5340045771       26.4130922768
H    1.0       19.2077086689       17.8877479104       26.4919667763
H    1.0       20.8513298338       17.9712080735       26.3606792050
H    1.0       20.0404891595       19.0709522707       27.2838989662
 $end
$$$$
! Edit this basic GAMESS input file as needed.
! Conformer was generated by a VeraChem VCPack run 
! and contains     26 atoms.
!
 $contrl scftyp=rhf runtyp=optimize nzvar=0
  maxit=200 icharg=0 $end
 $system mwords=50 $end
 $basis gbasis=pm3 $end
 $statpt nstep=200 $end
 $guess guess=huckel $end
 $data
VM2 Rank=3      G=24.221            E=-8.477            -TS=32.698              
C1
C    6.0       20.3612790127       18.7664140016       18.8988568752
H    1.0       20.3290548077       17.9288757160       18.1899622445
H    1.0       19.6207185536       19.5097916602       18.5760612397
H    1.0       21.3566951537       19.2248388030       18.8338150950
C    6.0       20.0681206369       18.2779173891       20.3332688276
H    1.0       20.8040596233       17.5117471537       20.6148473569
H    1.0       19.0814463731       17.7944652321       20.3590513173
C    6.0       20.1073449168       19.4385173207       21.3520433491
H    1.0       21.0946415805       19.9198525545       21.3202318035
H    1.0       19.3718968311       20.2027081644       21.0646600799
C    6.0       19.8140550639       18.9535062905       22.7898804777
H    1.0       20.5511268657       18.1891722142       23.0693531817
H    1.0       18.8282939318       18.4704683547       22.8096646667
C    6.0       19.8522370111       20.1238681910       23.8069693436
H    1.0       20.8255089881       20.6276378822       23.7404935625
H    1.0       19.1035284219       20.8754619536       23.5235492407
C    6.0       19.6133388889       19.7156644939       25.2800292722
H    1.0       19.6966660475       20.6232103100       25.8860507646
C    6.0       18.2040065679       19.1382958874       25.4994533285
H    1.0       18.0142828616       18.9864870725       26.5690973040
H    1.0       18.0784461024       18.1718426651       24.9970936809
H    1.0       17.4375872187       19.8256105053       25.1203025956
N    7.0       20.6676179017       18.7738164258       25.7934985260
H    1.0       20.5304090560       18.5640224275       26.7862633991
H    1.0       20.6508896793       17.8852266376       25.2871586475
H    1.0       21.6065372093       19.1694816667       25.6917666079
 $end
$$$$
! Edit this basic GAMESS input file as needed.
! Conformer was generated by a VeraChem VCPack run 
! and contains     26 atoms.
!
 $contrl scftyp=rhf runtyp=optimize nzvar=0
  maxit=200 icharg=0 $end
 $system mwords=50 $end
 $basis gbasis=pm3 $end
 $statpt nstep=200 $end
 $guess guess=huckel $end
 $data
VM2 Rank=4      G=24.304            E=-8.361            -TS=32.665              
C1
C    6.0       21.0479089856       19.5374431222       19.5908239104
H    1.0       21.7406254473       19.8913751029       20.3643301481
H    1.0       21.6437691789       19.2913769663       18.7023773419
H    1.0       20.3758731489       20.3639808758       19.3258187589
C    6.0       20.2494034014       18.3021544004       20.0653971173
H    1.0       20.9444477741       17.5008408648       20.3527297482
H    1.0       19.6642355223       17.9129360834       19.2204764227
C    6.0       19.2861760267       18.6055741022       21.2383490509
H    1.0       18.5786083123       19.3905255235       20.9375300590
H    1.0       18.6851898930       17.7074117445       21.4371170959
C    6.0       20.0117459746       19.0260895563       22.5390172965
H    1.0       20.5565526392       19.9652621047       22.3752066377
H    1.0       20.7574567551       18.2627222000       22.7974367488
C    6.0       19.0190269733       19.2154008008       23.7118064353
H    1.0       18.2491930909       19.9386420245       23.4111458834
H    1.0       18.4986612990       18.2699520188       23.9150510623
C    6.0       19.7000012030       19.7209142546       25.0022093319
H    1.0       20.2299395680       20.6496032061       24.7689424208
C    6.0       18.6459591438       20.0245182693       26.0790076828
H    1.0       18.0850544364       19.1216892377       26.3513962109
H    1.0       17.9307870419       20.7767596185       25.7234915345
H    1.0       19.1200136975       20.4191422135       26.9861549644
N    7.0       20.7277782916       18.7559054943       25.5273891750
H    1.0       21.4618640386       18.5785846290       24.8366846650
H    1.0       21.1823103603       19.1159394184       26.3713029075
H    1.0       20.3057420095       17.8550313325       25.7674040560
 $end
$$$$
! Edit this basic GAMESS input file as needed.
! Conformer was generated by a VeraChem VCPack run 
! and contains     26 atoms.
!
 $contrl scftyp=rhf runtyp=optimize nzvar=0
  maxit=200 icharg=0 $end
 $system mwords=50 $end
 $basis gbasis=pm3 $end
 $statpt nstep=200 $end
 $guess guess=huckel $end
 $data
VM2 Rank=5      G=24.328            E=-8.331            -TS=32.658              
C1
C    6.0       21.0697459607       18.0176259427       19.8285619861
H    1.0       20.4116636717       17.1390817808       19.8177342825
H    1.0       21.6580374537       18.0076071705       18.9018730730
H    1.0       21.7715231878       17.9120685793       20.6650461744
C    6.0       20.2510065103       19.3242464307       19.9348644101
H    1.0       19.6581981494       19.4457747717       19.0174680855
H    1.0       20.9326669017       20.1852758664       19.9764324579
C    6.0       19.2943238741       19.3545079002       21.1512677509
H    1.0       18.6763916533       20.2606719936       21.0852658938
H    1.0       18.6016743606       18.5034476697       21.0943020065
C    6.0       20.0281820082       19.3401119500       22.5137835191
H    1.0       20.7542877470       20.1641878900       22.5471411085
H    1.0       20.5965416937       18.4070864769       22.6136331812
C    6.0       19.0395324369       19.4755117988       23.6975404867
H    1.0       18.4432742975       20.3874022163       23.5597601123
H    1.0       18.3329923844       18.6348456095       23.6891505941
C    6.0       19.7462957160       19.5467062195       25.0686970585
H    1.0       20.4616202877       20.3745726999       25.0430298205
C    6.0       18.7245841850       19.8265962560       26.1824711992
H    1.0       17.9821294932       19.0216886784       26.2517182733
H    1.0       18.1920224339       20.7674619433       25.9957104175
H    1.0       19.2245592874       19.9150696500       27.1548759081
N    7.0       20.5343293088       18.3026935021       25.3768135894
H    1.0       19.9299014447       17.4777485464       25.4147920950
H    1.0       21.2507751772       18.1281978648       24.6671640846
H    1.0       21.0102936675       18.3756886582       26.2804531019
 $end
$$$$
! Edit this basic GAMESS input file as needed.
! Conformer was generated by a VeraChem VCPack run 
! and contains     26 atoms.
!
 $contrl scftyp=rhf runtyp=optimize nzvar=0
  maxit=200 icharg=0 $end
 $system mwords=50 $end
 $basis gbasis=pm3 $end
 $statpt nstep=200 $end
 $guess guess=huckel $end
 $data
VM2 Rank=6      G=24.404            E=-8.264            -TS=32.668              
C1
C    6.0       19.9267275905       18.4375945320       19.0848680628
H    1.0       19.2237061215       19.2150502538       18.7584281581
H    1.0       20.9095224337       18.6605380470       18.6493990413
H    1.0       19.5851590474       17.4794774859       18.6720996739
C    6.0       20.0037355898       18.3710434371       20.6249581011
H    1.0       20.6908086555       17.5659339299       20.9206481850
H    1.0       19.0138370941       18.1064937236       21.0197815872
C    6.0       20.4794609117       19.7128103311       21.2303557865
H    1.0       21.4336233004       19.9962477762       20.7649202441
H    1.0       19.7649383701       20.5078294413       20.9760259740
C    6.0       20.6775053692       19.6633343319       22.7652760013
H    1.0       21.1156558450       20.6173257899       23.0901627407
H    1.0       21.4128852731       18.8849079815       23.0087131391
C    6.0       19.3622584907       19.4201168589       23.5488705245
H    1.0       18.6078250593       20.1424966440       23.2098849758
H    1.0       18.9664214200       18.4216648560       23.3241315215
C    6.0       19.5396927574       19.5652307517       25.0757579403
H    1.0       19.9495635102       20.5591478953       25.2802933572
C    6.0       18.1813565667       19.4482280407       25.7856195048
H    1.0       17.4847290116       20.2144011907       25.4231038434
H    1.0       18.2954163664       19.5878626578       26.8676828130
H    1.0       17.7268250462       18.4644563770       25.6138824872
N    7.0       20.5172627238       18.5696417165       25.6382940787
H    1.0       20.2019081646       17.6084246152       25.4838886295
H    1.0       21.4394327899       18.6653344785       25.2048452891
H    1.0       20.6391113891       18.6939751509       26.6473040258
 $end
$$$$
! Edit this basic GAMESS input file as needed.
! Conformer was generated by a VeraChem VCPack run 
! and contains     26 atoms.
!
 $contrl scftyp=rhf runtyp=optimize nzvar=0
  maxit=200 icharg=0 $end
 $system mwords=50 $end
 $basis gbasis=pm3 $end
 $statpt nstep=200 $end
 $guess guess=huckel $end
 $data
VM2 Rank=7      G=24.406            E=-8.339            -TS=32.745              
C1
C    6.0       20.8971417280       19.5641577926       19.3397246675
H    1.0       21.6801319920       20.2088188636       19.7599254472
H    1.0       21.3061723061       19.0767220062       18.4452176604
H    1.0       20.0618581546       20.2025024326       19.0234066504
C    6.0       20.4325262015       18.5122534875       20.3691704708
H    1.0       21.2809372962       17.8685654132       20.6407524901
H    1.0       19.6757080902       17.8616818150       19.9088308134
C    6.0       19.8509694517       19.1724891468       21.6387754471
H    1.0       20.6119897342       19.8275401632       22.0831616678
H    1.0       19.0022850371       19.8129324774       21.3613185393
C    6.0       19.3867991023       18.1185830543       22.6726591281
H    1.0       20.2365922332       17.4902137998       22.9709735275
H    1.0       18.6631077839       17.4429430797       22.1960452253
C    6.0       18.7225375351       18.7435852027       23.9262624053
H    1.0       17.8184904397       19.2834523531       23.6144569134
H    1.0       18.3839911844       17.9378616348       24.5911490656
C    6.0       19.6369571586       19.7072114484       24.7157468319
H    1.0       19.9487121864       20.5136405777       24.0454669455
C    6.0       18.8677774256       20.3322412431       25.8904200204
H    1.0       18.5346927512       19.5649440994       26.6004869739
H    1.0       17.9832019659       20.8738361228       25.5327581109
H    1.0       19.4994969325       21.0474222659       26.4315316394
N    7.0       20.8932913972       19.0374786245       25.2012410291
H    1.0       21.4331367305       18.6508963532       24.4222932854
H    1.0       21.4998931170       19.6946393822       25.6997742404
H    1.0       20.6820630960       18.2683095860       25.8423453580
 $end
$$$$
! Edit this basic GAMESS input file as needed.
! Conformer was generated by a VeraChem VCPack run 
! and contains     26 atoms.
!
 $contrl scftyp=rhf runtyp=optimize nzvar=0
  maxit=200 icharg=0 $end
 $system mwords=50 $end
 $basis gbasis=pm3 $end
 $statpt nstep=200 $end
 $guess guess=huckel $end
 $data
VM2 Rank=8      G=24.519            E=-8.104            -TS=32.622              
C1
C    6.0       19.8814727139       18.9331369354       18.9777508193
H    1.0       19.2375438138       18.0474556177       18.8992031162
H    1.0       19.4706404206       19.7081416952       18.3177292861
H    1.0       20.8781279680       18.6656621123       18.6031005659
C    6.0       19.9527721084       19.4393098243       20.4341292504
H    1.0       18.9458746998       19.7351757836       20.7566556335
H    1.0       20.5793168080       20.3412156995       20.4755797603
C    6.0       20.5250766171       18.3609683121       21.3845994409
H    1.0       19.8672092216       17.4809097540       21.3858135397
H    1.0       21.4935738352       18.0202689931       20.9929880414
C    6.0       20.7322900633       18.8570145102       22.8370464609
H    1.0       21.3920752565       19.7357453684       22.8342341094
H    1.0       21.2650736780       18.0723837127       23.3900341453
C    6.0       19.4089856211       19.1992757615       23.5692308654
H    1.0       18.8912201015       20.0002335451       23.0273484637
H    1.0       18.7410195097       18.3278184762       23.5567353070
C    6.0       19.6293502191       19.6629734204       25.0258699103
H    1.0       20.3251647585       20.5076285405       25.0151996902
C    6.0       18.3034444769       20.1384352417       25.6414605377
H    1.0       18.4587203464       20.5024387142       26.6645789420
H    1.0       17.5674850807       19.3253538761       25.6758515825
H    1.0       17.8751847287       20.9623959964       25.0571562822
N    7.0       20.2546081804       18.5968859943       25.8839127150
H    1.0       20.4079075237       18.9287185495       26.8403557271
H    1.0       19.6598320426       17.7659742524       25.9397255829
H    1.0       21.1621228076       18.3024318640       25.5137738127
 $end
