$$$$
! Edit this basic GAMESS input file as needed.
! Conformer was generated by a VeraChem VCPack run 
! and contains     16 atoms.
!
 $contrl scftyp=rhf runtyp=optimize nzvar=0
  maxit=200 icharg=0 $end
 $system mwords=50 $end
 $basis gbasis=pm3 $end
 $statpt nstep=200 $end
 $guess guess=huckel $end
 $data
VM2 Rank=1      G=30.218            E=15.547            -TS=14.671              
C1
C    6.0       19.6971449011       19.0163755540       20.9390803076
H    1.0       19.6785494126       19.9332633523       20.3343602286
H    1.0       20.1313217179       18.2118180267       20.3293667884
C    6.0       18.2981318601       18.6037588419       21.4167849049
H    1.0       17.7279901148       19.4984252886       21.7035499871
H    1.0       17.7317689700       18.0676419663       20.6431715850
C    6.0       18.5585604142       17.7366105832       22.6617127722
H    1.0       18.6890231819       16.6896822025       22.3577645746
H    1.0       17.7164323817       17.7774495654       23.3651855525
C    6.0       19.8755766401       18.2476407313       23.2814880211
H    1.0       20.5433304026       17.3965071613       23.4794367545
C    6.0       20.5129589503       19.1857075510       22.2344749612
H    1.0       20.4511204548       20.2286065401       22.5740000152
H    1.0       21.5724446607       18.9477917343       22.0750960980
O    8.0       19.6066272342       18.9649067386       24.4804590330
H    1.0       19.1943791385       18.3291555104       25.1026474499
 $end
