$$$$
! Edit this basic GAMESS input file as needed.
! Conformer was generated by a VeraChem VCPack run 
! and contains     17 atoms.
!
 $contrl scftyp=rhf runtyp=optimize nzvar=0
  maxit=200 icharg=0 $end
 $system mwords=50 $end
 $basis gbasis=pm3 $end
 $statpt nstep=200 $end
 $guess guess=huckel $end
 $data
VM2 Rank=1      G=-26.662           E=-36.827           -TS=10.165              
C1
C    6.0       20.1216976428       19.0267447107       25.0643070233
O    8.0       21.2294611796       19.3331988263       25.4592614478
O    8.0       19.0986431953       19.5456894235       25.4656776430
C    6.0       20.0075777936       17.9136228136       24.0272012105
H    1.0       19.0745677831       17.3709563599       24.2188901576
H    1.0       20.8160292268       17.1971730496       24.2138716657
C    6.0       20.0478945712       18.3594374425       22.5718659177
H    1.0       19.9647177787       17.5395471287       21.8612930777
C    6.0       20.1721873664       19.6233368893       22.1416645380
H    1.0       20.2548887211       20.4372032588       22.8608473844
C    6.0       20.2145140593       20.0872363571       20.6950347831
H    1.0       19.4069147293       20.8133311420       20.5304797184
H    1.0       21.1477343593       20.6414460461       20.5263342179
C    6.0       20.1010241917       18.9627335370       19.6419874366
H    1.0       20.1400043073       19.3804525734       18.6275768236
H    1.0       20.9258160192       18.2449405384       19.7414703761
H    1.0       19.1521639210       18.4201852469       19.7454690530
 $end
