$$$$
! Edit this basic GAMESS input file as needed.
! Conformer was generated by a VeraChem VCPack run 
! and contains     19 atoms.
!
 $contrl scftyp=rhf runtyp=optimize nzvar=0
  maxit=200 icharg=0 $end
 $system mwords=50 $end
 $basis gbasis=pm3 $end
 $statpt nstep=200 $end
 $guess guess=huckel $end
 $data
VM2 Rank=1      G=-26.151           E=-40.888           -TS=14.737              
C1
C    6.0       19.9538856790       19.2770577255       25.5145053167
O    8.0       20.6500896495       18.4763338322       26.1063862049
O    8.0       19.7318083521       20.4018270484       25.9166957560
C    6.0       19.3419102548       18.8540988368       24.1837303102
H    1.0       18.3778573109       19.3652886626       24.0740583671
H    1.0       19.1347245205       17.7781642909       24.2304225589
C    6.0       20.2548972878       19.1702554826       22.9735168349
H    1.0       20.4633332027       20.2488967868       22.9482849712
H    1.0       21.2201485903       18.6616637657       23.1045723411
C    6.0       19.6127665538       18.7327120909       21.6394043304
H    1.0       18.6474379208       19.2417311403       21.5119915195
H    1.0       19.4045151518       17.6542907248       21.6682344309
C    6.0       20.5244104722       19.0490146299       20.4355631339
H    1.0       20.7333686611       20.1273041075       20.4020979303
H    1.0       21.4905224870       18.5400698350       20.5584278791
C    6.0       19.8802317509       18.6107003538       19.1051981130
H    1.0       18.9261432137       19.1286621359       18.9413276711
H    1.0       20.5414561509       18.8429660008       18.2602463002
H    1.0       19.6890487845       17.5295762923       19.0987786719
 $end
$$$$
! Edit this basic GAMESS input file as needed.
! Conformer was generated by a VeraChem VCPack run 
! and contains     19 atoms.
!
 $contrl scftyp=rhf runtyp=optimize nzvar=0
  maxit=200 icharg=0 $end
 $system mwords=50 $end
 $basis gbasis=pm3 $end
 $statpt nstep=200 $end
 $guess guess=huckel $end
 $data
VM2 Rank=2      G=-25.408           E=-40.254           -TS=14.845              
C1
C    6.0       19.8291739944       19.3145421283       25.3694924370
O    8.0       20.1457203817       18.4558065370       26.1686545325
O    8.0       19.7258298000       20.4914910702       25.6529920905
C    6.0       19.5681915568       18.8951017831       23.9271627510
H    1.0       18.7935798682       19.5563332922       23.5226943274
H    1.0       19.1560892540       17.8789447131       23.9375111821
C    6.0       20.8441900845       18.9456611844       23.0471354116
H    1.0       21.2224243487       19.9765466717       23.0080945966
H    1.0       21.6285478114       18.3456065628       23.5289443582
C    6.0       20.6255739978       18.4140644364       21.6107737910
H    1.0       20.2556419470       17.3804467656       21.6531129690
H    1.0       21.5983169736       18.3753364361       21.1015749741
C    6.0       19.6560947406       19.2804734007       20.7759347304
H    1.0       18.6553152156       19.2709635885       21.2272803934
H    1.0       19.9983980715       20.3245502542       20.7758539009
C    6.0       19.5552254442       18.7748594600       19.3228542560
H    1.0       19.1884793882       17.7404799943       19.2918390985
H    1.0       18.8613466460       19.3980664433       18.7438596374
H    1.0       20.5339752469       18.8068578252       18.8264561204
 $end
$$$$
! Edit this basic GAMESS input file as needed.
! Conformer was generated by a VeraChem VCPack run 
! and contains     19 atoms.
!
 $contrl scftyp=rhf runtyp=optimize nzvar=0
  maxit=200 icharg=0 $end
 $system mwords=50 $end
 $basis gbasis=pm3 $end
 $statpt nstep=200 $end
 $guess guess=huckel $end
 $data
VM2 Rank=3      G=-25.370           E=-40.215           -TS=14.846              
C1
C    6.0       20.1746638632       19.3730598478       25.3607205615
O    8.0       20.1981805260       18.4646885436       26.1673171711
O    8.0       19.8984434888       20.5207185228       25.6485471003
C    6.0       20.4874525833       19.0508034855       23.9037809431
H    1.0       21.2109951667       18.2269994274       23.8852159032
H    1.0       20.9802914782       19.9267133779       23.4670475923
C    6.0       19.2240159929       18.6712443969       23.0884017193
H    1.0       18.7056726063       17.8505493849       23.6033796811
H    1.0       18.5261519431       19.5198668305       23.0767569794
C    6.0       19.5340624512       18.2291826476       21.6385820138
H    1.0       18.6043328203       17.8681629146       21.1778428755
H    1.0       20.2252096005       17.3753155166       21.6539100118
C    6.0       20.1217725288       19.3593685500       20.7640598855
H    1.0       19.4553244349       20.2325586549       20.7896466230
H    1.0       21.0909504239       19.6835894410       21.1652309635
C    6.0       20.3114085659       18.9029340058       19.3035906054
H    1.0       20.9961682788       18.0466792602       19.2458136774
H    1.0       19.3533691673       18.6068275529       18.8565240348
H    1.0       20.7319476959       19.7149124581       18.6961963271
 $end
$$$$
! Edit this basic GAMESS input file as needed.
! Conformer was generated by a VeraChem VCPack run 
! and contains     19 atoms.
!
 $contrl scftyp=rhf runtyp=optimize nzvar=0
  maxit=200 icharg=0 $end
 $system mwords=50 $end
 $basis gbasis=pm3 $end
 $statpt nstep=200 $end
 $guess guess=huckel $end
 $data
VM2 Rank=4      G=-25.273           E=-40.126           -TS=14.853              
C1
C    6.0       20.0105585423       19.3757545507       25.3742894801
O    8.0       20.8025760926       18.7067232880       26.0078113461
O    8.0       19.7500146314       20.5338735864       25.6333176076
C    6.0       19.3187845605       18.7318836658       24.1778876391
H    1.0       18.3202400663       19.1751222239       24.0820853706
H    1.0       19.1808283401       17.6662607428       24.3971887861
C    6.0       20.1097061683       18.9084030432       22.8581440603
H    1.0       20.2514361143       19.9807652160       22.6695338699
H    1.0       21.1098413862       18.4682002003       22.9729951649
C    6.0       19.3840318894       18.2495621425       21.6623258733
H    1.0       18.4036355590       18.7236097467       21.5170436314
H    1.0       19.1878771469       17.1950501576       21.9000643211
C    6.0       20.1897122141       18.3139003249       20.3442501697
H    1.0       21.1689807592       17.8355351830       20.4839830085
H    1.0       19.6631773677       17.7255382561       19.5801586771
C    6.0       20.3846159014       19.7518993984       19.8169738239
H    1.0       20.8827639492       19.7376711268       18.8389210461
H    1.0       19.4192546525       20.2607033413       19.6971709453
H    1.0       21.0061146973       20.3474484539       20.4972716161
 $end
$$$$
! Edit this basic GAMESS input file as needed.
! Conformer was generated by a VeraChem VCPack run 
! and contains     19 atoms.
!
 $contrl scftyp=rhf runtyp=optimize nzvar=0
  maxit=200 icharg=0 $end
 $system mwords=50 $end
 $basis gbasis=pm3 $end
 $statpt nstep=200 $end
 $guess guess=huckel $end
 $data
VM2 Rank=5      G=-25.257           E=-40.109           -TS=14.853              
C1
C    6.0       19.8728600229       19.2876659025       25.3816674487
O    8.0       20.1969785097       18.3193392420       26.0401012255
O    8.0       18.9513998552       20.0229701524       25.6757052703
C    6.0       20.6539091629       19.5858553615       24.1066994001
H    1.0       21.6934016223       19.2733766175       24.2631944270
H    1.0       20.6609263705       20.6722928466       23.9572556957
C    6.0       20.0648925877       18.8797015523       22.8605670812
H    1.0       20.0560373893       17.7940106073       23.0291966584
H    1.0       19.0199973934       19.1929642903       22.7353340990
C    6.0       20.8735385571       19.2025215306       21.5828599650
H    1.0       21.9286501923       18.9485263350       21.7537920822
H    1.0       20.8411345353       20.2830781032       21.3870222603
C    6.0       20.3802085848       18.4358518086       20.3340890301
H    1.0       21.0746891897       18.6287902870       19.5048023433
H    1.0       20.4166453760       17.3542318093       20.5240777739
C    6.0       18.9562127197       18.8380944501       19.8933105791
H    1.0       18.6877918610       18.3334959901       18.9561490411
H    1.0       18.2093563260       18.5580728799       20.6466614000
H    1.0       18.8879103995       19.9208681520       19.7257044424
 $end
$$$$
! Edit this basic GAMESS input file as needed.
! Conformer was generated by a VeraChem VCPack run 
! and contains     19 atoms.
!
 $contrl scftyp=rhf runtyp=optimize nzvar=0
  maxit=200 icharg=0 $end
 $system mwords=50 $end
 $basis gbasis=pm3 $end
 $statpt nstep=200 $end
 $guess guess=huckel $end
 $data
VM2 Rank=6      G=-24.722           E=-39.769           -TS=15.047              
C1
C    6.0       20.1397083252       19.2124589820       25.1802730936
O    8.0       20.9104829463       18.2974462623       25.3928946584
O    8.0       20.3192267473       20.3476000125       25.5751273089
C    6.0       18.8654862345       18.9175824442       24.3936659514
H    1.0       18.0325209278       19.3859395344       24.9311794550
H    1.0       18.6857133842       17.8357386161       24.4104859884
C    6.0       18.8927260770       19.4328928482       22.9312023508
H    1.0       17.8955142249       19.3034621386       22.4892174919
H    1.0       19.1020287388       20.5116972318       22.9293497209
C    6.0       19.9351381931       18.6959757518       22.0607792845
H    1.0       19.7294144312       17.6168707807       22.0762845700
H    1.0       20.9382771860       18.8348616622       22.4872123156
C    6.0       19.9230817509       19.2026108774       20.6034605336
H    1.0       18.9230550027       19.0623122255       20.1702252940
H    1.0       20.1309834159       20.2814552943       20.5848568195
C    6.0       20.9641497256       18.4654328216       19.7375968188
H    1.0       21.9783271176       18.6148447348       20.1307392369
H    1.0       20.7614363547       17.3866792064       19.7130666033
H    1.0       20.9423928769       18.8380793765       18.7052473827
 $end
$$$$
! Edit this basic GAMESS input file as needed.
! Conformer was generated by a VeraChem VCPack run 
! and contains     19 atoms.
!
 $contrl scftyp=rhf runtyp=optimize nzvar=0
  maxit=200 icharg=0 $end
 $system mwords=50 $end
 $basis gbasis=pm3 $end
 $statpt nstep=200 $end
 $guess guess=huckel $end
 $data
VM2 Rank=7      G=-24.721           E=-39.768           -TS=15.047              
C1
C    6.0       20.0469054613       19.4069187078       25.1611653861
O    8.0       21.0054813052       18.9084360384       25.7173377360
O    8.0       19.8125528590       20.5992301570       25.1659274508
C    6.0       19.0738838409       18.4808441736       24.4366262940
H    1.0       18.1247084729       19.0117555213       24.2945472004
H    1.0       18.8676721823       17.6353452038       25.1034994544
C    6.0       19.5996829891       17.9514186909       23.0770924080
H    1.0       20.5641232335       17.4476825602       23.2311549201
H    1.0       18.9032267268       17.1917183214       22.6971751540
C    6.0       19.7562639023       19.0709556325       22.0238000903
H    1.0       20.4649243974       19.8269397281       22.3894630512
H    1.0       18.7928065329       19.5797925898       21.8828609778
C    6.0       20.2501413731       18.5174114671       20.6709225287
H    1.0       21.2150867261       18.0100578143       20.8085705834
H    1.0       19.5429556553       17.7635060205       20.2981705916
C    6.0       20.4050882692       19.6367851325       19.6221281061
H    1.0       19.4467477772       20.1411704399       19.4416165809
H    1.0       21.1312442686       20.3896426461       19.9558104150
H    1.0       20.7572488031       19.2260099605       18.6669670677
 $end
$$$$
! Edit this basic GAMESS input file as needed.
! Conformer was generated by a VeraChem VCPack run 
! and contains     19 atoms.
!
 $contrl scftyp=rhf runtyp=optimize nzvar=0
  maxit=200 icharg=0 $end
 $system mwords=50 $end
 $basis gbasis=pm3 $end
 $statpt nstep=200 $end
 $guess guess=huckel $end
 $data
VM2 Rank=8      G=-24.443           E=-39.689           -TS=15.246              
C1
C    6.0       20.0072745118       19.2236370635       25.5349363661
O    8.0       19.9565824362       18.5580560563       26.5498720041
O    8.0       20.1008431695       20.4358084839       25.5404520253
C    6.0       19.9480830413       18.4725391994       24.2037624272
H    1.0       19.0189271323       17.8905764826       24.1975432441
H    1.0       20.7764818102       17.7543825154       24.1962423500
C    6.0       20.0162681193       19.3644733535       22.9355996268
H    1.0       19.1871668395       20.0854349654       22.9521366021
H    1.0       20.9465388673       19.9491368567       22.9508651921
C    6.0       19.9504240249       18.5266811708       21.6402115382
H    1.0       19.0197555560       17.9428706052       21.6271179951
H    1.0       20.7800822522       17.8065354241       21.6258102289
C    6.0       20.0183056925       19.4152454116       20.3807512033
H    1.0       19.1887940967       20.1358757834       20.3904871980
H    1.0       20.9489574593       19.9994631839       20.3891157217
C    6.0       19.9522190046       18.5755592610       19.0894148091
H    1.0       19.0158718201       18.0044107788       19.0397651274
H    1.0       20.0017057333       19.2228711809       18.2041765586
H    1.0       20.7892890915       17.8669474121       19.0383885608
 $end
