$$$$
! Edit this basic GAMESS input file as needed.
! Conformer was generated by a VeraChem VCPack run 
! and contains     17 atoms.
!
 $contrl scftyp=rhf runtyp=optimize nzvar=0
  maxit=200 icharg=0 $end
 $system mwords=50 $end
 $basis gbasis=pm3 $end
 $statpt nstep=200 $end
 $guess guess=huckel $end
 $data
VM2 Rank=1      G=15.406            E=-2.452            -TS=17.858              
C1
N    7.0       19.6262457567       18.8413434598       24.1383303344
H    1.0       20.0581056139       19.1907395634       24.9999144889
H    1.0       19.6531683356       17.8183285907       24.1874489564
H    1.0       18.6402046598       19.1179833633       24.1681400002
C    6.0       20.3271098713       19.3692454116       22.9024233847
H    1.0       21.3758085879       19.0639136383       22.9526970616
H    1.0       20.2866098269       20.4614945366       22.9319922575
C    6.0       19.7034258175       18.8637204068       21.5887568557
H    1.0       19.7319324115       17.7660839455       21.5694856733
H    1.0       18.6464117786       19.1588834306       21.5488729012
C    6.0       20.4461303676       19.4243285584       20.3560252248
H    1.0       21.5049991757       19.1320354103       20.3971073940
H    1.0       20.4206915527       20.5230840022       20.3764320642
C    6.0       19.8260881869       18.9213621634       19.0344642004
H    1.0       18.7755582257       19.2283187151       18.9486077967
H    1.0       19.8683778984       17.8262842464       18.9694839598
H    1.0       20.3674886095       19.3305081089       18.1715997782
 $end
$$$$
! Edit this basic GAMESS input file as needed.
! Conformer was generated by a VeraChem VCPack run 
! and contains     17 atoms.
!
 $contrl scftyp=rhf runtyp=optimize nzvar=0
  maxit=200 icharg=0 $end
 $system mwords=50 $end
 $basis gbasis=pm3 $end
 $statpt nstep=200 $end
 $guess guess=huckel $end
 $data
VM2 Rank=2      G=15.753            E=-2.202            -TS=17.955              
C1
N    7.0       19.2948574808       19.3739514666       23.6869195499
H    1.0       18.8518380270       20.1590057702       23.2013583384
H    1.0       19.4572054192       19.6752581034       24.6532045033
H    1.0       18.6078353429       18.6149093479       23.7242969694
C    6.0       20.5806263204       18.9410248998       23.0085739708
H    1.0       21.0149261966       18.1344259598       23.6055692511
H    1.0       21.2743695729       19.7859650389       23.0244581855
C    6.0       20.3888693830       18.4550348997       21.5582314517
H    1.0       21.3496288041       18.0702635458       21.1910579152
H    1.0       19.6880502029       17.6097386714       21.5441664127
C    6.0       19.8905691119       19.5726722172       20.6119854721
H    1.0       20.5811678629       20.4268670199       20.6524957071
H    1.0       18.9108699712       19.9408101741       20.9455190558
C    6.0       19.7740777039       19.0773165167       19.1542895556
H    1.0       19.0653699372       18.2425603092       19.0760975176
H    1.0       20.7458080241       18.7372521501       18.7731307842
H    1.0       19.4189248944       19.8825640365       18.4981806393
 $end
$$$$
! Edit this basic GAMESS input file as needed.
! Conformer was generated by a VeraChem VCPack run 
! and contains     17 atoms.
!
 $contrl scftyp=rhf runtyp=optimize nzvar=0
  maxit=200 icharg=0 $end
 $system mwords=50 $end
 $basis gbasis=pm3 $end
 $statpt nstep=200 $end
 $guess guess=huckel $end
 $data
VM2 Rank=3      G=15.775            E=-2.180            -TS=17.955              
C1
N    7.0       20.0682370521       18.3817549549       23.7016179674
H    1.0       20.7282310126       17.7517338176       23.2370447905
H    1.0       19.1639344013       17.9014675572       23.7348334420
H    1.0       20.3861235438       18.4834809406       24.6708694874
C    6.0       19.9722516817       19.7215565174       22.9969928657
H    1.0       20.9607240396       20.1883724474       23.0184794376
H    1.0       19.2876565044       20.3504545065       23.5726989427
C    6.0       19.4750531227       19.6274298278       21.5408406253
H    1.0       18.4844611348       19.1539148134       21.5212674258
H    1.0       19.3419585432       20.6460848448       21.1528330700
C    6.0       20.4505968992       18.8540856269       20.6226634843
H    1.0       20.5633627203       17.8204824161       20.9769678134
H    1.0       21.4469582324       19.3159603980       20.6690405062
C    6.0       19.9628612443       18.8351730730       19.1578850573
H    1.0       18.9814396233       18.3503507055       19.0744611338
H    1.0       20.6662775563       18.2821690753       18.5219393485
H    1.0       19.8761043297       19.8533212037       18.7565967227
 $end
$$$$
! Edit this basic GAMESS input file as needed.
! Conformer was generated by a VeraChem VCPack run 
! and contains     17 atoms.
!
 $contrl scftyp=rhf runtyp=optimize nzvar=0
  maxit=200 icharg=0 $end
 $system mwords=50 $end
 $basis gbasis=pm3 $end
 $statpt nstep=200 $end
 $guess guess=huckel $end
 $data
VM2 Rank=4      G=15.778            E=-2.177            -TS=17.955              
C1
N    7.0       19.5539244154       18.9865251588       24.0025881924
H    1.0       18.9631915306       18.1495216136       24.0129284785
H    1.0       19.0937758691       19.6814613064       24.5993888686
H    1.0       20.4351230587       18.7383259740       24.4625182844
C    6.0       19.7744708858       19.5083116860       22.5967211052
H    1.0       20.3838769587       20.4135791466       22.6639709277
H    1.0       18.8001115059       19.7807686122       22.1829216331
C    6.0       20.4648013681       18.4874007098       21.6719785461
H    1.0       21.4239654059       18.1903078483       22.1165194127
H    1.0       19.8535359016       17.5775318404       21.6057896996
C    6.0       20.7195342662       19.0454402128       20.2522210446
H    1.0       21.2830295723       18.3012662704       19.6719975191
H    1.0       21.3589337865       19.9373612245       20.3140869908
C    6.0       19.4162690646       19.3923222327       19.4964911117
H    1.0       18.7558788711       18.5182344911       19.4259220255
H    1.0       19.6407600180       19.7255120027       18.4749258328
H    1.0       18.8642512590       20.1998143257       19.9938064616
 $end
$$$$
! Edit this basic GAMESS input file as needed.
! Conformer was generated by a VeraChem VCPack run 
! and contains     17 atoms.
!
 $contrl scftyp=rhf runtyp=optimize nzvar=0
  maxit=200 icharg=0 $end
 $system mwords=50 $end
 $basis gbasis=pm3 $end
 $statpt nstep=200 $end
 $guess guess=huckel $end
 $data
VM2 Rank=5      G=15.814            E=-2.140            -TS=17.955              
C1
N    7.0       19.7513611997       18.7333048000       24.0063420093
H    1.0       18.7953307101       18.3650097906       24.0098029034
H    1.0       19.7194361704       19.6567694352       24.4488830028
H    1.0       20.3041944025       18.1285684111       24.6223886623
C    6.0       20.3312812694       18.7938404538       22.6072747017
H    1.0       20.3632903258       17.7749829120       22.2126303755
H    1.0       21.3569564612       19.1650003452       22.6823671799
C    6.0       19.5233304541       19.6952735704       21.6540728573
H    1.0       18.4927419949       19.3234140307       21.5799362574
H    1.0       19.4632228648       20.7059643752       22.0792419808
C    6.0       20.1469936353       19.7799204102       20.2413143153
H    1.0       21.1670417427       20.1835468522       20.3103762657
H    1.0       19.5713113021       20.4970450266       19.6393986500
C    6.0       20.1760334415       18.4176607656       19.5109961163
H    1.0       20.8172061684       17.6947344727       20.0309630685
H    1.0       20.5684676990       18.5352155317       18.4925743317
H    1.0       19.1682990016       17.9891033057       19.4339659536
 $end
$$$$
! Edit this basic GAMESS input file as needed.
! Conformer was generated by a VeraChem VCPack run 
! and contains     17 atoms.
!
 $contrl scftyp=rhf runtyp=optimize nzvar=0
  maxit=200 icharg=0 $end
 $system mwords=50 $end
 $basis gbasis=pm3 $end
 $statpt nstep=200 $end
 $guess guess=huckel $end
 $data
VM2 Rank=6      G=16.320            E=-1.810            -TS=18.131              
C1
N    7.0       19.6056579999       18.3341981672       23.4321074218
H    1.0       18.8598798777       18.2942273451       24.1341651365
H    1.0       20.4854600575       18.1454787814       23.9217112642
H    1.0       19.4475613990       17.5577665280       22.7835654037
C    6.0       19.6330598348       19.6695296722       22.7137805410
H    1.0       19.7669814656       20.4503306364       23.4674083319
H    1.0       18.6594014164       19.8204286858       22.2404713921
C    6.0       20.7494643008       19.7844860155       21.6553147789
H    1.0       20.7332685718       20.7994655737       21.2365590616
H    1.0       21.7249762301       19.6721785756       22.1467539972
C    6.0       20.6331342977       18.7561489123       20.5026864682
H    1.0       20.7398545905       17.7356459583       20.8949103885
H    1.0       21.4737295590       18.9042142412       19.8103130320
C    6.0       19.3076835669       18.8756372328       19.7161107901
H    1.0       18.4407494837       18.6455193364       20.3481076034
H    1.0       19.2967492921       18.1747602623       18.8713499975
H    1.0       19.1782928159       19.8882515260       19.3124553030
 $end
$$$$
! Edit this basic GAMESS input file as needed.
! Conformer was generated by a VeraChem VCPack run 
! and contains     17 atoms.
!
 $contrl scftyp=rhf runtyp=optimize nzvar=0
  maxit=200 icharg=0 $end
 $system mwords=50 $end
 $basis gbasis=pm3 $end
 $statpt nstep=200 $end
 $guess guess=huckel $end
 $data
VM2 Rank=7      G=16.365            E=-1.766            -TS=18.131              
C1
N    7.0       19.1396902187       18.9317722728       23.4232283314
H    1.0       18.9089909040       18.2313332499       24.1351486994
H    1.0       18.3575554488       18.9555375546       22.7628135043
H    1.0       19.1641591545       19.8399655981       23.8964773616
C    6.0       20.4515938832       18.6198052038       22.7293665809
H    1.0       20.3672995874       17.6301465815       22.2729962844
H    1.0       21.2305427827       18.5733940821       23.4952803536
C    6.0       20.8505647576       19.6548362119       21.6572398588
H    1.0       20.9724866631       20.6372224219       22.1324250570
H    1.0       21.8368706307       19.3841543832       21.2575702791
C    6.0       19.8416055884       19.7712509926       20.4876206331
H    1.0       20.2001469975       20.5375263074       19.7860686097
H    1.0       18.8724061720       20.1305712162       20.8593679343
C    6.0       19.6455455521       18.4423353189       19.7225445958
H    1.0       18.9753844242       18.5868753001       18.8652462032
H    1.0       19.2018904653       17.6693888549       20.3626013669
H    1.0       20.6017265542       18.0627428789       19.3395364428
 $end
$$$$
! Edit this basic GAMESS input file as needed.
! Conformer was generated by a VeraChem VCPack run 
! and contains     17 atoms.
!
 $contrl scftyp=rhf runtyp=optimize nzvar=0
  maxit=200 icharg=0 $end
 $system mwords=50 $end
 $basis gbasis=pm3 $end
 $statpt nstep=200 $end
 $guess guess=huckel $end
 $data
VM2 Rank=8      G=18.226            E=0.211             -TS=18.016              
C1
N    7.0       19.4442944499       18.2038228494       23.2130111317
H    1.0       19.3474531571       17.5462468566       22.4351548212
H    1.0       18.5073584829       18.5596619883       23.4251645369
H    1.0       19.7490988053       17.6639345078       24.0293673761
C    6.0       20.4117450369       19.3246384051       22.8846181991
H    1.0       21.4055202666       18.8940822428       22.7351711612
H    1.0       20.4545855062       19.9771206426       23.7609566334
C    6.0       20.0153670360       20.1640181117       21.6517600723
H    1.0       18.9413052950       20.3904260852       21.6810795821
H    1.0       20.5292274267       21.1316227137       21.7261600260
C    6.0       20.3949838200       19.5262625155       20.2909280439
H    1.0       21.4810838702       19.3628870190       20.2494929773
H    1.0       20.1658113833       20.2482198461       19.4945319012
C    6.0       19.6626096573       18.2012581184       19.9796825530
H    1.0       20.0159261170       17.3858574433       20.6215276388
H    1.0       19.8495719449       17.8979915490       18.9413037344
H    1.0       18.5771420192       18.3067219256       20.1053439860
 $end
