$$$$
! Edit this basic GAMESS input file as needed.
! Conformer was generated by a VeraChem VCPack run 
! and contains     20 atoms.
!
 $contrl scftyp=rhf runtyp=optimize nzvar=0
  maxit=200 icharg=0 $end
 $system mwords=50 $end
 $basis gbasis=pm3 $end
 $statpt nstep=200 $end
 $guess guess=huckel $end
 $data
VM2 Rank=1      G=-21.890           E=-37.139           -TS=15.249              
C1
C    6.0       20.4456249097       18.0660842050       18.7398882409
H    1.0       20.5838096267       17.2884342080       19.4880271686
H    1.0       20.6599045442       17.7974520243       17.7068768157
C    6.0       20.0331001874       19.2995081480       19.0535796373
H    1.0       19.9132161658       20.0361378446       18.2594563758
C    6.0       19.6971972089       19.8196533901       20.4412506031
H    1.0       18.6642666165       20.1927156416       20.4377203686
H    1.0       20.3270744160       20.6942192788       20.6522586784
C    6.0       19.8604644621       18.7896854024       21.5833943513
H    1.0       19.2167472472       17.9208543629       21.3888499946
H    1.0       20.8975849921       18.4277888391       21.6057236032
C    6.0       19.5002071122       19.3965361449       22.9570625904
H    1.0       18.4634923658       19.7606495870       22.9412275009
H    1.0       20.1408998787       20.2665263682       23.1576506351
C    6.0       19.6628844636       18.3671109283       24.1024451395
H    1.0       19.0191379940       17.4973643082       23.9243056032
H    1.0       20.6966335390       18.0030908725       24.1405863673
C    6.0       19.3129727174       18.9429781335       25.4698970851
O    8.0       20.1972365119       19.4749810026       26.1115346883
O    8.0       18.1613124269       18.8614626452       25.8489476640
 $end
$$$$
! Edit this basic GAMESS input file as needed.
! Conformer was generated by a VeraChem VCPack run 
! and contains     20 atoms.
!
 $contrl scftyp=rhf runtyp=optimize nzvar=0
  maxit=200 icharg=0 $end
 $system mwords=50 $end
 $basis gbasis=pm3 $end
 $statpt nstep=200 $end
 $guess guess=huckel $end
 $data
VM2 Rank=2      G=-21.882           E=-36.774           -TS=14.892              
C1
C    6.0       19.7354238813       18.4518415204       18.2412693945
H    1.0       20.2193532985       18.0463164201       17.3543439540
H    1.0       18.6525618690       18.3592020336       18.3077406007
C    6.0       20.4462571902       19.0371721228       19.2086115638
H    1.0       21.5295824416       19.1191174765       19.1228681914
C    6.0       19.8446002438       19.6233351271       20.4664047068
H    1.0       18.7575109543       19.7331561160       20.3524627863
H    1.0       20.2483826326       20.6312004323       20.6316636386
C    6.0       20.1458522066       18.7373542281       21.6932460818
H    1.0       19.7435326804       17.7294061236       21.5211770819
H    1.0       21.2332690839       18.6314156294       21.8094577580
C    6.0       19.5409688527       19.3233081990       22.9875764969
H    1.0       18.4530323755       19.4284280604       22.8736752422
H    1.0       19.9424226543       20.3314491149       23.1610639353
C    6.0       19.8424984671       18.4339168483       24.2188534171
H    1.0       19.4361723206       17.4266951416       24.0671396070
H    1.0       20.9256769564       18.3296130064       24.3546830582
C    6.0       19.2549465511       18.9919529914       25.5101188376
O    8.0       19.9340888681       19.7574445295       26.1654338607
O    8.0       18.1263637391       18.6616744334       25.8164856406
 $end
$$$$
! Edit this basic GAMESS input file as needed.
! Conformer was generated by a VeraChem VCPack run 
! and contains     20 atoms.
!
 $contrl scftyp=rhf runtyp=optimize nzvar=0
  maxit=200 icharg=0 $end
 $system mwords=50 $end
 $basis gbasis=pm3 $end
 $statpt nstep=200 $end
 $guess guess=huckel $end
 $data
VM2 Rank=3      G=-21.822           E=-36.714           -TS=14.893              
C1
C    6.0       19.8357475989       18.3568187486       18.2568778520
H    1.0       19.7746843491       17.2936684987       18.4839759720
H    1.0       19.5625856311       18.6706202170       17.2508028114
C    6.0       20.2276565743       19.2448069624       19.1742287279
H    1.0       20.2812096810       20.3047546698       18.9266357383
C    6.0       20.6226145426       18.8839654163       20.5889470320
H    1.0       21.5740669922       19.3714387134       20.8404457089
H    1.0       20.7902897182       17.8015161645       20.6725765712
C    6.0       19.5374431941       19.3153658070       21.5974890439
H    1.0       19.3732190448       20.3987379357       21.5166226387
H    1.0       18.5869597093       18.8282811532       21.3391127567
C    6.0       19.9263485440       18.9570198517       23.0483027584
H    1.0       20.8768944475       19.4433646507       23.3081946412
H    1.0       20.0892646037       17.8734238657       23.1314124266
C    6.0       18.8371645675       19.3893618313       24.0606014846
H    1.0       18.6717485774       20.4717425110       23.9998392336
H    1.0       17.8841132190       18.9017619088       23.8227903215
C    6.0       19.1982985054       19.0457417981       25.5012603877
O    8.0       19.8214027921       19.8648759035       26.1473324888
O    8.0       18.8643236810       17.9600436811       25.9329602248
 $end
$$$$
! Edit this basic GAMESS input file as needed.
! Conformer was generated by a VeraChem VCPack run 
! and contains     20 atoms.
!
 $contrl scftyp=rhf runtyp=optimize nzvar=0
  maxit=200 icharg=0 $end
 $system mwords=50 $end
 $basis gbasis=pm3 $end
 $statpt nstep=200 $end
 $guess guess=huckel $end
 $data
VM2 Rank=4      G=-21.276           E=-36.308           -TS=15.032              
C1
C    6.0       19.2310535680       18.4037279859       18.7284908095
H    1.0       20.0633855456       17.8372070091       18.3140236396
H    1.0       18.2507278884       18.2555557692       18.2788215359
C    6.0       19.4012681343       19.2463228083       19.7506142943
H    1.0       18.5550372002       19.8058903363       20.1481924876
C    6.0       20.7333377107       19.5075602599       20.4207902026
H    1.0       20.8633680592       20.5852357064       20.5874268455
H    1.0       21.5500217844       19.1989927717       19.7541811713
C    6.0       20.8757394723       18.7515593970       21.7610276902
H    1.0       20.7290571371       17.6760533506       21.5905079256
H    1.0       21.9036387646       18.8743298931       22.1287611884
C    6.0       19.8878187611       19.2503820519       22.8404859041
H    1.0       18.8539774292       19.0972258847       22.5022574961
H    1.0       20.0179147141       20.3310081071       22.9910836067
C    6.0       20.0917355145       18.5178194598       24.1894971491
H    1.0       19.9533141467       17.4379049989       24.0582262203
H    1.0       21.1144729085       18.6719910797       24.5538797965
C    6.0       19.1276113386       18.9910160611       25.2714390395
O    8.0       19.4622859138       19.9293455920       25.9673058446
O    8.0       18.0601495867       18.4202663841       25.3783490662
 $end
$$$$
! Edit this basic GAMESS input file as needed.
! Conformer was generated by a VeraChem VCPack run 
! and contains     20 atoms.
!
 $contrl scftyp=rhf runtyp=optimize nzvar=0
  maxit=200 icharg=0 $end
 $system mwords=50 $end
 $basis gbasis=pm3 $end
 $statpt nstep=200 $end
 $guess guess=huckel $end
 $data
VM2 Rank=5      G=-21.252           E=-36.284           -TS=15.032              
C1
C    6.0       21.2428209503       19.0104214719       18.9879699647
H    1.0       20.9772293294       18.1128027356       18.4318703058
H    1.0       22.2181746999       19.4519491087       18.7906486365
C    6.0       20.4088054140       19.5500844492       19.8806400711
H    1.0       20.6933304800       20.4506451479       20.4240786969
C    6.0       19.0371050890       18.9960421369       20.2019946148
H    1.0       18.7023615734       18.3402677887       19.3868501223
H    1.0       18.3067205274       19.8142758620       20.2576186711
C    6.0       19.0217767665       18.1925101894       21.5219013519
H    1.0       18.0409906223       17.7096696342       21.6305446675
H    1.0       19.7652532159       17.3853849369       21.4662186013
C    6.0       19.2948268631       19.0715477459       22.7639891269
H    1.0       18.5665633517       19.8933759590       22.8038552350
H    1.0       20.2900639101       19.5301676304       22.6874746676
C    6.0       19.2151488876       18.2535110469       24.0764384053
H    1.0       18.2222168282       17.7999489927       24.1808416066
H    1.0       19.9452328688       17.4354552180       24.0572106890
C    6.0       19.4823837933       19.0980090958       25.3171862036
O    8.0       20.6283378066       19.1943165737       25.7098372471
O    8.0       18.5397944296       19.6515572904       25.8480430145
 $end
$$$$
! Edit this basic GAMESS input file as needed.
! Conformer was generated by a VeraChem VCPack run 
! and contains     20 atoms.
!
 $contrl scftyp=rhf runtyp=optimize nzvar=0
  maxit=200 icharg=0 $end
 $system mwords=50 $end
 $basis gbasis=pm3 $end
 $statpt nstep=200 $end
 $guess guess=huckel $end
 $data
VM2 Rank=6      G=-21.153           E=-36.159           -TS=15.006              
C1
C    6.0       19.7219084399       18.9160671941       18.3062722107
H    1.0       20.2157242101       18.8210657909       17.3406738821
H    1.0       18.7434807784       19.3935078257       18.3237952009
C    6.0       20.2984222631       18.4654806469       19.4235346522
H    1.0       21.2788999189       17.9913916757       19.3843673574
C    6.0       19.6742238275       18.5615027962       20.7978999807
H    1.0       19.7367426462       17.5830763500       21.2906702974
H    1.0       18.6069449372       18.8073442823       20.7137852210
C    6.0       20.3831771490       19.6337751750       21.6554710967
H    1.0       21.4372983664       19.3576232488       21.7953337109
H    1.0       20.3821657891       20.5844404073       21.1044947220
C    6.0       19.7173011695       19.8614862533       23.0334898061
H    1.0       18.6663334157       20.1506773557       22.8948359798
H    1.0       20.2099705421       20.7109475700       23.5266286109
C    6.0       19.7957812782       18.6280670275       23.9702322279
H    1.0       19.2357258451       17.7859291672       23.5484703748
H    1.0       20.8371615556       18.3035391234       24.0824383150
C    6.0       19.2353183038       18.9074720694       25.3601180274
O    8.0       19.9948837659       19.3258923073       26.2114222502
O    8.0       18.0499838030       18.7182565303       25.5495597481
 $end
$$$$
! Edit this basic GAMESS input file as needed.
! Conformer was generated by a VeraChem VCPack run 
! and contains     20 atoms.
!
 $contrl scftyp=rhf runtyp=optimize nzvar=0
  maxit=200 icharg=0 $end
 $system mwords=50 $end
 $basis gbasis=pm3 $end
 $statpt nstep=200 $end
 $guess guess=huckel $end
 $data
VM2 Rank=7      G=-21.139           E=-36.251           -TS=15.112              
C1
C    6.0       18.6393400842       19.5606331500       19.3943029709
H    1.0       18.7040860492       20.6146879122       19.6592468019
H    1.0       17.7307317015       19.2233882015       18.8985202071
C    6.0       19.6321691477       18.7103751538       19.6688277279
H    1.0       19.5463577784       17.6585456521       19.3973783959
C    6.0       20.9226961420       19.1045899585       20.3552041545
H    1.0       21.0141629535       20.1979852392       20.4080828312
H    1.0       21.7710970906       18.7516804400       19.7539428852
C    6.0       21.0363817691       18.5080771805       21.7761848575
H    1.0       20.9440797528       17.4145665805       21.7232732560
H    1.0       22.0394344545       18.7204024673       22.1707554711
C    6.0       19.9773034334       19.0766517191       22.7481192729
H    1.0       18.9685249772       18.8473077682       22.3779894795
H    1.0       20.0602521123       20.1716116479       22.7864540446
C    6.0       20.1375402637       18.5003492102       24.1764807056
H    1.0       20.0445222185       17.4078645705       24.1562082528
H    1.0       21.1341034715       18.7340273232       24.5698526323
C    6.0       19.1032205545       19.0462194987       25.1543875379
O    8.0       19.3631569778       20.0729974930       25.7501296426
O    8.0       18.0591916275       18.4381066362       25.2843631302
 $end
$$$$
! Edit this basic GAMESS input file as needed.
! Conformer was generated by a VeraChem VCPack run 
! and contains     20 atoms.
!
 $contrl scftyp=rhf runtyp=optimize nzvar=0
  maxit=200 icharg=0 $end
 $system mwords=50 $end
 $basis gbasis=pm3 $end
 $statpt nstep=200 $end
 $guess guess=huckel $end
 $data
VM2 Rank=8      G=-21.129           E=-36.241           -TS=15.112              
C1
C    6.0       20.3964851030       17.5035988184       19.6230377538
H    1.0       21.4119261906       17.4449336281       20.0114397787
H    1.0       19.9723675502       16.5991525776       19.1903646577
C    6.0       19.6937678051       18.6381894536       19.6769143787
H    1.0       18.6777986056       18.6750349895       19.2846880062
C    6.0       20.2149481661       19.9330854546       20.2630818649
H    1.0       20.0721188566       20.7405727346       19.5327345692
H    1.0       21.2963136070       19.8676254452       20.4448451363
C    6.0       19.4934098299       20.3144030245       21.5753017955
H    1.0       19.8214108868       21.3170303380       21.8819551286
H    1.0       18.4118024967       20.3790905152       21.3935724270
C    6.0       19.7730781074       19.3156902331       22.7215736524
H    1.0       20.8561782986       19.2397369104       22.8901333938
H    1.0       19.4247705809       18.3130948304       22.4374714435
C    6.0       19.0781253200       19.7406206333       24.0385757175
H    1.0       19.4261324130       20.7335755396       24.3474730301
H    1.0       17.9938453525       19.8086053669       23.8892444612
C    6.0       19.3389139900       18.7703265277       25.1851407262
O    8.0       20.3230531731       18.9492893121       25.8752060766
O    8.0       18.5592185054       17.8527965427       25.3491680345
 $end
