$$$$
! Edit this basic GAMESS input file as needed.
! Conformer was generated by a VeraChem VCPack run 
! and contains     22 atoms.
!
 $contrl scftyp=rhf runtyp=optimize nzvar=0
  maxit=200 icharg=0 $end
 $system mwords=50 $end
 $basis gbasis=pm3 $end
 $statpt nstep=200 $end
 $guess guess=huckel $end
 $data
VM2 Rank=1      G=47.363            E=20.694            -TS=26.669              
C1
C    6.0       19.8825186768       19.0489895495       20.9026203628
H    1.0       20.8932054472       19.1565925313       20.4858299286
H    1.0       19.2823605353       18.5759991879       20.1133895305
C    6.0       19.2916935247       20.4492726683       21.1835772567
H    1.0       19.3610548026       21.0411906054       20.2607451366
H    1.0       18.2185379681       20.3558803627       21.3989389625
C    6.0       19.9805990911       21.2344374622       22.3249372799
H    1.0       19.6223829418       22.2719656861       22.2799408905
H    1.0       21.0669568195       21.2803169914       22.1687940666
C    6.0       19.6466397496       20.6732369295       23.7282572613
H    1.0       19.7184973868       21.4904424646       24.4577413092
H    1.0       18.5973605083       20.3506322939       23.7486635058
C    6.0       20.5644088815       19.5313035340       24.2234465680
H    1.0       21.4771098112       19.9849527033       24.6358413584
C    6.0       21.0067827746       18.5018446282       23.1577922625
H    1.0       21.8883528321       18.8894527293       22.6311599888
H    1.0       21.3563943330       17.5991042412       23.6766424788
C    6.0       19.9264516972       18.1000561588       22.1234830421
H    1.0       20.1659948717       17.0930954064       21.7555067424
H    1.0       18.9370936759       18.0248567785       22.5939672424
O    8.0       19.8869056044       18.8388590695       25.2628859669
H    1.0       19.1422650391       18.3714160367       24.8326920161
 $end
$$$$
! Edit this basic GAMESS input file as needed.
! Conformer was generated by a VeraChem VCPack run 
! and contains     22 atoms.
!
 $contrl scftyp=rhf runtyp=optimize nzvar=0
  maxit=200 icharg=0 $end
 $system mwords=50 $end
 $basis gbasis=pm3 $end
 $statpt nstep=200 $end
 $guess guess=huckel $end
 $data
VM2 Rank=2      G=47.387            E=20.718            -TS=26.669              
C1
C    6.0       19.6680483954       19.0240118417       20.9215637947
H    1.0       19.9307301517       18.8837853560       19.8641463342
H    1.0       18.7047420075       18.5145800010       21.0604435654
C    6.0       19.4894009764       20.5379413637       21.1763147511
H    1.0       20.3872267677       21.0730475615       20.8381555226
H    1.0       18.6693291827       20.8979440835       20.5401735803
C    6.0       19.1809926367       20.9231099506       22.6424108326
H    1.0       18.3220536937       20.3539621105       23.0220604376
H    1.0       18.8759758481       21.9783821568       22.6535149997
C    6.0       20.4080402066       20.7691424610       23.5746090225
H    1.0       21.3173880972       21.0516739946       23.0287060428
H    1.0       20.3270087055       21.4969337607       24.3932233745
C    6.0       20.6080390755       19.3660693783       24.1930663384
H    1.0       21.6587994243       19.2969501932       24.5093175544
C    6.0       20.3091709658       18.1641394903       23.2670148462
H    1.0       20.8272128603       17.2916048756       23.6858862773
H    1.0       19.2398926623       17.9172727959       23.3013483086
C    6.0       20.7460449142       18.3355623943       21.7920446930
H    1.0       21.7033602959       18.8701761655       21.7257355969
H    1.0       20.9256249081       17.3362355912       21.3726314699
O    8.0       19.7762628294       19.2580231201       25.3399757214
H    1.0       18.8641520164       19.4246934730       25.0263971151
 $end
$$$$
! Edit this basic GAMESS input file as needed.
! Conformer was generated by a VeraChem VCPack run 
! and contains     22 atoms.
!
 $contrl scftyp=rhf runtyp=optimize nzvar=0
  maxit=200 icharg=0 $end
 $system mwords=50 $end
 $basis gbasis=pm3 $end
 $statpt nstep=200 $end
 $guess guess=huckel $end
 $data
VM2 Rank=3      G=47.470            E=20.456            -TS=27.013              
C1
C    6.0       19.9765738666       19.1865969037       21.0729410894
H    1.0       20.9200072290       19.6951174769       20.8324742906
H    1.0       19.5990684599       18.7849614793       20.1226163507
C    6.0       18.9304510185       20.1892628488       21.6112461425
H    1.0       18.4880330080       20.7247974578       20.7599419590
H    1.0       18.0964160510       19.6368626987       22.0635479752
C    6.0       19.4660280821       21.2481733671       22.6080115032
H    1.0       18.6328138835       21.5820512849       23.2417257965
H    1.0       19.7732589886       22.1365022533       22.0393212306
C    6.0       20.6595908096       20.8354401363       23.5114846280
H    1.0       21.5881271683       20.8958417176       22.9291382820
H    1.0       20.7649577346       21.5917551664       24.3000829129
C    6.0       20.5856347463       19.4459718656       24.1851926596
H    1.0       21.2554826693       19.4691203291       25.0567711011
C    6.0       21.0851475601       18.3068686892       23.2680240586
H    1.0       22.1060254474       18.5417919016       22.9398786477
H    1.0       21.1716534396       17.3942646424       23.8721048538
C    6.0       20.2185025839       17.9903778424       22.0240191015
H    1.0       20.7217246860       17.1953663749       21.4570652960
H    1.0       19.2563914808       17.5642342940       22.3390150170
O    8.0       19.2640713328       19.1753083468       24.6260808171
H    1.0       18.7216045793       19.2541069145       23.8162641804
 $end
$$$$
! Edit this basic GAMESS input file as needed.
! Conformer was generated by a VeraChem VCPack run 
! and contains     22 atoms.
!
 $contrl scftyp=rhf runtyp=optimize nzvar=0
  maxit=200 icharg=0 $end
 $system mwords=50 $end
 $basis gbasis=pm3 $end
 $statpt nstep=200 $end
 $guess guess=huckel $end
 $data
VM2 Rank=4      G=47.498            E=20.485            -TS=27.013              
C1
C    6.0       19.2811231272       18.8974018843       21.3797357199
H    1.0       19.0867495187       18.5182468431       20.3669624317
H    1.0       18.3217071332       18.8068477871       21.9057186912
C    6.0       19.6718902394       20.3897128566       21.2807484123
H    1.0       20.7220157952       20.5011169381       20.9785720076
H    1.0       19.0762243203       20.8402634757       20.4750644992
C    6.0       19.3812874542       21.1820831483       22.5775603965
H    1.0       18.3601440161       20.9706115513       22.9225619984
H    1.0       19.3953792401       22.2538869020       22.3372477320
C    6.0       20.3858551692       20.9417341618       23.7316253037
H    1.0       21.3654322605       21.3420335980       23.4396467429
H    1.0       20.0691614551       21.5379910267       24.5973201692
C    6.0       20.5672180193       19.4786238360       24.1949631731
H    1.0       21.2303410310       19.5027561105       25.0716430822
C    6.0       21.2479108982       18.5908956636       23.1279252292
H    1.0       22.0434442350       19.1707643369       22.6422971088
H    1.0       21.7638984069       17.7713158003       23.6446917368
C    6.0       20.3342858893       17.9696245112       22.0368175461
H    1.0       20.9859801758       17.5702413005       21.2476939447
H    1.0       19.8154129776       17.0962734048       22.4555577013
O    8.0       19.3164292032       18.9279239382       24.5776242192
H    1.0       18.8183244521       18.8615836926       23.7387116281
 $end
$$$$
! Edit this basic GAMESS input file as needed.
! Conformer was generated by a VeraChem VCPack run 
! and contains     22 atoms.
!
 $contrl scftyp=rhf runtyp=optimize nzvar=0
  maxit=200 icharg=0 $end
 $system mwords=50 $end
 $basis gbasis=pm3 $end
 $statpt nstep=200 $end
 $guess guess=huckel $end
 $data
VM2 Rank=5      G=47.628            E=20.970            -TS=26.657              
C1
C    6.0       19.8709681662       19.1040710512       20.8414786793
H    1.0       20.3616338478       18.9261511361       19.8748164839
H    1.0       18.8000935782       18.9296097756       20.6692538531
C    6.0       20.0921679515       20.5825328456       21.2421336886
H    1.0       21.1479633390       20.7714684718       21.4792155517
H    1.0       19.8618204398       21.2034883521       20.3656256644
C    6.0       19.1751479347       21.0346690221       22.4024673356
H    1.0       18.1926464393       20.5540385278       22.3001983153
H    1.0       18.9860327024       22.1127261702       22.3080803482
C    6.0       19.7368379203       20.7695798861       23.8215216165
H    1.0       20.4182455629       21.5886149731       24.0858665513
H    1.0       18.9026817870       20.8273696382       24.5337808083
C    6.0       20.4966309827       19.4386825380       24.0270820990
H    1.0       21.5263083945       19.5657272448       23.6631459613
C    6.0       19.8777171675       18.2249501155       23.2989261937
H    1.0       20.1403253952       17.3143526313       23.8538758897
H    1.0       18.7819454185       18.2857803546       23.3108864521
C    6.0       20.4028626325       18.0614336072       21.8514675132
H    1.0       21.5011829666       18.0856365494       21.8567979352
H    1.0       20.1270140654       17.0616395186       21.4894506931
O    8.0       20.5336672447       19.1620809344       25.4219228741
H    1.0       20.9741874892       19.9261536938       25.8496122170
 $end
$$$$
! Edit this basic GAMESS input file as needed.
! Conformer was generated by a VeraChem VCPack run 
! and contains     22 atoms.
!
 $contrl scftyp=rhf runtyp=optimize nzvar=0
  maxit=200 icharg=0 $end
 $system mwords=50 $end
 $basis gbasis=pm3 $end
 $statpt nstep=200 $end
 $guess guess=huckel $end
 $data
VM2 Rank=6      G=47.662            E=20.999            -TS=26.663              
C1
C    6.0       19.8722180324       19.1044649646       20.8421605834
H    1.0       18.8013199884       18.9312567181       20.6687927230
H    1.0       20.3635443276       18.9262961246       19.8758746677
C    6.0       20.0945067497       20.5828112741       21.2430799881
H    1.0       21.1500973918       20.7706111014       21.4819699561
H    1.0       19.8665018948       21.2038988451       20.3660571195
C    6.0       19.1760854560       21.0367986116       22.4017171344
H    1.0       18.1921021801       20.5600297237       22.2959900561
H    1.0       18.9914106144       22.1157274220       22.3088036933
C    6.0       19.7326536588       20.7670454932       23.8221059916
H    1.0       20.4124584473       21.5843923926       24.0953441964
H    1.0       18.8977761735       20.8197047723       24.5336653783
C    6.0       20.4953740183       19.4381412201       24.0259829701
H    1.0       21.5233411311       19.5706455859       23.6591467951
C    6.0       19.8750309859       18.2240782394       23.2987609597
H    1.0       20.1301758297       17.3096342324       23.8502857501
H    1.0       18.7793071603       18.2898293620       23.3066443822
C    6.0       20.4020084190       18.0606140627       21.8521257790
H    1.0       21.5003725658       18.0834298082       21.8580772389
H    1.0       20.1251286732       17.0615013300       21.4888938913
O    8.0       20.5381226798       19.1640461343       25.4210665939
H    1.0       21.0890521171       18.3613789394       25.5342973935
 $end
$$$$
! Edit this basic GAMESS input file as needed.
! Conformer was generated by a VeraChem VCPack run 
! and contains     22 atoms.
!
 $contrl scftyp=rhf runtyp=optimize nzvar=0
  maxit=200 icharg=0 $end
 $system mwords=50 $end
 $basis gbasis=pm3 $end
 $statpt nstep=200 $end
 $guess guess=huckel $end
 $data
VM2 Rank=7      G=47.680            E=21.017            -TS=26.663              
C1
C    6.0       20.3584074189       19.2285590165       20.9955058847
H    1.0       21.4157573771       19.4313099056       21.2134753983
H    1.0       20.3227473723       18.8935461107       19.9498484489
C    6.0       19.5132545359       20.5207134495       21.1036997254
H    1.0       19.7944792234       21.1926410886       20.2813367528
H    1.0       18.4542023439       20.2777802399       20.9416191218
C    6.0       19.6622129897       21.2966223495       22.4326496326
H    1.0       18.9673723623       22.1472728000       22.4122244618
H    1.0       20.6687243303       21.7332909183       22.4893540751
C    6.0       19.3881452772       20.4652295954       23.7096979779
H    1.0       19.2974260471       21.1667849141       24.5493852347
H    1.0       18.4216132039       19.9500271063       23.6363583110
C    6.0       20.5171620514       19.4564697408       24.0184894462
H    1.0       21.4693838827       19.8926663566       23.6840498012
C    6.0       20.3500346596       18.0781143241       23.3391501137
H    1.0       21.3275032713       17.5790521993       23.3576310881
H    1.0       19.6815375665       17.4526664892       23.9458101857
C    6.0       19.8208527722       18.0817385098       21.8831308595
H    1.0       18.7227531885       18.1103608647       21.8913582976
H    1.0       20.0863529224       17.1201135761       21.4231179663
O    8.0       20.5759302952       19.2505530144       25.4246763600
H    1.0       20.7578576600       20.1239471466       25.8305109827
 $end
$$$$
! Edit this basic GAMESS input file as needed.
! Conformer was generated by a VeraChem VCPack run 
! and contains     22 atoms.
!
 $contrl scftyp=rhf runtyp=optimize nzvar=0
  maxit=200 icharg=0 $end
 $system mwords=50 $end
 $basis gbasis=pm3 $end
 $statpt nstep=200 $end
 $guess guess=huckel $end
 $data
VM2 Rank=8      G=47.689            E=21.017            -TS=26.672              
C1
C    6.0       19.5785339939       19.1193508288       21.0158367913
H    1.0       19.6449610957       18.8662737763       19.9488723415
H    1.0       18.5133611836       19.0574739620       21.2771240350
C    6.0       20.1080318642       20.5609456617       21.1996507348
H    1.0       21.2049795816       20.5431872760       21.2556445060
H    1.0       19.8702007259       21.1443298465       20.2995941615
C    6.0       19.5371515721       21.3181665352       22.4230601689
H    1.0       18.5666258755       21.7554422047       22.1513821979
H    1.0       20.1978434170       22.1691361732       22.6382653878
C    6.0       19.3461211298       20.4871265138       23.7156772037
H    1.0       19.2545822697       21.1878070473       24.5560783126
H    1.0       18.3849510157       19.9590965651       23.6675324700
C    6.0       20.4699827099       19.4666681572       24.0056819651
H    1.0       21.4327749210       19.8683630970       23.6585022899
C    6.0       20.2107549766       18.0983565224       23.3357228403
H    1.0       20.8900905031       17.3575314994       23.7777544640
H    1.0       19.1958027100       17.7607415000       23.5825176078
C    6.0       20.4017440492       18.0695414970       21.8003464744
H    1.0       20.1279690059       17.0687538991       21.4395160461
H    1.0       21.4676671770       18.1914964701       21.5641456708
O    8.0       20.5336797043       19.2578442839       25.4110238215
H    1.0       20.7547117261       20.1231731828       25.8147368801
 $end
