$$$$
! Edit this basic GAMESS input file as needed.
! Conformer was generated by a VeraChem VCPack run 
! and contains     23 atoms.
!
 $contrl scftyp=rhf runtyp=optimize nzvar=0
  maxit=200 icharg=0 $end
 $system mwords=50 $end
 $basis gbasis=pm3 $end
 $statpt nstep=200 $end
 $guess guess=huckel $end
 $data
VM2 Rank=1      G=37.916            E=10.396            -TS=27.520              
C1
N    7.0       19.7413956139       18.6609931684       26.4278242257
H    1.0       20.7320789910       18.4174625616       26.5284369926
H    1.0       19.2107018348       17.7844830341       26.4590970553
H    1.0       19.4802548931       19.1972402276       27.2622934747
C    6.0       19.4763424712       19.4375948541       25.1540350885
H    1.0       20.0477300221       20.3686043457       25.2013105492
H    1.0       18.4124349201       19.6883106561       25.1268223226
C    6.0       19.8579193542       18.6596119761       23.8821380960
H    1.0       20.9232590826       18.3957862665       23.9214808271
H    1.0       19.2937314839       17.7180333569       23.8471822832
C    6.0       19.5728745259       19.4846748242       22.6076946393
H    1.0       20.1350097387       20.4281282780       22.6489500520
H    1.0       18.5071771623       19.7511444979       22.5747564861
C    6.0       19.9525269829       18.7125084492       21.3237051771
H    1.0       21.0181078793       18.4460919742       21.3564376464
H    1.0       19.3904992292       17.7691522865       21.2822827325
C    6.0       19.6672886121       19.5379193364       20.0493042864
H    1.0       20.2292708577       20.4817858813       20.0848474187
H    1.0       18.6018222633       19.8048652906       20.0106774344
C    6.0       20.0476524397       18.7636973916       18.7692984870
H    1.0       21.1162559376       18.5121531821       18.7629057221
H    1.0       19.8380025762       19.3655392029       17.8754973393
H    1.0       19.4761279974       17.8298815378       18.6882048358
 $end
