$$$$
! Edit this basic GAMESS input file as needed.
! Conformer was generated by a VeraChem VCPack run 
! and contains     13 atoms.
!
 $contrl scftyp=rhf runtyp=optimize nzvar=0
  maxit=200 icharg=0 $end
 $system mwords=50 $end
 $basis gbasis=pm3 $end
 $statpt nstep=200 $end
 $guess guess=huckel $end
 $data
VM2 Rank=1      G=16.554            E=6.694             -TS=9.860               
C1
C    6.0       19.7183880710       18.9886977780       20.9308458759
H    1.0       18.7845003309       19.2996023871       20.4442472779
H    1.0       20.4604115455       18.7657164342       20.1549474095
C    6.0       19.5459588702       17.9070188520       22.0477919256
H    1.0       20.4631790929       17.3616272919       22.3028379457
H    1.0       18.7360009463       17.1846118667       21.8985638731
C    6.0       19.2225964551       19.1061531062       22.9894438563
H    1.0       18.1790586618       19.4457217078       22.9366863439
C    6.0       20.1960053619       19.9253054127       22.0892723846
H    1.0       21.2554003938       19.8236414508       22.3556018523
H    1.0       19.9609453238       20.9895102771       21.9789286479
O    8.0       19.6300512418       18.9478248510       24.3286459577
H    1.0       19.0296041133       18.2889505057       24.7391959334
 $end
