$$$$
! Edit this basic GAMESS input file as needed.
! Conformer was generated by a VeraChem VCPack run 
! and contains     20 atoms.
!
 $contrl scftyp=rhf runtyp=optimize nzvar=0
  maxit=200 icharg=0 $end
 $system mwords=50 $end
 $basis gbasis=pm3 $end
 $statpt nstep=200 $end
 $guess guess=huckel $end
 $data
VM2 Rank=1      G=27.007            E=4.319             -TS=22.689              
C1
N    7.0       19.7358161692       18.9390315245       25.6478579673
H    1.0       19.5332247340       17.9360484342       25.7059031626
H    1.0       20.2631807127       19.1850006925       26.4922424508
H    1.0       18.8386518523       19.4312891598       25.7041376460
C    6.0       20.4972459668       19.2912382627       24.3858497791
H    1.0       21.4511174932       18.7572002369       24.4070347910
H    1.0       20.7044114593       20.3646574981       24.4051200410
C    6.0       19.7325560772       18.9344789278       23.0985122237
H    1.0       19.5126480679       17.8585368149       23.0909739293
H    1.0       18.7685515589       19.4604756111       23.0890314506
C    6.0       20.5420969619       19.3089769188       21.8371151485
H    1.0       21.5080443727       18.7850485533       21.8524757460
H    1.0       20.7647893106       20.3850902467       21.8505079591
C    6.0       19.7838683273       18.9551588470       20.5381007672
H    1.0       19.5609847878       17.8790413236       20.5195949879
H    1.0       18.8177617751       19.4788658836       20.5176554879
C    6.0       20.5964164977       19.3311155192       19.2805641142
H    1.0       20.0420563794       19.0724460645       18.3690722713
H    1.0       20.8056252718       20.4084645467       19.2528970101
H    1.0       21.5547094575       18.7961111065       19.2548747407
 $end
$$$$
! Edit this basic GAMESS input file as needed.
! Conformer was generated by a VeraChem VCPack run 
! and contains     20 atoms.
!
 $contrl scftyp=rhf runtyp=optimize nzvar=0
  maxit=200 icharg=0 $end
 $system mwords=50 $end
 $basis gbasis=pm3 $end
 $statpt nstep=200 $end
 $guess guess=huckel $end
 $data
VM2 Rank=2      G=27.308            E=4.519             -TS=22.789              
C1
N    7.0       20.6067312553       18.3918339263       25.0323891125
H    1.0       20.9676020837       18.5356963696       25.9813871301
H    1.0       19.9884935873       17.5753726395       25.0695694263
H    1.0       21.4064367547       18.1395983622       24.4442660814
C    6.0       19.8880514062       19.6213969932       24.5112769177
H    1.0       20.5937056577       20.4565135925       24.5202343659
H    1.0       19.0787271812       19.8528212510       25.2091664288
C    6.0       19.3062925777       19.4492017550       23.0944381053
H    1.0       18.6021334754       18.6065498499       23.0872764616
H    1.0       18.7231357783       20.3463511901       22.8474185573
C    6.0       20.3992734280       19.2367706697       22.0199807237
H    1.0       20.9645822002       18.3207704165       22.2376514009
H    1.0       21.1155401916       20.0694236620       22.0565129343
C    6.0       19.7979610651       19.1369246253       20.6001595414
H    1.0       19.0799422032       18.3057890665       20.5588474649
H    1.0       19.2356817469       20.0526987565       20.3694636127
C    6.0       20.8896902678       18.9238720305       19.5297555994
H    1.0       21.6047689165       19.7568399076       19.5236269458
H    1.0       21.4472085456       17.9961189432       19.7131721201
H    1.0       20.4435005773       18.8560481377       18.5290803104
 $end
$$$$
! Edit this basic GAMESS input file as needed.
! Conformer was generated by a VeraChem VCPack run 
! and contains     20 atoms.
!
 $contrl scftyp=rhf runtyp=optimize nzvar=0
  maxit=200 icharg=0 $end
 $system mwords=50 $end
 $basis gbasis=pm3 $end
 $statpt nstep=200 $end
 $guess guess=huckel $end
 $data
VM2 Rank=3      G=27.347            E=4.558             -TS=22.789              
C1
N    7.0       19.8799799523       19.9563029212       25.0305061789
H    1.0       20.2036633082       20.7289350989       24.4411759991
H    1.0       18.8572573126       20.0106078260       25.0665728095
H    1.0       20.2217595689       20.1411282117       25.9794785366
C    6.0       20.3564657964       18.6129785990       24.5125079601
H    1.0       20.0105824826       17.8466406568       25.2115801653
H    1.0       21.4497851075       18.6135237553       24.5225209899
C    6.0       19.8509787227       18.2766959034       23.0958499258
H    1.0       20.1606285141       17.2518984827       22.8511496324
H    1.0       18.7528641456       18.2821220765       23.0876417239
C    6.0       20.3946504234       19.2467979594       22.0199695120
H    1.0       21.4929084216       19.2571200556       22.0574828247
H    1.0       20.0591319255       20.2700642263       22.2352949386
C    6.0       19.9317701669       18.8488649494       20.6005224180
H    1.0       20.2690556356       17.8280214692       20.3721891107
H    1.0       18.8335455698       18.8362378167       20.5582417585
C    6.0       20.4741549382       19.8183596676       19.5286440052
H    1.0       21.5719249586       19.8274695143       19.5234900494
H    1.0       20.1354239942       19.5191213699       18.5282668844
H    1.0       20.1246742850       20.8431957647       19.7096611960
 $end
$$$$
! Edit this basic GAMESS input file as needed.
! Conformer was generated by a VeraChem VCPack run 
! and contains     20 atoms.
!
 $contrl scftyp=rhf runtyp=optimize nzvar=0
  maxit=200 icharg=0 $end
 $system mwords=50 $end
 $basis gbasis=pm3 $end
 $statpt nstep=200 $end
 $guess guess=huckel $end
 $data
VM2 Rank=4      G=27.494            E=4.710             -TS=22.784              
C1
N    7.0       19.6444075491       19.3205094879       25.4425369713
H    1.0       18.6979704770       18.9276363303       25.4586499691
H    1.0       20.2497089650       18.6686089102       25.9514581441
H    1.0       19.6157215791       20.1876317249       25.9891886561
C    6.0       20.1337559463       19.5617313228       24.0287735379
H    1.0       21.1310646667       20.0059430328       24.0878834584
H    1.0       19.4621064184       20.2858947045       23.5606054950
C    6.0       20.1886344695       18.2768850937       23.1804533262
H    1.0       20.8313837075       17.5422208849       23.6835064310
H    1.0       19.1872093749       17.8300419069       23.1217775122
C    6.0       20.7317692940       18.5248760765       21.7532106674
H    1.0       20.8307501606       17.5579283013       21.2406968851
H    1.0       21.7440564603       18.9481580147       21.8143832249
C    6.0       19.8272684187       19.4555777326       20.9108304622
H    1.0       18.8070680490       19.0483155095       20.8749986597
H    1.0       19.7574306415       20.4452322869       21.3823539242
C    6.0       20.3621643224       19.6204202864       19.4721950350
H    1.0       19.7096824706       20.2835995884       18.8895249373
H    1.0       21.3700203823       20.0556725820       19.4731321543
H    1.0       20.4078966451       18.6535944989       18.9541539428
 $end
$$$$
! Edit this basic GAMESS input file as needed.
! Conformer was generated by a VeraChem VCPack run 
! and contains     20 atoms.
!
 $contrl scftyp=rhf runtyp=optimize nzvar=0
  maxit=200 icharg=0 $end
 $system mwords=50 $end
 $basis gbasis=pm3 $end
 $statpt nstep=200 $end
 $guess guess=huckel $end
 $data
VM2 Rank=5      G=27.507            E=4.723             -TS=22.784              
C1
N    7.0       19.9685812700       18.6227336327       25.4433742638
H    1.0       20.6122227925       18.0425914324       25.9917482544
H    1.0       19.8604084690       19.5067846511       25.9504389972
H    1.0       19.0578745087       18.1529434845       25.4596226781
C    6.0       20.4698049409       18.8382689712       24.0296223677
H    1.0       20.5903537066       17.8569882231       23.5635105870
H    1.0       21.4524985023       19.3139478863       24.0886578741
C    6.0       19.5241497582       19.7072855731       23.1787206243
H    1.0       18.5367948313       19.2301510363       23.1200881868
H    1.0       19.3768894565       20.6733259904       23.6797219969
C    6.0       20.0653035970       19.9595214263       21.7514679094
H    1.0       21.0416347163       20.4602054091       21.8125413814
H    1.0       19.3906920004       20.6578032153       21.2369213625
C    6.0       20.1939210765       18.6663231471       20.9118074234
H    1.0       20.9047181710       17.9755814297       21.3853787215
H    1.0       19.2247075739       18.1493052151       20.8761137639
C    6.0       20.6662393574       18.9658672496       19.4730074114
H    1.0       21.6489184501       19.4553167309       19.4738782864
H    1.0       20.7527224175       18.0383323957       18.8922802279
H    1.0       19.9573900859       19.6233752073       18.9529845574
 $end
$$$$
! Edit this basic GAMESS input file as needed.
! Conformer was generated by a VeraChem VCPack run 
! and contains     20 atoms.
!
 $contrl scftyp=rhf runtyp=optimize nzvar=0
  maxit=200 icharg=0 $end
 $system mwords=50 $end
 $basis gbasis=pm3 $end
 $statpt nstep=200 $end
 $guess guess=huckel $end
 $data
VM2 Rank=6      G=27.623            E=4.824             -TS=22.798              
C1
N    7.0       19.4823101565       19.4056690949       25.4133020011
H    1.0       18.6901556900       18.7557803702       25.4357010867
H    1.0       19.9097063441       19.3854248255       26.3452373125
H    1.0       19.0967578232       20.3463585904       25.2837394297
C    6.0       20.4786421261       19.0472691021       24.3291200584
H    1.0       20.8696068623       18.0496158663       24.5466708635
H    1.0       21.3065350869       19.7594765432       24.3826019737
C    6.0       19.8688270313       19.0676443753       22.9159754387
H    1.0       19.0279396641       18.3628559965       22.8713280910
H    1.0       19.4641361101       20.0676868203       22.7154661584
C    6.0       20.9189426513       18.6941307182       21.8431875787
H    1.0       21.3668795420       17.7248815990       22.1032812959
H    1.0       21.7384424212       19.4261300253       21.8567296917
C    6.0       20.3340833229       18.5983557138       20.4130008793
H    1.0       21.1169177068       18.2286653685       19.7359203065
H    1.0       19.5296609343       17.8498712483       20.3894995765
C    6.0       19.8051947118       19.9469309956       19.8734140438
H    1.0       20.5829352670       20.7206239493       19.9125787708
H    1.0       19.4872086975       19.8440851555       18.8278237353
H    1.0       18.9394491701       20.2997517340       20.4473687976
 $end
$$$$
! Edit this basic GAMESS input file as needed.
! Conformer was generated by a VeraChem VCPack run 
! and contains     20 atoms.
!
 $contrl scftyp=rhf runtyp=optimize nzvar=0
  maxit=200 icharg=0 $end
 $system mwords=50 $end
 $basis gbasis=pm3 $end
 $statpt nstep=200 $end
 $guess guess=huckel $end
 $data
VM2 Rank=7      G=27.631            E=4.833             -TS=22.799              
C1
N    7.0       19.9290730339       18.4438517882       25.4144420647
H    1.0       18.9214961089       18.2576279826       25.4362034344
H    1.0       20.3994650601       17.5422631838       25.2871412575
H    1.0       20.1883095466       18.7853948997       26.3459602756
C    6.0       20.2988143627       19.4342780873       24.3286592000
H    1.0       21.3769993246       19.6077378075       24.3828447664
H    1.0       19.7883288991       20.3769281513       24.5438518537
C    6.0       19.9224435415       18.9523123414       22.9160996403
H    1.0       20.4258292393       17.9976301145       22.7179865701
H    1.0       18.8415279966       18.7642211934       22.8707705771
C    6.0       20.3153944117       19.9935676276       21.8416173504
H    1.0       21.4033487478       20.1476469040       21.8558787326
H    1.0       19.8634334043       20.9615733137       22.0993729044
C    6.0       19.8662988268       19.6056089362       20.4117666354
H    1.0       18.7754625463       19.4738388244       20.3874570298
H    1.0       20.0895570959       20.4408763580       19.7332211166
C    6.0       20.5559758234       18.3303812193       19.8754151092
H    1.0       20.2732406567       18.1516600459       18.8299145318
H    1.0       21.6488427474       18.4255387824       19.9154277534
H    1.0       20.2664603870       17.4424439056       20.4508897471
 $end
$$$$
! Edit this basic GAMESS input file as needed.
! Conformer was generated by a VeraChem VCPack run 
! and contains     20 atoms.
!
 $contrl scftyp=rhf runtyp=optimize nzvar=0
  maxit=200 icharg=0 $end
 $system mwords=50 $end
 $basis gbasis=pm3 $end
 $statpt nstep=200 $end
 $guess guess=huckel $end
 $data
VM2 Rank=8      G=27.903            E=5.022             -TS=22.881              
C1
N    7.0       19.4804903371       19.1732765609       25.1477376766
H    1.0       19.6589712200       19.4561168705       26.1170919809
H    1.0       18.8425595872       19.8673373185       24.7474082300
H    1.0       18.9743410670       18.2830190944       25.1857963127
C    6.0       20.7649146675       19.0591655127       24.3493667403
H    1.0       21.4080897489       18.3370379649       24.8597165470
H    1.0       21.2644503573       20.0315630915       24.3680368209
C    6.0       20.5553594098       18.6116575497       22.8893349615
H    1.0       21.5429743785       18.4473873101       22.4407370419
H    1.0       20.0380029181       17.6432654962       22.8735839981
C    6.0       19.7661810466       19.6499211209       22.0524820921
H    1.0       20.3012868866       20.6096750121       22.0539701832
H    1.0       18.7935324703       19.8378226832       22.5260376812
C    6.0       19.5138263164       19.2012894184       20.5923355929
H    1.0       18.9666260119       18.2481950360       20.5853876491
H    1.0       18.8560389223       19.9359737079       20.1070569601
C    6.0       20.8072282226       19.0646898374       19.7567429366
H    1.0       21.4449986340       18.2534187955       20.1287069412
H    1.0       20.5658425933       18.8393971846       18.7098790320
H    1.0       21.3888154184       19.9955381539       19.7735198980
 $end
