$$$$
! Edit this basic GAMESS input file as needed.
! Conformer was generated by a VeraChem VCPack run 
! and contains     29 atoms.
!
 $contrl scftyp=rhf runtyp=optimize nzvar=0
  maxit=200 icharg=0 $end
 $system mwords=50 $end
 $basis gbasis=pm3 $end
 $statpt nstep=200 $end
 $guess guess=huckel $end
 $data
VM2 Rank=1      G=33.702            E=-3.682            -TS=37.384              
C1
C    6.0       19.5306443126       19.9313372305       18.7439446464
H    1.0       18.5905927981       20.4924465246       18.8258656399
H    1.0       20.3585301038       20.6520761440       18.7240698192
H    1.0       19.5233421374       19.3997958074       17.7834952134
C    6.0       19.6877295083       18.9384709701       19.9150117008
H    1.0       20.6190382963       18.3689505997       19.7876852370
H    1.0       18.8647199519       18.2105515064       19.8887442792
C    6.0       19.7010543245       19.6615310815       21.2799141158
H    1.0       20.5237871632       20.3896120273       21.3005753595
H    1.0       18.7693093980       20.2311440535       21.4015404095
C    6.0       19.8583634340       18.6704256261       22.4550821376
H    1.0       20.7897518684       18.1006218450       22.3313735014
H    1.0       19.0351452913       17.9428523302       22.4338690581
C    6.0       19.8723913692       19.3942336733       23.8203959579
H    1.0       20.6980898481       20.1191161503       23.8420602699
H    1.0       18.9418169178       19.9661333830       23.9336676482
C    6.0       20.0288546716       18.3990490792       24.9957707335
H    1.0       20.9353920854       17.8002441048       24.8353713589
H    1.0       19.1855191826       17.6956643133       25.0018425487
C    6.0       20.1313905232       19.0989296375       26.3682197862
H    1.0       20.9619149552       19.8105194346       26.3292005761
C    6.0       20.4280289409       18.0708468205       27.4715589310
H    1.0       20.5383324686       18.5660067798       28.4442157780
H    1.0       19.6207487527       17.3322344778       27.5534150461
H    1.0       21.3622173501       17.5343580413       27.2636343846
N    7.0       18.8975429157       19.8911758813       26.7041019908
H    1.0       18.9909903972       20.3638915553       27.6076960288
H    1.0       18.0710145184       19.2898003511       26.7565275531
H    1.0       18.7120653136       20.6104240496       25.9998540822
 $end
