$$$$
! Edit this basic GAMESS input file as needed.
! Conformer was generated by a VeraChem VCPack run 
! and contains     20 atoms.
!
 $contrl scftyp=rhf runtyp=optimize nzvar=0
  maxit=200 icharg=0 $end
 $system mwords=50 $end
 $basis gbasis=pm3 $end
 $statpt nstep=200 $end
 $guess guess=huckel $end
 $data
VM2 Rank=1      G=53.936            E=31.434            -TS=22.502              
C1
C    6.0       19.8541917767       19.1508540665       18.8169413259
H    1.0       20.3378193632       18.6997962925       17.9407703285
H    1.0       18.7730568657       18.9823163447       18.7279553586
H    1.0       20.0352433315       20.2330228045       18.7807886320
C    6.0       20.4073222410       18.5375240947       20.1215877139
H    1.0       21.4948660140       18.6915150057       20.1650232817
H    1.0       20.2424651044       17.4507424392       20.1126889031
C    6.0       19.7440086406       19.1542863316       21.3727396477
H    1.0       19.9121652846       20.2394549996       21.3827137782
H    1.0       18.6579808879       18.9971157513       21.3302050243
C    6.0       20.3006849037       18.5374838355       22.6693679403
H    1.0       21.3792695955       18.7057931561       22.7224455125
H    1.0       20.1210263684       17.4594246745       22.6697283198
N    7.0       19.6776095390       19.1133470788       23.9258962433
H    1.0       18.6547125314       18.9807639587       23.9097578192
H    1.0       19.8198976192       20.1345374052       23.9587674341
C    6.0       20.2821828990       18.4505045930       25.1564671289
H    1.0       21.3589272695       18.6327568235       25.1710630928
H    1.0       19.8249710795       18.8742482506       26.0533544928
H    1.0       20.0897016711       17.3761397637       25.1177498205
 $end
