$$$$
! Edit this basic GAMESS input file as needed.
! Conformer was generated by a VeraChem VCPack run 
! and contains     17 atoms.
!
 $contrl scftyp=rhf runtyp=optimize nzvar=0
  maxit=200 icharg=0 $end
 $system mwords=50 $end
 $basis gbasis=pm3 $end
 $statpt nstep=200 $end
 $guess guess=huckel $end
 $data
VM2 Rank=1      G=15.406            E=-2.452            -TS=17.858              
C1
N    7.0       19.6262457567       18.8413434598       24.1383303344
H    1.0       20.0581056139       19.1907395634       24.9999144889
H    1.0       19.6531683356       17.8183285907       24.1874489564
H    1.0       18.6402046598       19.1179833633       24.1681400002
C    6.0       20.3271098713       19.3692454116       22.9024233847
H    1.0       21.3758085879       19.0639136383       22.9526970616
H    1.0       20.2866098269       20.4614945366       22.9319922575
C    6.0       19.7034258175       18.8637204068       21.5887568557
H    1.0       19.7319324115       17.7660839455       21.5694856733
H    1.0       18.6464117786       19.1588834306       21.5488729012
C    6.0       20.4461303676       19.4243285584       20.3560252248
H    1.0       21.5049991757       19.1320354103       20.3971073940
H    1.0       20.4206915527       20.5230840022       20.3764320642
C    6.0       19.8260881869       18.9213621634       19.0344642004
H    1.0       18.7755582257       19.2283187151       18.9486077967
H    1.0       19.8683778984       17.8262842464       18.9694839598
H    1.0       20.3674886095       19.3305081089       18.1715997782
 $end
