$$$$
! Edit this basic GAMESS input file as needed.
! Conformer was generated by a VeraChem VCPack run 
! and contains    142 atoms.
!
 $contrl scftyp=rhf runtyp=optimize nzvar=0
  maxit=200 icharg=0 $end
 $system mwords=50 $end
 $basis gbasis=pm3 $end
 $statpt nstep=200 $end
 $guess guess=huckel $end
 $data
FE Rank=1      G=489.584           E=304.851           -TS=184.732              
C1
C    6.0       16.4268376096       15.5221937151       22.2637687512
H    1.0       15.3786713923       15.5140090940       22.5868144082
O    8.0       16.7637922640       16.7507091732       21.5846106824
C    6.0       17.3594995957       15.3547984033       23.4900243978
H    1.0       17.1590948572       14.3659178470       23.9218131971
O    8.0       17.0746174250       16.3578652841       24.4793882402
H    1.0       17.9217268078       16.8232263431       24.6992432651
C    6.0       18.8408895787       15.3835683789       23.0397723247
H    1.0       19.0402777920       16.3650545198       22.6052344694
O    8.0       19.7091779864       15.1689730289       24.1592384117
H    1.0       19.7346225184       16.0318208054       24.6526803322
C    6.0       19.1182619437       14.3411019203       21.9273938662
H    1.0       19.1783624598       13.3422721707       22.3794294113
C    6.0       18.0353987114       14.3677205675       20.8087830061
H    1.0       18.2053772073       15.2709155648       20.2112195295
O    8.0       16.6942779958       14.4232826114       21.3640339892
C    6.0       18.1208157706       13.1614867884       19.8437789422
H    1.0       19.0311446680       13.2650201762       19.2377107454
H    1.0       17.2651124430       13.1999997358       19.1564332526
O    8.0       18.1430959126       11.9111435649       20.5436828244
H    1.0       18.1243434984       11.1938469667       19.8730312630
C    6.0       15.0084789130       20.2442320687       20.1809857008
H    1.0       14.3959997953       20.9987613164       19.6706819146
O    8.0       16.1856892763       20.8275727724       20.7749389480
C    6.0       14.2016418036       19.5421072371       21.3016553731
H    1.0       13.3324258764       19.0715472183       20.8239930241
O    8.0       13.7402148685       20.4899395316       22.2783709640
H    1.0       14.5189361619       21.0394588066       22.5497555225
C    6.0       15.0291658045       18.4199320166       21.9827437131
H    1.0       15.8301213147       18.8897079044       22.5706896693
O    8.0       14.1535273049       17.6855945836       22.8441069072
H    1.0       13.7021123686       18.3638521543       23.3926373834
C    6.0       15.6889612388       17.4676777127       20.9439299648
H    1.0       14.9261389095       16.7829679740       20.5523610597
C    6.0       16.3433147178       18.2427483621       19.7669012711
H    1.0       17.2266096494       18.7601178169       20.1564983129
O    8.0       15.4196824034       19.2258293881       19.2445704877
C    6.0       16.8293604913       17.3433399365       18.6014687527
H    1.0       17.8250701179       16.9575767639       18.8526199753
H    1.0       16.9495161362       17.9666505689       17.7054677111
O    8.0       15.9441623945       16.2496954782       18.3275075290
H    1.0       15.9590448469       15.6581566997       19.1114480038
C    6.0       18.3832528744       24.2699113892       21.1568275732
H    1.0       18.8181884593       25.2770690720       21.1900283149
O    8.0       19.4057501891       23.2498313406       21.2461733812
C    6.0       17.3241312203       24.0757283202       22.2735722417
H    1.0       16.4881994353       24.7487071818       22.0416936777
O    8.0       17.8297118820       24.4152197141       23.5721274463
H    1.0       18.5532741376       23.7708195415       23.7750448629
C    6.0       16.7830411780       22.6260542317       22.2381322546
H    1.0       17.6090551098       21.9425926642       22.4753063149
O    8.0       15.7398379677       22.4783283024       23.2075002407
H    1.0       16.0842853361       22.9078119174       24.0219703083
C    6.0       16.2412176970       22.2672163543       20.8303357043
H    1.0       15.2450991007       22.7174635113       20.7272411438
C    6.0       17.1643047667       22.7456980143       19.6671280314
H    1.0       18.0162407068       22.0609696881       19.6001251003
O    8.0       17.6732647852       24.0824517673       19.9136314080
C    6.0       16.4700367903       22.7305186393       18.2843693840
H    1.0       16.3229320269       21.6852155730       17.9805236639
H    1.0       17.1441259973       23.1909926942       17.5497549170
O    8.0       15.2103334070       23.4141809754       18.3022772278
H    1.0       14.8653788731       23.4264582545       17.3827499708
C    6.0       23.2716194864       22.3985008230       22.4881320990
H    1.0       24.2807826632       22.4112646426       22.9151901910
O    8.0       23.0709364540       21.2669855293       21.6137434793
C    6.0       22.2128064539       22.3423819352       23.6195061092
H    1.0       22.3377650809       23.2454546093       24.2304696468
O    8.0       22.4320012176       21.1861926007       24.4464730092
H    1.0       21.5551942979       20.8331602133       24.7433610377
C    6.0       20.7795575800       22.3677086532       23.0292670274
H    1.0       20.6293323755       21.4399750015       22.4680984129
O    8.0       19.8220782915       22.4700725606       24.0911437730
H    1.0       19.8077348698       21.5911290977       24.5536197908
C    6.0       20.5817754732       23.5436718570       22.0353651071
H    1.0       20.4708721716       24.4745573014       22.6069236288
C    6.0       21.7639058195       23.6762276884       21.0339349430
H    1.0       21.6980161821       22.8439201994       20.3215814547
O    8.0       23.0357307980       23.6036327683       21.7273198989
C    6.0       21.7256050886       24.9861798635       20.2108936505
H    1.0       20.8868055774       24.9272762526       19.5040553255
H    1.0       22.6476848989       25.0546364852       19.6183263150
O    8.0       21.5791312640       26.1450821578       21.0416902950
H    1.0       21.6357631036       26.9359679964       20.4621496761
C    6.0       24.9482215777       17.6801225717       20.6765864214
H    1.0       25.6193870995       16.8982465698       20.2987959344
O    8.0       23.6974168514       17.1307184459       21.1399044719
C    6.0       25.6041706635       18.4288574770       21.8607798721
H    1.0       26.5432483270       18.8579122469       21.4876769680
O    8.0       25.9007431626       17.5220917428       22.9361048401
H    1.0       25.1200682474       16.9210420860       23.0398599217
C    6.0       24.7207172467       19.6012250490       22.3635583583
H    1.0       23.8374677086       19.1809138935       22.8649412960
O    8.0       25.5038365915       20.3574657259       23.2930398553
H    1.0       25.8305332962       19.7011411358       23.9464964452
C    6.0       24.2288047031       20.5102984965       21.1969575098
H    1.0       25.0458396360       21.1743137716       20.8889262328
C    6.0       23.7395374371       19.6855530424       19.9750946314
H    1.0       22.7901085529       19.2165315701       20.2518373478
O    8.0       24.6902951194       18.6492148205       19.6404450762
C    6.0       23.4696439366       20.5389644002       18.7110739960
H    1.0       22.5554958112       21.1246705265       18.8729293488
H    1.0       23.2727789184       19.8614750236       17.8697726653
O    8.0       24.5560301975       21.4175467280       18.3924205574
H    1.0       24.5745829850       22.1217560165       19.0751177866
C    6.0       21.3704782709       13.7184770415       21.1208426847
H    1.0       20.9280335994       12.7177193252       21.0345218733
O    8.0       20.3570019500       14.7322141883       21.2964206375
C    6.0       22.3934719118       13.7858658955       22.2857378034
H    1.0       23.2186958732       13.1095683369       22.0270535186
O    8.0       21.8238090856       13.3551625216       23.5300629744
H    1.0       21.0810105324       13.9761249487       23.7389305578
C    6.0       22.9761099925       15.2159775620       22.4037202830
H    1.0       22.1642737047       15.8933418531       22.6956051156
O    8.0       24.0024529107       15.2359050301       23.4015482620
H    1.0       23.6273577243       14.7434059760       24.1651663669
C    6.0       23.5578511913       15.6967885466       21.0492290273
H    1.0       24.5263176802       15.1997091172       20.9068419753
C    6.0       22.6291147775       15.3876770690       19.8384678779
H    1.0       21.7885577801       16.0896822576       19.8652861024
O    8.0       22.1066817592       14.0364750839       19.9207381479
C    6.0       23.3260565007       15.5611172350       18.4677860927
H    1.0       23.4968045263       16.6324399742       18.2969248921
H    1.0       22.6438071729       15.2112214652       17.6816042152
O    8.0       24.5706594681       14.8529933170       18.3992812870
H    1.0       24.9291008919       14.9693957637       17.4924544490
C    6.0       19.5876359965       18.9048009953       24.5297544383
O    8.0       20.0084344049       19.8908491395       25.1060432882
O    8.0       19.4231463831       17.8164722265       25.0508888318
C    6.0       19.2760374616       19.0320268469       23.0448317788
H    1.0       18.9743822138       20.0627130204       22.8427656337
H    1.0       18.3962568818       18.4185855902       22.8317571718
C    6.0       20.4728184542       18.6131010194       22.1479758884
H    1.0       21.3078194735       19.3101730472       22.2878330064
H    1.0       20.8444705653       17.6389653683       22.4836332014
C    6.0       20.1052557871       18.5126636889       20.6526317666
H    1.0       19.2687856311       17.8142714112       20.5315964534
H    1.0       20.9449305773       18.0797097976       20.0998145704
C    6.0       19.7564088387       19.8799804537       20.0354125749
H    1.0       18.8917404774       20.3199957057       20.5421018643
H    1.0       19.5141474761       19.7781994855       18.9702768929
H    1.0       20.5945214941       20.5799429744       20.1332496828
 $end
$$$$
! Edit this basic GAMESS input file as needed.
! Conformer was generated by a VeraChem VCPack run 
! and contains    142 atoms.
!
 $contrl scftyp=rhf runtyp=optimize nzvar=0
  maxit=200 icharg=0 $end
 $system mwords=50 $end
 $basis gbasis=pm3 $end
 $statpt nstep=200 $end
 $guess guess=huckel $end
 $data
FE Rank=2      G=489.933           E=306.358           -TS=183.575              
C1
C    6.0       16.2579035874       15.3408108388       20.4855815554
H    1.0       15.2529583126       15.1186014980       20.1045431472
O    8.0       16.3831552813       16.7267722173       20.8600782865
C    6.0       16.6200678833       14.4323274201       21.6953072681
H    1.0       16.6196699565       13.3987807436       21.3252171622
O    8.0       15.6624243230       14.5298900009       22.7593960346
H    1.0       15.6918643257       15.4614455937       23.0941508383
C    6.0       18.0505849796       14.7463552692       22.2031598738
H    1.0       18.0707868821       15.7769816276       22.5860562159
O    8.0       18.4002906141       13.8302892959       23.2460990612
H    1.0       17.6046195713       13.7812705190       23.8219458106
C    6.0       19.0583213605       14.6350018020       21.0310030881
H    1.0       19.1355206912       13.5814477552       20.7312970569
C    6.0       18.6071457705       15.4687800891       19.8032745832
H    1.0       18.6347679106       16.5304637173       20.0764144907
O    8.0       17.2478635870       15.0931114845       19.4577546937
C    6.0       19.5199651697       15.3092694800       18.5597455948
H    1.0       20.3273334950       16.0498771942       18.6311209985
H    1.0       18.9386528780       15.5585460440       17.6621745184
O    8.0       20.0852248524       13.9971127701       18.4371992512
H    1.0       20.7155584022       13.8807458913       19.1844458782
C    6.0       14.7038359212       20.2797821338       21.8033056413
H    1.0       14.1211082217       21.1707305811       22.0694686852
O    8.0       15.9987979128       20.6247731552       21.2697773264
C    6.0       14.8969115439       19.3757283950       23.0437778337
H    1.0       13.9010461490       19.0338879024       23.3534464537
O    8.0       15.4946917301       20.1159373443       24.1248579955
H    1.0       16.4837674306       19.9959061975       24.0837031058
C    6.0       15.7355667093       18.1306929935       22.6709594169
H    1.0       16.7491692306       18.4825869649       22.4608220032
O    8.0       15.7705152831       17.2088203940       23.7653722107
H    1.0       16.4971814780       17.5393876286       24.3610333991
C    6.0       15.2291135489       17.4088160608       21.3927415369
H    1.0       14.4246397265       16.7149612600       21.6692316995
C    6.0       14.7491051554       18.3746960023       20.2687776725
H    1.0       15.6417549071       18.7581506165       19.7581738386
O    8.0       14.0083249456       19.4973312598       20.8116193269
C    6.0       13.8810309183       17.6835000843       19.1906860527
H    1.0       14.5221200997       17.0078231313       18.6086121644
H    1.0       13.5042467073       18.4502760580       18.5005454189
O    8.0       12.7913581969       16.9484111509       19.7613285581
H    1.0       12.2454146953       16.6020449269       19.0218698214
C    6.0       18.4807527872       23.8892285862       20.6665987586
H    1.0       18.9295370660       24.8521137495       20.3922846088
O    8.0       19.4959855984       22.9103458171       20.9788703190
C    6.0       17.4941272477       24.0549500883       21.8573199052
H    1.0       16.7001314121       24.7334859444       21.5203218676
O    8.0       18.1410834434       24.6410648221       22.9978044596
H    1.0       18.7183399905       23.9371639244       23.3849910486
C    6.0       16.8298478934       22.6995884492       22.2182834402
H    1.0       17.6077345400       22.0420194620       22.6245024016
O    8.0       15.7976166242       22.9018012817       23.1922414848
H    1.0       15.6818757087       22.0376151620       23.6549522599
C    6.0       16.2284172223       22.0117172932       20.9622880284
H    1.0       15.2977208409       22.5235158740       20.6863594910
C    6.0       17.1956236776       22.0287951018       19.7477741746
H    1.0       18.0238103755       21.3414433656       19.9613306933
O    8.0       17.7171691382       23.3674227743       19.5573612422
C    6.0       16.5548716648       21.5438604750       18.4231787784
H    1.0       16.5064740454       20.4473543601       18.4427037971
H    1.0       17.2194989722       21.8201648095       17.5939077491
O    8.0       15.2439573102       22.0798013306       18.2046231980
H    1.0       14.6352348158       21.6243175262       18.8259036038
C    6.0       23.4239281107       22.4417217164       22.2095628363
H    1.0       24.4339126890       22.5722351078       22.6183987679
O    8.0       23.3175247459       21.2235294291       21.4469064898
C    6.0       22.3793693669       22.4187741724       23.3590126761
H    1.0       22.4718658673       23.3698918795       23.8986527406
O    8.0       22.6508243587       21.3356099868       24.2652290546
H    1.0       23.5805740870       21.0470840165       24.1072813188
C    6.0       20.9338260983       22.3246321990       22.8048502144
H    1.0       20.8109312049       21.3227440835       22.3780884481
O    8.0       19.9775136866       22.5355532030       23.8552086768
H    1.0       19.5233910143       21.6645563880       24.0174443319
C    6.0       20.6752007416       23.3590128663       21.6778088106
H    1.0       20.5361733393       24.3478302488       22.1328473061
C    6.0       21.8295919183       23.4263545071       20.6411155800
H    1.0       21.8100599250       22.5014280326       20.0495439800
O    8.0       23.1016882321       23.5348466466       21.3263990778
C    6.0       21.7088071398       24.6063059377       19.6468027912
H    1.0       20.8793149018       24.3969332724       18.9580001941
H    1.0       22.6268712751       24.6515278831       19.0457899599
O    8.0       21.4859289111       25.8570429720       20.3103624306
H    1.0       21.5051311868       26.5638108554       19.6287953920
C    6.0       25.2437118424       17.6534214102       20.8488147410
H    1.0       25.8841626025       16.7963907497       20.6037587936
O    8.0       23.8727479133       17.2528156724       21.0660614011
C    6.0       25.7682625226       18.4230320446       22.0878384104
H    1.0       26.7279815087       18.8737018996       21.8026355604
O    8.0       25.9881584149       17.5603283666       23.2121554398
H    1.0       25.1081736912       17.1800511983       23.4598391837
C    6.0       24.7944900954       19.5725717406       22.4457395259
H    1.0       23.8359187625       19.1292964990       22.7509755167
O    8.0       25.3439824475       20.3285989976       23.5309707027
H    1.0       25.7413814196       19.6578568220       24.1318827836
C    6.0       24.5359122642       20.4900423436       21.2160886101
H    1.0       25.3908514852       21.1659877092       21.0905061717
C    6.0       24.3113236468       19.7012783862       19.8908446065
H    1.0       23.2995057793       19.2827496596       19.9084180291
O    8.0       25.2557602447       18.6079602288       19.7662223941
C    6.0       24.3922036471       20.5841684309       18.6216219339
H    1.0       23.5109170095       21.2393188265       18.5961766449
H    1.0       24.3343779489       19.9306342148       17.7411619227
O    8.0       25.5867962260       21.3742489261       18.5687883163
H    1.0       25.4803619891       22.1149240386       19.2033496232
C    6.0       21.2743796052       14.1712165264       21.9217879754
H    1.0       20.7816716029       13.2252413759       22.1817271247
O    8.0       20.3275559587       15.1536526819       21.4619648314
C    6.0       22.0012599522       14.7434062226       23.1593587439
H    1.0       22.7695091064       14.0170198342       23.4548157041
O    8.0       21.0842119941       14.9302815972       24.2494940387
H    1.0       20.1742336366       14.8071772282       23.8845301138
C    6.0       22.7076817557       16.0726907936       22.8103552282
H    1.0       21.9392985982       16.8190877721       22.5767396408
O    8.0       23.4563001219       16.4989073986       23.9509473473
H    1.0       22.8334899149       16.3945468403       24.7057214850
C    6.0       23.6232450813       15.9242538922       21.5657365112
H    1.0       24.5483186564       15.4105728222       21.8589699862
C    6.0       22.9268059331       15.1595343634       20.4021590344
H    1.0       22.1811934653       15.8334547679       19.9623087233
O    8.0       22.2527158989       13.9667534464       20.8809710261
C    6.0       23.8979298364       14.7549520736       19.2678387900
H    1.0       24.2197654288       15.6658129250       18.7448231386
H    1.0       23.3524775459       14.1370660829       18.5418760363
O    8.0       25.0427094057       14.0497151584       19.7638351022
H    1.0       25.5755900822       13.7648975701       18.9895677308
C    6.0       18.7098985101       19.0653779576       24.1186207920
O    8.0       18.3477383008       20.2263461017       24.1266512529
O    8.0       18.1556135626       18.1977218380       24.7637758436
C    6.0       19.7658454666       18.6449974439       23.1016304311
H    1.0       19.9056708789       17.5614117727       23.1848589164
H    1.0       20.7089462509       19.1177426918       23.3998915705
C    6.0       19.4121715171       19.0187769788       21.6371576823
H    1.0       18.5442564511       18.4413132233       21.3028862604
H    1.0       19.1216908137       20.0757170575       21.5896490597
C    6.0       20.5929383193       18.7663340926       20.6830031527
H    1.0       20.8414149507       17.6986155534       20.6750513877
H    1.0       21.4733320037       19.2965262036       21.0633541371
C    6.0       20.2834238399       19.2375844097       19.2487695495
H    1.0       19.3892551391       18.7374951067       18.8552779304
H    1.0       21.1229910841       19.0137331367       18.5787580358
H    1.0       20.1104517916       20.3213344969       19.2253601549
 $end
$$$$
! Edit this basic GAMESS input file as needed.
! Conformer was generated by a VeraChem VCPack run 
! and contains    142 atoms.
!
 $contrl scftyp=rhf runtyp=optimize nzvar=0
  maxit=200 icharg=0 $end
 $system mwords=50 $end
 $basis gbasis=pm3 $end
 $statpt nstep=200 $end
 $guess guess=huckel $end
 $data
FE Rank=3      G=490.036           E=306.102           -TS=183.934              
C1
C    6.0       16.1013668052       15.0583557694       20.9377166054
H    1.0       15.0145904539       14.9454537465       20.8333351179
O    8.0       16.4718767955       16.4374232334       21.1567282252
C    6.0       16.6536987656       14.1728058235       22.0857755177
H    1.0       16.4882919307       13.1277804864       21.7927226136
O    8.0       15.9753765028       14.4106656679       23.3273724735
H    1.0       16.1461016191       15.3546514683       23.5736662952
C    6.0       18.1803595776       14.3849958611       22.2328392272
H    1.0       18.3540602478       15.4209941380       22.5500421459
O    8.0       18.6973440971       13.4856730221       23.2191320685
H    1.0       18.0669215421       13.5404863916       23.9715210689
C    6.0       18.9080522951       14.1546584354       20.8831811119
H    1.0       18.9689312674       13.0715942091       20.7146196972
C    6.0       18.1930895439       14.8314861632       19.6770898117
H    1.0       18.3818643307       15.9093427687       19.7287716229
O    8.0       16.7601576630       14.6104754727       19.7340134814
C    6.0       18.7119858443       14.3418476418       18.3040501061
H    1.0       19.7323782378       14.7223391525       18.1619098837
H    1.0       18.0871782592       14.7829492620       17.5160136839
O    8.0       18.7075755946       12.9118900234       18.2020688595
H    1.0       19.0076072261       12.6777369024       17.2967977549
C    6.0       15.1568792777       20.1894003983       22.2651330494
H    1.0       14.6155710283       21.0750469476       22.6192738868
O    8.0       16.3922136543       20.5460124553       21.6097052983
C    6.0       15.4799627323       19.2542014834       23.4571449526
H    1.0       14.5245944543       18.9032681747       23.8677752521
O    8.0       16.1878999102       19.9723214271       24.4811585444
H    1.0       17.0210448634       19.4752087718       24.6846655812
C    6.0       16.2667123457       18.0160560013       22.9605770301
H    1.0       17.2159354950       18.3650053768       22.5459277223
O    8.0       16.5189828695       17.1164523682       24.0467282490
H    1.0       17.2736389396       17.5144953364       24.5576587463
C    6.0       15.5116669390       17.2900304822       21.8175204951
H    1.0       14.6772374844       16.7202141108       22.2472579970
C    6.0       14.9897295260       18.2771162258       20.7325330465
H    1.0       15.8566260641       18.6127716664       20.1516634986
O    8.0       14.3520655833       19.4371284611       21.3299672389
C    6.0       13.9991541098       17.6275390205       19.7372612760
H    1.0       14.5542687299       16.9205588435       19.1057922634
H    1.0       13.5998329068       18.4097996406       19.0779038087
O    8.0       12.9310459732       16.9455377206       20.4064384590
H    1.0       12.3065232772       16.6239354062       19.7200149734
C    6.0       18.5308228873       23.8785071114       20.3729442610
H    1.0       18.8832978411       24.8058570441       19.9032189312
O    8.0       19.6137893253       23.1389172436       20.9703861497
C    6.0       17.4900119586       24.1794034360       21.4796360723
H    1.0       16.6556740766       24.7081691858       21.0006728681
O    8.0       18.0513769021       25.0201010307       22.5013480055
H    1.0       18.9083874848       24.6107819719       22.7840842998
C    6.0       16.9270052383       22.8742599036       22.1014748493
H    1.0       17.7228581090       22.4040139083       22.6960073488
O    8.0       15.8268277145       23.2267983627       22.9460661209
H    1.0       16.1667891452       23.9405168461       23.5289601946
C    6.0       16.4721390531       21.8565006927       21.0154677676
H    1.0       15.5031174282       22.1744745523       20.6106371923
C    6.0       17.5015474399       21.7266957358       19.8587975066
H    1.0       18.3871412134       21.2148355237       20.2525781271
O    8.0       17.8879334298       23.0394651122       19.3905965979
C    6.0       17.0044229656       20.8911253508       18.6514814880
H    1.0       17.1657108010       19.8292104088       18.8745831649
H    1.0       17.6297725595       21.1288898472       17.7807467206
O    8.0       15.6225837396       21.1148519392       18.3430986678
H    1.0       15.0957731617       20.7811792956       19.1017163802
C    6.0       23.6826113536       22.9841041867       21.4218292307
H    1.0       24.7699161878       23.1210626825       21.4827652321
O    8.0       23.3219444962       21.5841837035       21.4301324323
C    6.0       22.9552967247       23.7225974994       22.5752090567
H    1.0       23.1193072907       24.7974460400       22.4231279181
O    8.0       23.4738401138       23.3599024100       23.8626055677
H    1.0       23.3162676212       22.3882062673       23.9759146699
C    6.0       21.4322669499       23.4612073200       22.4903214820
H    1.0       21.2575560812       22.3921066320       22.6686699846
O    8.0       20.7543239859       24.2340705396       23.4869829842
H    1.0       21.2688817414       24.0942963895       24.3129177516
C    6.0       20.8772568131       23.8210813734       21.0877785512
H    1.0       20.7578153171       24.9115949868       21.0410855362
C    6.0       21.7801472035       23.3332893795       19.9136773642
H    1.0       21.6284855195       22.2555234639       19.7885512801
O    8.0       23.1823777408       23.5682035842       20.2005104908
C    6.0       21.4393699322       23.9931559822       18.5560548359
H    1.0       20.4749258868       23.5980326250       18.2092718575
H    1.0       22.1973680475       23.6912891264       17.8209272969
O    8.0       21.3754989389       25.4221526169       18.6478726514
H    1.0       21.2311646345       25.7724104915       17.7416993627
C    6.0       24.6911266599       17.7562323683       22.2658308676
H    1.0       25.2644017897       16.8747236158       22.5785682023
O    8.0       23.5647040543       17.3923988835       21.4408930767
C    6.0       24.1732011182       18.5363448493       23.5020281503
H    1.0       25.0521239212       18.8613884312       24.0733491639
O    8.0       23.3588925446       17.6980412728       24.3355609904
H    1.0       23.5496918314       16.7634513513       24.0870745416
C    6.0       23.3941098899       19.8008416585       23.0608348702
H    1.0       22.4957028333       19.4750985990       22.5262068329
O    8.0       23.0235093251       20.5696857309       24.2105655572
H    1.0       22.3141051385       20.0438032536       24.6740749813
C    6.0       24.2291861276       20.6703960403       22.0846959686
H    1.0       25.0019881139       21.1988167721       22.6584567879
C    6.0       24.8877742231       19.8234711739       20.9586800930
H    1.0       24.0961168007       19.5011788660       20.2698663320
O    8.0       25.5364389881       18.6501376714       21.5109313038
C    6.0       25.9263314955       20.6130431150       20.1262413316
H    1.0       25.3913587130       21.3528974278       19.5153567814
H    1.0       26.4236007194       19.9182396859       19.4362971860
O    8.0       26.8936344836       21.2741710089       20.9521983046
H    1.0       27.5556776667       21.6917653048       20.3590107833
C    6.0       21.3359057289       13.9474096555       20.5991679722
H    1.0       21.0184520199       12.9567489646       20.2495835826
O    8.0       20.2136895812       14.7560183136       21.0076774747
C    6.0       22.2868615167       13.8154307566       21.8145934346
H    1.0       23.1557534652       13.2313652784       21.4842668523
O    8.0       21.6464755263       13.1250117951       22.8998642919
H    1.0       20.7130186405       13.4536073271       22.9512876268
C    6.0       22.7997050310       15.2025722574       22.2797013574
H    1.0       21.9460782915       15.7698990847       22.6759045795
O    8.0       23.7707808110       14.9929033680       23.3109230630
H    1.0       23.3989144230       14.2639485151       23.8588863051
C    6.0       23.4093674811       16.0003283490       21.0904814638
H    1.0       24.3723752930       15.5535915276       20.8127060853
C    6.0       22.4646753931       15.9890733519       19.8587346020
H    1.0       21.5789385371       16.5799973576       20.1122782464
O    8.0       22.0554738504       14.6349822153       19.5532737902
C    6.0       23.0831393946       16.6237739299       18.5885539440
H    1.0       23.1002083927       17.7142540665       18.7172321471
H    1.0       22.4251031190       16.4099531536       17.7360279036
O    8.0       24.4084254637       16.1490845628       18.3211608310
H    1.0       24.9999365693       16.5387975210       19.0003715940
C    6.0       19.6409651232       19.2044524205       24.5572349153
O    8.0       20.6035634753       19.5242383173       25.2268625027
O    8.0       18.6363002394       18.6793271128       25.0042002782
C    6.0       19.6633395694       19.5274718220       23.0678322772
H    1.0       20.4352451430       20.2812063629       22.8908880758
H    1.0       18.7092861510       20.0019227187       22.8194238341
C    6.0       19.9022217164       18.2794740697       22.1751893109