$$$$
! Edit this basic GAMESS input file as needed.
! Conformer was generated by a VeraChem VCPack run 
! and contains     13 atoms.
!
 $contrl scftyp=rhf runtyp=optimize nzvar=0
  maxit=200 icharg=0 $end
 $system mwords=50 $end
 $basis gbasis=pm3 $end
 $statpt nstep=200 $end
 $guess guess=huckel $end
 $data
VM2 Rank=1      G=-44.757           E=-49.835           -TS=5.078               
C1
C    6.0       20.0726207111       19.2403194495       23.9326025198
O    8.0       20.6421532220       20.2278657079       24.3518236458
O    8.0       19.9464766907       18.2159164500       24.5729511683
C    6.0       19.5016601272       19.2823968754       22.5191908342
H    1.0       19.1790002198       20.3099631350       22.3117850506
H    1.0       18.6052893286       18.6508028298       22.4941490794
C    6.0       20.5130214898       18.8145950213       21.4448733454
H    1.0       21.4103640814       19.4477730910       21.4858984402
H    1.0       20.8364397155       17.7882724997       21.6682242439
C    6.0       19.9060677591       18.8689064959       20.0285584863
H    1.0       20.6373180640       18.5338972320       19.2813616195
H    1.0       19.0237205435       18.2196839336       19.9542019357
H    1.0       19.6020897562       19.8919150548       19.7704741828
 $end
$$$$
! Edit this basic GAMESS input file as needed.
! Conformer was generated by a VeraChem VCPack run 
! and contains     13 atoms.
!
 $contrl scftyp=rhf runtyp=optimize nzvar=0
  maxit=200 icharg=0 $end
 $system mwords=50 $end
 $basis gbasis=pm3 $end
 $statpt nstep=200 $end
 $guess guess=huckel $end
 $data
VM2 Rank=2      G=-42.911           E=-48.495           -TS=5.584               
C1
C    6.0       20.0955326333       19.1165264874       23.9489879873
O    8.0       20.8057715781       20.0932676012       24.0863432671
O    8.0       19.6371924140       18.4950201372       24.8862446970
C    6.0       19.7449985762       18.6223955938       22.5441240345
H    1.0       18.6515834525       18.6170019508       22.4619526928
H    1.0       20.0767470622       17.5798237106       22.4711571542
C    6.0       20.3524219046       19.4467131800       21.3790084244
H    1.0       20.0210955153       20.4917513949       21.4556430403
H    1.0       21.4480189575       19.4533626392       21.4648996666
C    6.0       19.9460828938       18.8760770005       20.0052915897
H    1.0       18.8551015744       18.8874872894       19.8821966871
H    1.0       20.3848801981       19.4717712285       19.1942043882
H    1.0       20.2934437178       17.8407370771       19.8915607819
 $end
$$$$
! Edit this basic GAMESS input file as needed.
! Conformer was generated by a VeraChem VCPack run 
! and contains     13 atoms.
!
 $contrl scftyp=rhf runtyp=optimize nzvar=0
  maxit=200 icharg=0 $end
 $system mwords=50 $end
 $basis gbasis=pm3 $end
 $statpt nstep=200 $end
 $guess guess=huckel $end
 $data
VM2 Rank=3      G=-42.864           E=-48.226           -TS=5.362               
C1
C    6.0       20.1470783422       19.2363748097       23.7719321271
O    8.0       20.0116298529       20.4162320402       24.0278543185
O    8.0       19.6233873275       18.3475683906       24.4137029811
C    6.0       21.0509248097       18.8459650194       22.6051548401
H    1.0       21.7237499132       18.0572491128       22.9623946988
H    1.0       21.6806115429       19.7057987293       22.3454100921
C    6.0       20.2884689614       18.3446447528       21.3518871132
H    1.0       21.0110221027       17.9469378373       20.6262018056
H    1.0       19.6299249794       17.5103106516       21.6314000992
C    6.0       19.4605107062       19.4592149873       20.6794686199
H    1.0       18.9500877195       19.0765156175       19.7861010266
H    1.0       18.6962505432       19.8506922377       21.3639242101
H    1.0       20.1034008467       20.2943242150       20.3717740016
 $end
$$$$
! Edit this basic GAMESS input file as needed.
! Conformer was generated by a VeraChem VCPack run 
! and contains     13 atoms.
!
 $contrl scftyp=rhf runtyp=optimize nzvar=0
  maxit=200 icharg=0 $end
 $system mwords=50 $end
 $basis gbasis=pm3 $end
 $statpt nstep=200 $end
 $guess guess=huckel $end
 $data
VM2 Rank=4      G=-42.853           E=-48.214           -TS=5.362               
C1
C    6.0       20.1229754111       19.1666662445       23.7795893896
O    8.0       20.2961961112       20.2932942466       24.2000684209
O    8.0       19.3123038193       18.3937031859       24.2499554178
C    6.0       20.9961375735       18.6874796581       22.6225691555
H    1.0       20.9501525457       17.5924187238       22.5776874424
H    1.0       22.0327146048       18.9511852923       22.8641342842
C    6.0       20.6167806496       19.2945640926       21.2474778960
H    1.0       20.6257412409       20.3915234559       21.3147249120
H    1.0       21.3810095304       19.0174241590       20.5085454176
C    6.0       19.2376064354       18.8142925723       20.7503397202
H    1.0       18.4415078263       19.1137253548       21.4448861676
H    1.0       19.0087888960       19.2462378877       19.7674043786
H    1.0       19.2139165699       17.7208221098       20.6546668139
 $end
