$$$$
! Edit this basic GAMESS input file as needed.
! Conformer was generated by a VeraChem VCPack run 
! and contains     22 atoms.
!
 $contrl scftyp=rhf runtyp=optimize nzvar=0
  maxit=200 icharg=0 $end
 $system mwords=50 $end
 $basis gbasis=pm3 $end
 $statpt nstep=200 $end
 $guess guess=huckel $end
 $data
VM2 Rank=1      G=-16.999           E=-36.566           -TS=19.568              
C1
C    6.0       19.8314285459       19.1340994916       26.1874713149
O    8.0       20.0589377237       20.2373126010       26.6430942887
O    8.0       20.1742765778       18.0999167930       26.7253861150
C    6.0       19.0946106800       19.0430778051       24.8559193026
H    1.0       18.3977692115       19.8875904726       24.7936844602
H    1.0       18.4930918265       18.1261221207       24.8613381951
C    6.0       20.0505963341       19.0480162955       23.6376751850
H    1.0       20.6546103944       19.9658787749       23.6541072703
H    1.0       20.7498252601       18.2044554457       23.7216838955
C    6.0       19.2807921699       18.9551884910       22.3025103270
H    1.0       18.5818518613       19.7991202930       22.2222889292
H    1.0       18.6771200545       18.0372591156       22.2898448636
C    6.0       20.2363108516       18.9603651996       21.0899730837
H    1.0       20.8402626688       19.8780884293       21.1023539556
H    1.0       20.9353533025       18.1165054639       21.1697688411
C    6.0       19.4676805635       18.8678005670       19.7551672849
H    1.0       18.7687422266       19.7115068558       19.6707819304
H    1.0       18.8637808880       17.9499262535       19.7382056741
C    6.0       20.4253665536       18.8732227564       18.5468030981
H    1.0       21.0202537376       19.7956443987       18.5212265144
H    1.0       19.8624275318       18.8068375564       17.6067042207
H    1.0       21.1160594163       18.0208412271       18.5891922136
 $end
$$$$
! Edit this basic GAMESS input file as needed.
! Conformer was generated by a VeraChem VCPack run 
! and contains     22 atoms.
!
 $contrl scftyp=rhf runtyp=optimize nzvar=0
  maxit=200 icharg=0 $end
 $system mwords=50 $end
 $basis gbasis=pm3 $end
 $statpt nstep=200 $end
 $guess guess=huckel $end
 $data
VM2 Rank=2      G=-16.190           E=-35.867           -TS=19.677              
C1
C    6.0       19.7290226307       18.8549040092       25.9655424352
O    8.0       19.2130770075       19.6430095321       26.7331560279
O    8.0       20.5231593050       18.0021098506       26.3099165506
C    6.0       19.3782736930       18.9569851039       24.4854314211
H    1.0       18.3433904911       19.3104208153       24.4046515800
H    1.0       19.4107166077       17.9455971497       24.0649271328
C    6.0       20.3291870599       19.9034804833       23.7075890537
H    1.0       20.3429259218       20.8804477069       24.2103701855
H    1.0       21.3556192350       19.5145639110       23.7576999408
C    6.0       19.9206032549       20.1121876219       22.2299920177
H    1.0       20.5733716414       20.8803919551       21.7932530574
H    1.0       18.8977805876       20.5105584771       22.1838694399
C    6.0       20.0179063107       18.8259181140       21.3776339112
H    1.0       21.0267786197       18.4006459855       21.4683213102
H    1.0       19.3161427308       18.0713085394       21.7558348262
C    6.0       19.7077125618       19.1023423804       19.8914467689
H    1.0       20.4101666160       19.8505140038       19.4987253125
H    1.0       18.6998682014       19.5298772156       19.7969636419
C    6.0       19.8010581765       17.8180629045       19.0432918137
H    1.0       20.8088708786       17.3856063680       19.0951234114
H    1.0       19.5781799030       18.0329329223       17.9900926234
H    1.0       19.0854429680       17.0628532046       19.3939270085
 $end
$$$$
! Edit this basic GAMESS input file as needed.
! Conformer was generated by a VeraChem VCPack run 
! and contains     22 atoms.
!
 $contrl scftyp=rhf runtyp=optimize nzvar=0
  maxit=200 icharg=0 $end
 $system mwords=50 $end
 $basis gbasis=pm3 $end
 $statpt nstep=200 $end
 $guess guess=huckel $end
 $data
VM2 Rank=3      G=-16.125           E=-35.803           -TS=19.678              
C1
C    6.0       20.1334279653       19.1303052931       25.9559598367
O    8.0       19.6138843387       19.9159726253       26.7236461798
O    8.0       20.6478291069       18.0869270508       26.3070410108
C    6.0       20.1188732782       19.4613391597       24.4678806757
H    1.0       21.0340945597       19.0511229835       24.0264331435
H    1.0       20.1661138102       20.5516915980       24.3614617147
C    6.0       18.8654506945       18.9067320040       23.7422966532
H    1.0       18.8532849453       17.8105574844       23.8170194442
H    1.0       17.9680178483       19.2632088871       24.2666850543
C    6.0       18.7729690637       19.3307177854       22.2572100559
H    1.0       18.7753296056       20.4270891094       22.1867945243
H    1.0       17.8054232434       18.9957466610       21.8589215746
C    6.0       19.9060020700       18.7496475437       21.3802428336
H    1.0       20.8769599603       19.1337258683       21.7188655923
H    1.0       19.9350740978       17.6573493658       21.4940138547
C    6.0       19.7144058669       19.1069807389       19.8912853612
H    1.0       19.6827599398       20.1990714918       19.7738075832
H    1.0       18.7487008429       18.7196044545       19.5380341060
C    6.0       20.8471576158       18.5303777989       19.0184373932
H    1.0       21.8228603893       18.9265088570       19.3290448230
H    1.0       20.6948397646       18.7934079524       17.9635971367
H    1.0       20.8820320936       17.4355767188       19.0931926567
 $end
$$$$
! Edit this basic GAMESS input file as needed.
! Conformer was generated by a VeraChem VCPack run 
! and contains     22 atoms.
!
 $contrl scftyp=rhf runtyp=optimize nzvar=0
  maxit=200 icharg=0 $end
 $system mwords=50 $end
 $basis gbasis=pm3 $end
 $statpt nstep=200 $end
 $guess guess=huckel $end
 $data
VM2 Rank=4      G=-16.118           E=-35.792           -TS=19.674              
C1
C    6.0       19.9961918781       19.0328749778       25.9874291033
O    8.0       20.3226564041       20.0802030678       26.5099203529
O    8.0       20.4205880535       17.9477551128       26.3321843133
C    6.0       19.0154550601       19.0850625363       24.8213420707
H    1.0       18.3315732496       19.9257808697       24.9890148132
H    1.0       18.4136500543       18.1684935896       24.8409041497
C    6.0       19.7190226303       19.2326559468       23.4496628762
H    1.0       20.3241647022       20.1497751405       23.4493185730
H    1.0       20.4117451880       18.3916629354       23.3142541529
C    6.0       18.7020310493       19.2782017022       22.2857383041
H    1.0       17.9731131459       20.0769380630       22.4798009901
H    1.0       18.1328655468       18.3390478760       22.2536479593
C    6.0       19.3546437241       19.5354236483       20.9067912325
H    1.0       18.5566093900       19.6770545474       20.1651651019
H    1.0       19.9206601812       20.4765024366       20.9372598377
C    6.0       20.2770111749       18.3876974161       20.4374806988
H    1.0       19.7258109959       17.4374418786       20.4574582293
H    1.0       21.1267875453       18.2800890343       21.1242562328
C    6.0       20.8124000255       18.6391255918       19.0134510482
H    1.0       21.4677522283       17.8176408673       18.6960463624
H    1.0       21.3917220126       19.5707682218       18.9708636909
H    1.0       19.9889743099       18.7138647703       18.2911345358
 $end
$$$$
! Edit this basic GAMESS input file as needed.
! Conformer was generated by a VeraChem VCPack run 
! and contains     22 atoms.
!
 $contrl scftyp=rhf runtyp=optimize nzvar=0
  maxit=200 icharg=0 $end
 $system mwords=50 $end
 $basis gbasis=pm3 $end
 $statpt nstep=200 $end
 $guess guess=huckel $end
 $data
VM2 Rank=5      G=-16.099           E=-35.773           -TS=19.674              
C1
C    6.0       19.6003104093       19.0275338653       25.9802469926
O    8.0       19.2275940598       20.0653715097       26.4905877351
O    8.0       19.1930550217       17.9312036684       26.3098794557
C    6.0       20.6206782092       19.1067382980       24.8502454206
H    1.0       21.2458942055       18.2067278341       24.8919200580
H    1.0       21.2751421330       19.9655186974       25.0420508151
C    6.0       19.9632751728       19.2359746912       23.4540328537
H    1.0       19.2988995159       18.3766152125       23.2941116527
H    1.0       19.3339367308       20.1363788472       23.4314768657
C    6.0       21.0199510326       19.3096606430       22.3275015691
H    1.0       21.6151703675       18.3863082568       22.3164040479
H    1.0       21.7194666127       20.1277794002       22.5473233110
C    6.0       20.4107236757       19.5497560900       20.9258034944
H    1.0       19.8186299032       20.4751020679       20.9353940070
H    1.0       21.2308313640       19.7133730190       20.2133570023
C    6.0       19.5373873542       18.3776309963       20.4241094158
H    1.0       18.6666536996       18.2466245172       21.0798682694
H    1.0       20.1131277480       17.4426949484       20.4643903918
C    6.0       19.0470250647       18.6151302381       18.9815930631
H    1.0       18.4444328587       19.5306568944       18.9177318080
H    1.0       18.4261805330       17.7762541300       18.6411403620
H    1.0       19.8936090612       18.7126728893       18.2893959440
 $end
$$$$
! Edit this basic GAMESS input file as needed.
! Conformer was generated by a VeraChem VCPack run 
! and contains     22 atoms.
!
 $contrl scftyp=rhf runtyp=optimize nzvar=0
  maxit=200 icharg=0 $end
 $system mwords=50 $end
 $basis gbasis=pm3 $end
 $statpt nstep=200 $end
 $guess guess=huckel $end
 $data
VM2 Rank=6      G=-16.036           E=-35.714           -TS=19.677              
C1
C    6.0       19.7328605488       19.2233008455       26.0947204694
O    8.0       20.1388384684       20.2914548037       26.5078552560
O    8.0       19.7905798682       18.1896964769       26.7309499035
C    6.0       19.1378695867       19.1729808632       24.6919855128
H    1.0       18.6462971159       20.1334475327       24.4957276007
H    1.0       18.3585834015       18.4014821689       24.6798225084
C    6.0       20.1959464355       18.8810445819       23.5995562783
H    1.0       20.9752409249       19.6550827870       23.6329308678
H    1.0       20.6879860205       17.9231290614       23.8182018274
C    6.0       19.5686712908       18.8351062370       22.1893202795
H    1.0       19.0740372259       19.7934585094       21.9842228635
H    1.0       18.7916986687       18.0590862136       22.1583110365
C    6.0       20.6295235973       18.5472640794       21.1021207167
H    1.0       21.3807980118       19.3488195201       21.0964258987
H    1.0       21.1634062493       17.6222966482       21.3596862537
C    6.0       20.0306514978       18.3899100886       19.6851157308
H    1.0       19.2832199474       17.5845180610       19.6854011490
H    1.0       20.8279526811       18.0728891586       18.9987894308
C    6.0       19.3950587064       19.6882420237       19.1423758529
H    1.0       20.1158214109       20.5160705059       19.1607147198
H    1.0       18.5177333163       19.9819027928       19.7320941023
H    1.0       19.0660311189       19.5496010020       18.1043778518
 $end
$$$$
! Edit this basic GAMESS input file as needed.
! Conformer was generated by a VeraChem VCPack run 
! and contains     22 atoms.
!
 $contrl scftyp=rhf runtyp=optimize nzvar=0
  maxit=200 icharg=0 $end
 $system mwords=50 $end
 $basis gbasis=pm3 $end
 $statpt nstep=200 $end
 $guess guess=huckel $end
 $data
VM2 Rank=7      G=-16.002           E=-35.680           -TS=19.677              
C1
C    6.0       19.7434122548       19.0279483602       26.1022107938
O    8.0       19.6870745268       20.1073278219       26.6573909488
O    8.0       20.2601544647       18.0443167593       26.5940423479
C    6.0       19.1522362413       18.9067388056       24.7022002805
H    1.0       18.2945805464       19.5867918008       24.6343748417
H    1.0       18.7675835365       17.8868239701       24.5818950136
C    6.0       20.1772807033       19.2264523128       23.5863052242
H    1.0       20.5625413788       20.2456171706       23.7290963121
H    1.0       21.0351535806       18.5455354418       23.6755042753
C    6.0       19.5545291887       19.0967830882       22.1792821546
H    1.0       18.6986988053       19.7800425262       22.0922980224
H    1.0       19.1667405076       18.0779208139       22.0500267561
C    6.0       20.5827311833       19.4132228983       21.0689085592
H    1.0       21.0129050407       20.4072278026       21.2528656352
H    1.0       21.4159175672       18.6990904001       21.1213637947
C    6.0       19.9762680935       19.3965184346       19.6465052660
H    1.0       20.7376594617       19.7441326049       18.9346884248
H    1.0       19.1465200005       20.1144642725       19.5883503135
C    6.0       19.4863133436       17.9996915192       19.2071544250
H    1.0       19.1485567340       18.0224315022       18.1629694788
H    1.0       18.6432590392       17.6592401929       19.8212035559
H    1.0       20.2918856897       17.2580579483       19.2856884360
 $end
$$$$
! Edit this basic GAMESS input file as needed.
! Conformer was generated by a VeraChem VCPack run 
! and contains     22 atoms.
!
 $contrl scftyp=rhf runtyp=optimize nzvar=0
  maxit=200 icharg=0 $end
 $system mwords=50 $end
 $basis gbasis=pm3 $end
 $statpt nstep=200 $end
 $guess guess=huckel $end
 $data
VM2 Rank=8      G=-15.555           E=-35.435           -TS=19.880              
C1
C    6.0       19.9959542466       19.0180722567       25.8023066577
O    8.0       20.5946538401       19.9817609618       26.2379268917
O    8.0       20.3756918777       17.8719565881       25.9401914081
C    6.0       18.6863163031       19.2617032135       25.0575765832
H    1.0       18.1021225805       19.9779715183       25.6472525753
H    1.0       18.1150160399       18.3256747209       25.0383362692
C    6.0       18.8715209380       19.8057742857       23.6172016674
H    1.0       17.8886818978       20.0805009896       23.2108834578
H    1.0       19.4689581433       20.7275234441       23.6503542554
C    6.0       19.5430953299       18.7803498302       22.6764169448
H    1.0       18.9492307433       17.8562475578       22.6570565601
H    1.0       20.5347043961       18.5133708504       23.0673671584
C    6.0       19.6887109582       19.3308012832       21.2414085291
H    1.0       18.6980576484       19.5958315957       20.8471711150
H    1.0       20.2826943404       20.2548605055       21.2615996581
C    6.0       20.3600023645       18.3076239603       20.3014518274
H    1.0       19.7677537257       17.3823503309       20.2775158904
H    1.0       21.3522021914       18.0415688249       20.6916537689
C    6.0       20.5040541418       18.8609576204       18.8695194905
H    1.0       19.5227126690       19.1061498972       18.4426167723
H    1.0       20.9829929959       18.1209850639       18.2151932122
H    1.0       21.1190861169       19.7703770920       18.8599074585
 $end
