$$$$
! Edit this basic GAMESS input file as needed.
! Conformer was generated by a VeraChem VCPack run 
! and contains     22 atoms.
!
 $contrl scftyp=rhf runtyp=optimize nzvar=0
  maxit=200 icharg=0 $end
 $system mwords=50 $end
 $basis gbasis=pm3 $end
 $statpt nstep=200 $end
 $guess guess=huckel $end
 $data
VM2 Rank=1      G=47.387            E=20.718            -TS=26.669              
C1
C    6.0       19.7077381850       19.0201872934       20.9157531587
H    1.0       19.9891572598       18.8864921145       19.8623181030
H    1.0       18.7522537725       18.4924014600       21.0392799906
C    6.0       19.4965473599       20.5300916789       21.1694966189
H    1.0       20.3891241004       21.0825964748       20.8457275240
H    1.0       18.6796046810       20.8754187822       20.5213078418
C    6.0       19.1585492417       20.9072232005       22.6311525218
H    1.0       18.3048695875       20.3213472351       22.9969663190
H    1.0       18.8334328893       21.9565074831       22.6388231789
C    6.0       20.3739285670       20.7751732839       23.5818160757
H    1.0       21.2859867066       21.0756380603       23.0501961036
H    1.0       20.2666516874       21.5001304968       24.3999263578
C    6.0       20.5909893783       19.3752476000       24.2016481438
H    1.0       21.6379138047       19.3255564982       24.5338696328
C    6.0       20.3291181061       18.1692191685       23.2697427826
H    1.0       20.8571159892       17.3060278117       23.6954828433
H    1.0       19.2643040480       17.9021310219       23.2874117450
C    6.0       20.7851641738       18.3510178572       21.8018343496
H    1.0       21.7330691403       18.9037684307       21.7508146904
H    1.0       20.9900595198       17.3558824691       21.3840629749
O    8.0       19.7439649883       19.2498399175       25.3355563490
H    1.0       18.8337705336       19.3997169961       25.0082355288
 $end
