$$$$
! Edit this basic GAMESS input file as needed.
! Conformer was generated by a VeraChem VCPack run 
! and contains     22 atoms.
!
 $contrl scftyp=rhf runtyp=optimize nzvar=0
  maxit=200 icharg=0 $end
 $system mwords=50 $end
 $basis gbasis=pm3 $end
 $statpt nstep=200 $end
 $guess guess=huckel $end
 $data
VM2 Rank=1      G=47.387            E=20.718            -TS=26.669              
C1
C    6.0       19.7077381850       19.0201872934       20.9157531587
H    1.0       19.9891572598       18.8864921145       19.8623181030
H    1.0       18.7522537725       18.4924014600       21.0392799906
C    6.0       19.4965473599       20.5300916789       21.1694966189
H    1.0       20.3891241004       21.0825964748       20.8457275240
H    1.0       18.6796046810       20.8754187822       20.5213078418
C    6.0       19.1585492417       20.9072232005       22.6311525218
H    1.0       18.3048695875       20.3213472351       22.9969663190
H    1.0       18.8334328893       21.9565074831       22.6388231789
C    6.0       20.3739285670       20.7751732839       23.5818160757
H    1.0       21.2859867066       21.0756380603       23.0501961036
H    1.0       20.2666516874       21.5001304968       24.3999263578
C    6.0       20.5909893783       19.3752476000       24.2016481438
H    1.0       21.6379138047       19.3255564982       24.5338696328
C    6.0       20.3291181061       18.1692191685       23.2697427826
H    1.0       20.8571159892       17.3060278117       23.6954828433
H    1.0       19.2643040480       17.9021310219       23.2874117450
C    6.0       20.7851641738       18.3510178572       21.8018343496
H    1.0       21.7330691403       18.9037684307       21.7508146904
H    1.0       20.9900595198       17.3558824691       21.3840629749
O    8.0       19.7439649883       19.2498399175       25.3355563490
H    1.0       18.8337705336       19.3997169961       25.0082355288
 $end
$$$$
! Edit this basic GAMESS input file as needed.
! Conformer was generated by a VeraChem VCPack run 
! and contains     22 atoms.
!
 $contrl scftyp=rhf runtyp=optimize nzvar=0
  maxit=200 icharg=0 $end
 $system mwords=50 $end
 $basis gbasis=pm3 $end
 $statpt nstep=200 $end
 $guess guess=huckel $end
 $data
VM2 Rank=2      G=47.470            E=20.456            -TS=27.013              
C1
C    6.0       20.0138810354       19.2238160826       21.0652659671
H    1.0       20.9515253682       19.7546665914       20.8519459791
H    1.0       19.6602551947       18.8355022461       20.1003301854
C    6.0       18.9400319626       20.1953452236       21.6060650081
H    1.0       18.5021652708       20.7405312718       20.7585422281
H    1.0       18.1089700288       19.6181663350       22.0321375903
C    6.0       19.4385026957       21.2426131926       22.6338938573
H    1.0       18.5884743932       21.5475238439       23.2598296633
H    1.0       19.7385727384       22.1483245783       22.0893089762
C    6.0       20.6240769067       20.8329568960       23.5492084072
H    1.0       21.5610891465       20.9228296327       22.9845087879
H    1.0       20.7017376499       21.5742126014       24.3551305095
C    6.0       20.5648522831       19.4283982515       24.1923894564
H    1.0       21.2192029894       19.4454494345       25.0758015879
C    6.0       21.1012834562       18.3184054497       23.2604963341
H    1.0       22.1229959042       18.5790475723       22.9551614807
H    1.0       21.1946607067       17.3949605806       23.8468187929
C    6.0       20.2620672430       18.0123869438       21.9952458002
H    1.0       20.7897582987       17.2389998743       21.4206794782
H    1.0       19.3029292967       17.5619617023       22.2844674484
O    8.0       19.2413044173       19.1240779602       24.6044351696
H    1.0       18.7113256211       19.2099647944       23.7871049695
 $end
$$$$
! Edit this basic GAMESS input file as needed.
! Conformer was generated by a VeraChem VCPack run 
! and contains     22 atoms.
!
 $contrl scftyp=rhf runtyp=optimize nzvar=0
  maxit=200 icharg=0 $end
 $system mwords=50 $end
 $basis gbasis=pm3 $end
 $statpt nstep=200 $end
 $guess guess=huckel $end
 $data
VM2 Rank=3      G=47.498            E=20.485            -TS=27.013              
C1
C    6.0       19.3004494212       18.9077814074       21.3657661763
H    1.0       19.1177994648       18.5422602356       20.3458239563
H    1.0       18.3412649350       18.7879100192       21.8862769374
C    6.0       19.6599430258       20.4094877868       21.2941552436
H    1.0       20.7085753879       20.5482228006       20.9981723635
H    1.0       19.0578351858       20.8613096602       20.4939913517
C    6.0       19.3479239579       21.1729212378       22.6032908106
H    1.0       18.3302172963       20.9340390944       22.9404638841
H    1.0       19.3402573568       22.2487962528       22.3816004206
C    6.0       20.3531009545       20.9337678222       23.7570738734
H    1.0       21.3250564167       21.3596521390       23.4760295367
H    1.0       20.0206851520       21.5080706435       24.6316709051
C    6.0       20.5636717677       19.4669717207       24.1957529994
H    1.0       21.2229249700       19.4898355234       25.0753795905
C    6.0       21.2668889403       18.6124758344       23.1162629677
H    1.0       22.0517476431       19.2173448475       22.6439426797
H    1.0       21.7982111340       17.7951029229       23.6208412856
C    6.0       20.3706047130       17.9911371471       22.0109062678
H    1.0       21.0334769944       17.6193771440       21.2176079602
H    1.0       19.8688068575       17.0998829200       22.4123788464
O    8.0       19.3234172196       18.8834570434       24.5637916612
H    1.0       18.8298906582       18.8212547490       23.7218614353
 $end
$$$$
! Edit this basic GAMESS input file as needed.
! Conformer was generated by a VeraChem VCPack run 
! and contains     22 atoms.
!
 $contrl scftyp=rhf runtyp=optimize nzvar=0
  maxit=200 icharg=0 $end
 $system mwords=50 $end
 $basis gbasis=pm3 $end
 $statpt nstep=200 $end
 $guess guess=huckel $end
 $data
VM2 Rank=4      G=47.628            E=20.970            -TS=26.657              
C1
C    6.0       19.9267194434       19.0984743753       20.8392836295
H    1.0       20.4381929356       18.9717290893       19.8753462354
H    1.0       18.8785943847       18.8227764472       20.6595764324
C    6.0       20.0026701562       20.5899447852       21.2455532686
H    1.0       21.0339982034       20.8783918239       21.4900300268
H    1.0       19.7192937670       21.1889723224       20.3693249510
C    6.0       19.0393475727       20.9481193194       22.4011686189
H    1.0       18.1080964050       20.3758947237       22.2911517039
H    1.0       18.7483514912       22.0034084973       22.3086037192
C    6.0       19.6150453071       20.7332033067       23.8230917260
H    1.0       20.2131472574       21.6128606244       24.0941818730
H    1.0       18.7747860230       20.7083304893       24.5300665606
C    6.0       20.4976260599       19.4805484732       24.0298228444
H    1.0       21.5126224875       19.7069371776       23.6729527386
C    6.0       20.0024321205       18.2156013984       23.2942286175
H    1.0       20.3476624473       17.3324596484       23.8483013064
H    1.0       18.9058222855       18.1710993186       23.2992270652
C    6.0       20.5498099674       18.1081357795       21.8497642054
H    1.0       21.6407009978       18.2374461261       21.8623168048
H    1.0       20.3733042577       17.0877602953       21.4831352742
O    8.0       20.5523493728       19.2039725623       25.4240870897
H    1.0       20.9149211636       20.0052766147       25.8567954352
 $end
$$$$
! Edit this basic GAMESS input file as needed.
! Conformer was generated by a VeraChem VCPack run 
! and contains     22 atoms.
!
 $contrl scftyp=rhf runtyp=optimize nzvar=0
  maxit=200 icharg=0 $end
 $system mwords=50 $end
 $basis gbasis=pm3 $end
 $statpt nstep=200 $end
 $guess guess=huckel $end
 $data
VM2 Rank=5      G=47.654            E=20.996            -TS=26.657              
C1
C    6.0       20.4696935369       19.2898868669       21.0088120974
H    1.0       21.4940074389       19.5818353217       21.2774292308
H    1.0       20.5106820535       18.9691567233       19.9588766498
C    6.0       19.5091587967       20.5005116076       21.0928793581
H    1.0       19.7665874943       21.2078666231       20.2927394951
H    1.0       18.4842399615       20.1678991060       20.8789162320
C    6.0       19.5286460444       21.2645404930       22.4367406625
H    1.0       18.7628247948       22.0510044872       22.3951488247
H    1.0       20.4889296848       21.7869315415       22.5457575535
C    6.0       19.2727479104       20.3916765657       23.6898460964
H    1.0       19.0894133885       21.0678853335       24.5355707563
H    1.0       18.3584491605       19.7965706632       23.5695712106
C    6.0       20.4705929500       19.4813897627       24.0404921951
H    1.0       21.3934588309       20.0100965593       23.7619010827
C    6.0       20.4624542660       18.1054619437       23.3350980451
H    1.0       21.4802105097       17.6972197369       23.3853392927
H    1.0       19.8283045123       17.4092636069       23.9004571681
C    6.0       19.9966418402       18.0869615901       21.8578838911
H    1.0       20.3637856394       17.1594345160       21.3976879021
H    1.0       18.9008191573       18.0205472485       21.8186906840
O    8.0       20.4760646553       19.2575711704       25.4452476542
H    1.0       21.2716257600       18.7199608413       25.6423298814
 $end
$$$$
! Edit this basic GAMESS input file as needed.
! Conformer was generated by a VeraChem VCPack run 
! and contains     22 atoms.
!
 $contrl scftyp=rhf runtyp=optimize nzvar=0
  maxit=200 icharg=0 $end
 $system mwords=50 $end
 $basis gbasis=pm3 $end
 $statpt nstep=200 $end
 $guess guess=huckel $end
 $data
VM2 Rank=6      G=47.662            E=20.999            -TS=26.663              
C1
C    6.0       19.9282007492       19.0990828126       20.8399339216
H    1.0       20.4404173934       18.9725925819       19.8763524370
H    1.0       18.8801276605       18.8239150235       20.6590875059
C    6.0       20.0042113248       20.5905558651       21.2466028966
H    1.0       21.0352333383       20.8785391263       21.4929146440
H    1.0       19.7227449941       21.1898279855       20.3699308249
C    6.0       19.0390755911       20.9496510744       22.4005531211
H    1.0       18.1064196754       20.3804576534       22.2870522398
H    1.0       18.7516242323       22.0060213552       22.3095715383
C    6.0       19.6103041823       20.7299133334       23.8237356262
H    1.0       20.2063142182       21.6081056549       24.1037351625
H    1.0       18.7698645846       20.6992429520       24.5300148210
C    6.0       20.4965015765       19.4801378791       24.0287118754
H    1.0       21.5091268780       19.7125535265       23.6689684184
C    6.0       20.0008147659       18.2144221601       23.2939384718
H    1.0       20.3396705403       17.3269490103       23.8444418252
H    1.0       18.9038352028       18.1740382788       23.2949093337
C    6.0       20.5500336640       18.1076904448       21.8502793787
H    1.0       21.6410083329       18.2363819469       21.8634199513
H    1.0       20.3731428904       17.0878063233       21.4823487323
O    8.0       20.5568581463       19.2065464305       25.4232447087
H    1.0       21.1820594298       18.4604698847       25.5377497592
 $end
$$$$
! Edit this basic GAMESS input file as needed.
! Conformer was generated by a VeraChem VCPack run 
! and contains     22 atoms.
!
 $contrl scftyp=rhf runtyp=optimize nzvar=0
  maxit=200 icharg=0 $end
 $system mwords=50 $end
 $basis gbasis=pm3 $end
 $statpt nstep=200 $end
 $guess guess=huckel $end
 $data
VM2 Rank=7      G=47.680            E=21.017            -TS=26.663              
C1
C    6.0       20.4718754478       19.2904832831       21.0098163459
H    1.0       21.4956080522       19.5826292257       21.2804293909
H    1.0       20.5148541597       18.9709531609       19.9595982620
C    6.0       19.5104609326       20.5005771158       21.0935110970
H    1.0       19.7683356778       21.2083150956       20.2938470399
H    1.0       18.4860410389       20.1673372086       20.8781184327
C    6.0       19.5276064678       21.2645607147       22.4375229149
H    1.0       18.7611797571       22.0504128032       22.3944705354
H    1.0       20.4873153381       21.7878322214       22.5475479802
C    6.0       19.2700159272       20.3911323038       23.6897022811
H    1.0       19.0780666834       21.0678997979       24.5326897705
H    1.0       18.3578716329       19.7934772078       23.5640100912
C    6.0       20.4691624631       19.4815761480       24.0395389517
H    1.0       21.3930570063       20.0060411662       23.7563439019
C    6.0       20.4577121521       18.1052589541       23.3360310672
H    1.0       21.4739999029       17.6947212242       23.3949189532
H    1.0       19.8204447065       17.4129678203       23.9023643482
C    6.0       19.9984226672       18.0859758312       21.8565991541
H    1.0       20.3698918408       17.1594380198       21.3979452007
H    1.0       18.9029662525       18.0169107528       21.8128268661
O    8.0       20.4807439423       19.2584356492       25.4442781882
H    1.0       20.5646997765       20.1376958117       25.8690947375
 $end
$$$$
! Edit this basic GAMESS input file as needed.
! Conformer was generated by a VeraChem VCPack run 
! and contains     22 atoms.
!
 $contrl scftyp=rhf runtyp=optimize nzvar=0
  maxit=200 icharg=0 $end
 $system mwords=50 $end
 $basis gbasis=pm3 $end
 $statpt nstep=200 $end
 $guess guess=huckel $end
 $data
VM2 Rank=8      G=47.689            E=21.017            -TS=26.672              
C1
C    6.0       19.6894415412       19.1020474439       20.9966688665
H    1.0       19.8183308798       18.8751947842       19.9295233012
H    1.0       18.6301054471       18.9170837939       21.2209197521
C    6.0       20.0472550339       20.5907229532       21.2161340433
H    1.0       21.1368571367       20.6950126020       21.3090593385
H    1.0       19.7745245313       21.1582090105       20.3158123255
C    6.0       19.3556373623       21.2594770836       22.4287571641
H    1.0       18.3514061784       21.5897014922       22.1297410445
H    1.0       19.9091897122       22.1754706813       22.6767727933
C    6.0       19.2175392114       20.3915642522       23.7037618630
H    1.0       19.0206755809       21.0639682577       24.5491757494
H    1.0       18.3238871062       19.7600976568       23.6164862893
C    6.0       20.4390251892       19.4987975924       24.0191138189
H    1.0       21.3612779254       20.0113005475       23.7098361573
C    6.0       20.3571022358       18.1210420793       23.3238440113
H    1.0       21.1007542206       17.4539003974       23.7794902919
H    1.0       19.3790885574       17.6679878400       23.5318083519
C    6.0       20.5997201526       18.1385548422       21.7956061542
H    1.0       21.6522372206       18.3829526174       21.5972806835
H    1.0       20.4521010582       17.1193458485       21.4133131512
O    8.0       20.4802792737       19.2757937532       25.4231140787
H    1.0       20.5894360892       20.1538083758       25.8447851635
 $end
