$$$$
! Edit this basic GAMESS input file as needed.
! Conformer was generated by a VeraChem VCPack run 
! and contains     25 atoms.
!
 $contrl scftyp=rhf runtyp=optimize nzvar=0
  maxit=200 icharg=0 $end
 $system mwords=50 $end
 $basis gbasis=pm3 $end
 $statpt nstep=200 $end
 $guess guess=huckel $end
 $data
VM2 Rank=1      G=62.075            E=29.291            -TS=32.785              
C1
C    6.0       21.2649473098       19.5699856628       21.1383752898
H    1.0       22.0468929085       19.7182957163       21.8916126918
H    1.0       21.7745796711       19.7414799940       20.1802783007
C    6.0       20.7595332052       18.1038075153       21.1583156213
H    1.0       19.7152359662       18.0408660591       20.8265172330
H    1.0       21.3326991671       17.5468214181       20.4044867265
C    6.0       20.9529807229       17.3662000287       22.5093841202
H    1.0       22.0133546454       17.4004977019       22.7947224394
H    1.0       20.7266423492       16.3038584579       22.3451436275
C    6.0       20.0857686826       17.8547889858       23.7002741014
H    1.0       19.0202806988       17.7989575900       23.4478120692
H    1.0       20.2245712769       17.1309632733       24.5147315934
C    6.0       20.4544398964       19.2645861112       24.2301189876
H    1.0       21.4702642945       19.5138221436       23.9017282668
C    6.0       19.4857873346       20.3914192102       23.7945591567
H    1.0       18.5769307902       20.3181937945       24.4070404220
H    1.0       19.9398093830       21.3598068171       24.0411495414
C    6.0       19.0436461969       20.4095204566       22.3085534901
H    1.0       18.3090849445       21.2184794381       22.1958389558
H    1.0       18.4890339214       19.4966793605       22.0627519262
C    6.0       20.1645101713       20.6552502531       21.2675815776
H    1.0       20.6410970619       21.6243703738       21.4681791852
H    1.0       19.6821741826       20.7603623057       20.2860985613
O    8.0       20.4523864804       19.2274417763       25.6528376554
H    1.0       20.7315735231       20.1156331959       25.9587945178
 $end
