$$$$
! Edit this basic GAMESS input file as needed.
! Conformer was generated by a VeraChem VCPack run 
! and contains     13 atoms.
!
 $contrl scftyp=rhf runtyp=optimize nzvar=0
  maxit=200 icharg=0 $end
 $system mwords=50 $end
 $basis gbasis=pm3 $end
 $statpt nstep=200 $end
 $guess guess=huckel $end
 $data
VM2 Rank=1      G=16.554            E=6.694             -TS=9.860               
C1
C    6.0       19.7183880710       18.9886977780       20.9308458759
H    1.0       18.7845003309       19.2996023871       20.4442472779
H    1.0       20.4604115455       18.7657164342       20.1549474095
C    6.0       19.5459588702       17.9070188520       22.0477919256
H    1.0       20.4631790929       17.3616272919       22.3028379457
H    1.0       18.7360009463       17.1846118667       21.8985638731
C    6.0       19.2225964551       19.1061531062       22.9894438563
H    1.0       18.1790586618       19.4457217078       22.9366863439
C    6.0       20.1960053619       19.9253054127       22.0892723846
H    1.0       21.2554003938       19.8236414508       22.3556018523
H    1.0       19.9609453238       20.9895102771       21.9789286479
O    8.0       19.6300512418       18.9478248510       24.3286459577
H    1.0       19.0296041133       18.2889505057       24.7391959334
 $end
$$$$
! Edit this basic GAMESS input file as needed.
! Conformer was generated by a VeraChem VCPack run 
! and contains     13 atoms.
!
 $contrl scftyp=rhf runtyp=optimize nzvar=0
  maxit=200 icharg=0 $end
 $system mwords=50 $end
 $basis gbasis=pm3 $end
 $statpt nstep=200 $end
 $guess guess=huckel $end
 $data
VM2 Rank=2      G=16.565            E=6.705             -TS=9.860               
C1
C    6.0       19.7183508724       18.9885870076       20.9308423300
H    1.0       20.4602830760       18.7653382724       20.1549339999
H    1.0       18.7843577246       19.2991708119       20.4442415407
C    6.0       19.5460093803       17.9071495350       22.0480250941
H    1.0       20.4624832896       17.3617352508       22.3052850842
H    1.0       18.7355834221       17.1849267400       21.9011728587
C    6.0       19.2226520408       19.1063188692       22.9894482012
H    1.0       18.1777180976       19.4415499643       22.9366005879
C    6.0       20.1960448317       19.9254496040       22.0890427729
H    1.0       21.2560589077       19.8234146212       22.3531472963
H    1.0       19.9614979496       20.9896183846       21.9763284423
O    8.0       19.6299428748       18.9474949843       24.3286416019
H    1.0       19.5216953688       19.8171375983       24.7704635720
 $end
$$$$
! Edit this basic GAMESS input file as needed.
! Conformer was generated by a VeraChem VCPack run 
! and contains     13 atoms.
!
 $contrl scftyp=rhf runtyp=optimize nzvar=0
  maxit=200 icharg=0 $end
 $system mwords=50 $end
 $basis gbasis=pm3 $end
 $statpt nstep=200 $end
 $guess guess=huckel $end
 $data
VM2 Rank=3      G=16.881            E=7.062             -TS=9.819               
C1
C    6.0       19.7178439863       18.9888015532       20.9312599329
H    1.0       18.7835411897       19.2996468978       20.4453349760
H    1.0       20.4590068887       18.7659643069       20.1544442841
C    6.0       19.5457400726       17.9064249620       22.0475917830
H    1.0       20.4618324463       17.3570395690       22.2972651642
H    1.0       18.7332988958       17.1864129524       21.8998977628
C    6.0       19.2241837962       19.1057331617       22.9896195089
H    1.0       18.1800219176       19.4430789644       22.9384934251
C    6.0       20.1962158286       19.9260692881       22.0888638989
H    1.0       21.2577087492       19.8281377051       22.3477634250
H    1.0       19.9582331149       20.9896856410       21.9776136413
O    8.0       19.6290163163       18.9479710350       24.3286648763
H    1.0       20.5619022307       18.6477388372       24.3112013860
 $end
$$$$
! Edit this basic GAMESS input file as needed.
! Conformer was generated by a VeraChem VCPack run 
! and contains     13 atoms.
!
 $contrl scftyp=rhf runtyp=optimize nzvar=0
  maxit=200 icharg=0 $end
 $system mwords=50 $end
 $basis gbasis=pm3 $end
 $statpt nstep=200 $end
 $guess guess=huckel $end
 $data
VM2 Rank=4      G=17.420            E=7.528             -TS=9.892               
C1
C    6.0       20.3521085593       18.7766666233       21.3180219606
H    1.0       20.4221018112       18.7764841848       20.2237300920
H    1.0       21.3189138629       18.4570097444       21.7271698512
C    6.0       19.1069697793       18.0469568357       21.9240703345
H    1.0       19.2663835517       17.0154593205       22.2576977461
H    1.0       18.2126102381       18.0737232387       21.2897045127
C    6.0       19.1275645944       19.1357573889       23.0412459700
H    1.0       18.1379937267       19.4470788680       23.3994561529
C    6.0       19.7592136869       20.0726021115       21.9654499485
H    1.0       20.4863527040       20.8042718554       22.3350930408
H    1.0       19.0247690929       20.5960046832       21.3412254750
O    8.0       19.9671433801       18.8430170405       24.1372117864
H    1.0       20.8296781455       18.5728141921       23.7599360039
 $end
$$$$
! Edit this basic GAMESS input file as needed.
! Conformer was generated by a VeraChem VCPack run 
! and contains     13 atoms.
!
 $contrl scftyp=rhf runtyp=optimize nzvar=0
  maxit=200 icharg=0 $end
 $system mwords=50 $end
 $basis gbasis=pm3 $end
 $statpt nstep=200 $end
 $guess guess=huckel $end
 $data
VM2 Rank=5      G=17.627            E=7.736             -TS=9.891               
C1
C    6.0       20.3542161129       18.7758686100       21.3214876389
H    1.0       20.4355158288       18.7714009707       20.2281684215
H    1.0       21.3151641894       18.4575640123       21.7463001555
C    6.0       19.1056889765       18.0482012492       21.9220285478
H    1.0       19.2646682812       17.0173333090       22.2573339230
H    1.0       18.2128870827       18.0763984267       21.2857322447
C    6.0       19.1282024016       19.1360962399       23.0406907111
H    1.0       18.1373229027       19.4457963992       23.3971365914
C    6.0       19.7574160266       20.0727367871       21.9623183695
H    1.0       19.0226831929       20.5921720168       21.3351596585
H    1.0       20.4844821960       20.8058701291       22.3287078457
O    8.0       19.9674764824       18.8420971139       24.1394747326
H    1.0       20.0357859966       19.6580663632       24.6795518490
 $end
$$$$
! Edit this basic GAMESS input file as needed.
! Conformer was generated by a VeraChem VCPack run 
! and contains     13 atoms.
!
 $contrl scftyp=rhf runtyp=optimize nzvar=0
  maxit=200 icharg=0 $end
 $system mwords=50 $end
 $basis gbasis=pm3 $end
 $statpt nstep=200 $end
 $guess guess=huckel $end
 $data
VM2 Rank=6      G=17.628            E=7.736             -TS=9.891               
C1
C    6.0       20.3542445469       18.7759556587       21.3214901567
H    1.0       21.3153121111       18.4580224725       21.7463114524
H    1.0       20.4359106865       18.7726223599       20.2281943661
C    6.0       19.1054672620       18.0480113235       21.9209510976
H    1.0       19.2640008787       17.0154859617       22.2512686356
H    1.0       18.2132269708       18.0782842740       21.2837979260
C    6.0       19.1278888988       19.1351242026       23.0406702189
H    1.0       18.1382171664       19.4485748773       23.3971932119
C    6.0       19.7574719666       20.0724138736       21.9633864441
H    1.0       20.4838726299       20.8037574348       22.3346966627
H    1.0       19.0234822803       20.5938290890       21.3371676133
O    8.0       19.9679273258       18.8434949417       24.1395020826
H    1.0       19.5410619536       18.1215276974       24.6481326557
 $end
