$$$$
! Edit this basic GAMESS input file as needed.
! Conformer was generated by a VeraChem VCPack run 
! and contains     17 atoms.
!
 $contrl scftyp=rhf runtyp=optimize nzvar=0
  maxit=200 icharg=0 $end
 $system mwords=50 $end
 $basis gbasis=pm3 $end
 $statpt nstep=200 $end
 $guess guess=huckel $end
 $data
VM2 Rank=1      G=-26.660           E=-36.826           -TS=10.165              
C1
C    6.0       20.1216153500       19.0267550670       25.0643091476
O    8.0       21.2293373345       19.3332840012       25.4593216077
O    8.0       19.0985043326       19.5456078625       25.4656525040
C    6.0       20.0076215863       17.9136311431       24.0271924536
H    1.0       19.0746309624       17.3709205698       24.2188542013
H    1.0       20.8161049599       17.1972216500       24.2138783264
C    6.0       20.0479306757       18.3594515489       22.5718603669
H    1.0       19.9642439178       17.5396076931       21.8612938359
C    6.0       20.1727382500       19.6232989133       22.1416523716
H    1.0       20.2559494308       20.4371197552       22.8608292530
C    6.0       20.2150097797       20.0871855432       20.6950153453
H    1.0       19.4079494458       20.8139391531       20.5307194002
H    1.0       21.1486292390       20.6406338469       20.5260247690
C    6.0       20.1002426912       18.9627859208       19.6419962033
H    1.0       20.1391557855       19.3804780183       18.6275721725
H    1.0       20.9245143708       18.2443513724       19.7411513190
H    1.0       19.1510023190       18.4209736593       19.7458471764
 $end
$$$$
! Edit this basic GAMESS input file as needed.
! Conformer was generated by a VeraChem VCPack run 
! and contains     17 atoms.
!
 $contrl scftyp=rhf runtyp=optimize nzvar=0
  maxit=200 icharg=0 $end
 $system mwords=50 $end
 $basis gbasis=pm3 $end
 $statpt nstep=200 $end
 $guess guess=huckel $end
 $data
VM2 Rank=2      G=-26.577           E=-36.437           -TS=9.860               
C1
C    6.0       19.9357765970       19.0108928473       25.0042193185
O    8.0       18.8064611030       18.5763539444       25.1174286372
O    8.0       20.3107919075       20.0471837492       25.5166100982
C    6.0       20.9446930049       18.1979159246       24.1987800507
H    1.0       20.6932984729       17.1374696495       24.3172040840
H    1.0       21.9287054342       18.3281664860       24.6640484367
C    6.0       21.0312241795       18.5393429711       22.7179646570
H    1.0       21.7573929840       17.9476296880       22.1619986255
C    6.0       20.3100265219       19.4700152714       22.0817880513
H    1.0       19.5766266679       20.0747228532       22.6139398363
C    6.0       20.4357915459       19.7718938388       20.6049697994
H    1.0       20.5202366406       20.8566732782       20.4544908912
H    1.0       21.3528936943       19.3249185487       20.1971832860
C    6.0       19.2182351402       19.2384014532       19.8252393876
H    1.0       18.2893306553       19.6982531675       20.1873604292
H    1.0       19.3141128158       19.4614292211       18.7546667530
H    1.0       19.1282378636       18.1501419005       19.9400629670
 $end
$$$$
! Edit this basic GAMESS input file as needed.
! Conformer was generated by a VeraChem VCPack run 
! and contains     17 atoms.
!
 $contrl scftyp=rhf runtyp=optimize nzvar=0
  maxit=200 icharg=0 $end
 $system mwords=50 $end
 $basis gbasis=pm3 $end
 $statpt nstep=200 $end
 $guess guess=huckel $end
 $data
VM2 Rank=3      G=-26.548           E=-36.409           -TS=9.860               
C1
C    6.0       20.3002650033       18.9745126821       25.0031700014
O    8.0       20.1404835370       20.0641941643       25.5171200842
O    8.0       21.3219455981       18.3251361070       25.1102788232
C    6.0       19.1459841905       18.3776140382       24.2038416448
H    1.0       18.2097933932       18.6996648653       24.6745334613
H    1.0       19.1833190107       17.2883291272       24.3214568904
C    6.0       19.1204134824       18.7302235478       22.7233381434
H    1.0       18.2886131123       18.2939082210       22.1717206965
C    6.0       20.0078235976       19.5002798800       22.0826246065
H    1.0       20.8492608526       19.9477543463       22.6103392063
C    6.0       19.9361376457       19.8216685596       20.6063072354
H    1.0       18.9465651093       19.5649561688       20.2038158804
H    1.0       20.0669476930       20.9018006530       20.4555615808
C    6.0       21.0199469454       19.0583710211       19.8203194611
H    1.0       20.9642207523       19.2964384885       18.7501426635
H    1.0       22.0233814470       19.3253650132       20.1771011622
H    1.0       20.8936716664       17.9737418717       19.9353384151
 $end
$$$$
! Edit this basic GAMESS input file as needed.
! Conformer was generated by a VeraChem VCPack run 
! and contains     17 atoms.
!
 $contrl scftyp=rhf runtyp=optimize nzvar=0
  maxit=200 icharg=0 $end
 $system mwords=50 $end
 $basis gbasis=pm3 $end
 $statpt nstep=200 $end
 $guess guess=huckel $end
 $data
VM2 Rank=4      G=-26.536           E=-36.511           -TS=9.975               
C1
C    6.0       20.2302525446       19.0497058688       25.1478437692
O    8.0       21.3843961020       18.9677742598       25.5196114756
O    8.0       19.4242650087       19.8245920783       25.6240640956
C    6.0       19.7683466163       18.1233270411       24.0306345282
H    1.0       18.6808779554       18.0062047935       24.1098734593
H    1.0       20.2107278970       17.1365335703       24.2096496397
C    6.0       20.1636686684       18.6293797908       22.6562127429
H    1.0       21.2341581348       18.6184727494       22.4586713940
C    6.0       19.2894236772       19.0660248066       21.7409278408
H    1.0       18.2256134690       19.0662281358       21.9762819729
C    6.0       19.6147541043       19.5880446436       20.3515953843
H    1.0       19.0774776867       18.9833906046       19.6084711935
H    1.0       19.2132762303       20.6054188192       20.2501675661
C    6.0       21.1178932785       19.6031515111       19.9961101634
H    1.0       21.2694208037       19.9928652396       18.9811258788
H    1.0       21.6800925522       20.2427905179       20.6891345159
H    1.0       21.5420168952       18.5911918994       20.0343338459
 $end
$$$$
! Edit this basic GAMESS input file as needed.
! Conformer was generated by a VeraChem VCPack run 
! and contains     17 atoms.
!
 $contrl scftyp=rhf runtyp=optimize nzvar=0
  maxit=200 icharg=0 $end
 $system mwords=50 $end
 $basis gbasis=pm3 $end
 $statpt nstep=200 $end
 $guess guess=huckel $end
 $data
VM2 Rank=5      G=-26.493           E=-36.129           -TS=9.636               
C1
C    6.0       20.1140964075       18.9945417291       25.2590244664
O    8.0       21.1852124322       19.4019924266       25.6633896174
O    8.0       19.0545403513       19.2355541822       25.8032789721
C    6.0       20.0969319704       18.1296121810       24.0055452722
H    1.0       19.3781179070       17.3182343980       24.1682796208
H    1.0       21.0845429427       17.6658492004       23.8951446194
C    6.0       19.7231698042       18.9150716166       22.7629254040
H    1.0       18.6943467065       19.2723919757       22.7305649081
C    6.0       20.5644481847       19.1753814754       21.7575790685
H    1.0       21.5939178835       18.8203164333       21.7919529042
C    6.0       20.1910456779       19.9619793277       20.5209850574
H    1.0       19.2421669702       20.4938682928       20.6757207272
H    1.0       20.9534022424       20.7280196494       20.3246944848
C    6.0       20.0635551720       19.0378670614       19.2942721419
H    1.0       19.7930782356       19.6143219229       18.4000531150
H    1.0       21.0111851336       18.5213065957       19.0927991679
H    1.0       19.2878005534       18.2781409976       19.4574288916
 $end
$$$$
! Edit this basic GAMESS input file as needed.
! Conformer was generated by a VeraChem VCPack run 
! and contains     17 atoms.
!
 $contrl scftyp=rhf runtyp=optimize nzvar=0
  maxit=200 icharg=0 $end
 $system mwords=50 $end
 $basis gbasis=pm3 $end
 $statpt nstep=200 $end
 $guess guess=huckel $end
 $data
VM2 Rank=6      G=-26.486           E=-36.460           -TS=9.974               
C1
C    6.0       20.0343567585       18.8557352267       25.1338374917
O    8.0       20.0798517317       17.6768862998       25.4257538208
O    8.0       19.2333878280       19.6356019910       25.6103955201
C    6.0       21.0426588281       19.3842829065       24.1220792184
H    1.0       22.0104291469       18.9173899510       24.3387411942
H    1.0       21.1622958480       20.4616706771       24.2879349968
C    6.0       20.6341553279       19.0949942753       22.6900044914
H    1.0       20.6515008471       18.0413987705       22.4166469256
C    6.0       20.2712167561       20.0380908772       21.8116238332
H    1.0       20.2619524477       21.0821951653       22.1228216331
C    6.0       19.8486605932       19.8199026415       20.3685626227
H    1.0       18.8441294619       20.2400707374       20.2240005092
H    1.0       20.5092043307       20.4017598568       19.7115764415
C    6.0       19.8487121765       18.3465057819       19.9047430016
H    1.0       19.5324553662       18.2731295627       18.8561124133
H    1.0       20.8522257587       17.9083327283       19.9845494878
H    1.0       19.1566156536       17.7438418139       20.5074759820
 $end
$$$$
! Edit this basic GAMESS input file as needed.
! Conformer was generated by a VeraChem VCPack run 
! and contains     17 atoms.
!
 $contrl scftyp=rhf runtyp=optimize nzvar=0
  maxit=200 icharg=0 $end
 $system mwords=50 $end
 $basis gbasis=pm3 $end
 $statpt nstep=200 $end
 $guess guess=huckel $end
 $data
VM2 Rank=7      G=-26.480           E=-36.116           -TS=9.636               
C1
C    6.0       20.1102394914       18.9989070594       25.2592527169
O    8.0       20.6754657438       19.9844525009       25.6905716911
O    8.0       20.2327965546       17.8895487487       25.7401520610
C    6.0       19.1936701992       19.1615862122       24.0538301248
H    1.0       18.8614102010       20.2059276279       24.0139176396
H    1.0       18.3019406583       18.5477970204       24.2258472813
C    6.0       19.8637458690       18.7542587750       22.7554337228
H    1.0       20.0786373557       17.6906441994       22.6567130575
C    6.0       20.1873465639       19.6060984624       21.7777423575
H    1.0       19.9750564253       20.6699820654       21.8784614109
C    6.0       20.8591111420       19.1986915321       20.4854282660
H    1.0       21.7102129548       19.8633600534       20.2844921622
H    1.0       21.2660887423       18.1814397062       20.5678187042
C    6.0       19.8706244361       19.2584567093       19.3045890599
H    1.0       20.3639185599       18.9624558076       18.3696397898
H    1.0       19.0224773069       18.5814117486       19.4714925217
H    1.0       19.4764602577       20.2749245926       19.1747565426
 $end
$$$$
! Edit this basic GAMESS input file as needed.
! Conformer was generated by a VeraChem VCPack run 
! and contains     17 atoms.
!
 $contrl scftyp=rhf runtyp=optimize nzvar=0
  maxit=200 icharg=0 $end
 $system mwords=50 $end
 $basis gbasis=pm3 $end
 $statpt nstep=200 $end
 $guess guess=huckel $end
 $data
VM2 Rank=8      G=-26.409           E=-36.055           -TS=9.646               
C1
C    6.0       20.1633141765       19.1351043010       25.1459620632
O    8.0       21.2735069561       19.5656603753       25.3886664034
O    8.0       19.1533706197       19.5355127859       25.6906547113
C    6.0       20.0290204183       18.0258212785       24.1109333863
H    1.0       19.3069021839       17.2958591756       24.4945795182
H    1.0       20.9943011239       17.5113701720       24.0320241904
C    6.0       19.5772469775       18.5444372885       22.7590070453
H    1.0       18.5593381108       18.9317195564       22.7259834866
C    6.0       20.3425960869       18.5521322258       21.6633808308
H    1.0       21.3621233784       18.1694985122       21.6982380759
C    6.0       19.8911890877       19.0725009889       20.3169845117
H    1.0       20.1384422348       18.3418682742       19.5349588226
H    1.0       18.7996225004       19.1964793982       20.2990831580
C    6.0       20.5627556774       20.4208307560       19.9914110479
H    1.0       20.3092526296       21.1751233666       20.7480220819
H    1.0       21.6554838352       20.3176911604       19.9643290896
H    1.0       20.2313891925       20.7940398850       19.0136699060
 $end
