$$$$
! Edit this basic GAMESS input file as needed.
! Conformer was generated by a VeraChem VCPack run 
! and contains     16 atoms.
!
 $contrl scftyp=rhf runtyp=optimize nzvar=0
  maxit=200 icharg=0 $end
 $system mwords=50 $end
 $basis gbasis=pm3 $end
 $statpt nstep=200 $end
 $guess guess=huckel $end
 $data
VM2 Rank=1      G=30.218            E=15.547            -TS=14.671              
C1
C    6.0       19.6971340101       19.0163941502       20.9390872612
H    1.0       19.6785326363       19.9332966868       20.3343884149
H    1.0       20.1312980103       18.2118502928       20.3293479795
C    6.0       18.2981261656       18.6037638693       21.4167971045
H    1.0       17.7279775799       19.4984219737       21.7035768124
H    1.0       17.7317647073       18.0676498446       20.6431799867
C    6.0       18.5585724705       17.7365959629       22.6617072180
H    1.0       18.6890568386       16.6896765403       22.3577370513
H    1.0       17.7164446639       17.7774022799       23.3651823515
C    6.0       19.8755793780       18.2476386542       23.2814914672
H    1.0       20.5433322164       17.3965118492       23.4794679718
C    6.0       20.5129786344       19.1856849309       22.2344692523
H    1.0       20.4511967063       20.2285839587       22.5740019441
H    1.0       21.5724506909       18.9477206990       22.0750668814
O    8.0       19.6066093414       18.9649224324       24.4804476968
H    1.0       19.1944006334       18.3291648084       25.1026556613
 $end
