$$$$
! Edit this basic GAMESS input file as needed.
! Conformer was generated by a VeraChem VCPack run 
! and contains     23 atoms.
!
 $contrl scftyp=rhf runtyp=optimize nzvar=0
  maxit=200 icharg=0 $end
 $system mwords=50 $end
 $basis gbasis=pm3 $end
 $statpt nstep=200 $end
 $guess guess=huckel $end
 $data
VM2 Rank=1      G=37.917            E=10.396            -TS=27.520              
C1
N    7.0       19.7413605840       18.6609666107       26.4278134748
H    1.0       19.4802507828       19.1972187717       27.2622888019
H    1.0       20.7320187447       18.4173395626       26.5284406035
H    1.0       19.2105832926       17.7845063602       26.4590531487
C    6.0       19.4764061847       19.4376213977       25.1540373885
H    1.0       20.0478730758       20.3685799870       25.2013448044
H    1.0       18.4125208783       19.6884273704       25.1268051331
C    6.0       19.8579518489       18.6596319763       23.8821364306
H    1.0       20.9232989960       18.3958345574       23.9214463874
H    1.0       19.2937876982       17.7180382547       23.8472101029
C    6.0       19.5728321099       19.4846688857       22.6076939432
H    1.0       20.1349251673       20.4281485237       22.6489225378
H    1.0       18.5071217592       19.7510895050       22.5747818793
C    6.0       19.9524834984       18.7124968894       21.3237084827
H    1.0       21.0180612577       18.4460716414       21.3564520491
H    1.0       19.3904458920       17.7691457478       21.2822837480
C    6.0       19.6672669866       19.5379086568       20.0493040832
H    1.0       20.2292272130       20.4817870804       20.0848744453
H    1.0       18.6017953776       19.8048296612       20.0106426498
C    6.0       20.0476987876       18.7637055834       18.7693061971
H    1.0       19.4761483932       17.8299108739       18.6881467418
H    1.0       21.1162938035       18.5121244919       18.7629833834
H    1.0       19.8381352642       19.3655787624       17.8755060422
 $end
$$$$
! Edit this basic GAMESS input file as needed.
! Conformer was generated by a VeraChem VCPack run 
! and contains     23 atoms.
!
 $contrl scftyp=rhf runtyp=optimize nzvar=0
  maxit=200 icharg=0 $end
 $system mwords=50 $end
 $basis gbasis=pm3 $end
 $statpt nstep=200 $end
 $guess guess=huckel $end
 $data
VM2 Rank=2      G=38.206            E=10.584            -TS=27.622              
C1
N    7.0       20.4491464983       19.4573087771       25.7939232759
H    1.0       20.3534444432       19.8732736835       26.7265562372
H    1.0       20.8557700976       20.1751419607       25.1865434555
H    1.0       21.1372924748       18.7017580548       25.8731668826
C    6.0       19.1203669256       18.9563635377       25.2622906045
H    1.0       18.4287092033       19.8023524490       25.2256149259
H    1.0       18.7300647319       18.2283302629       25.9786848701
C    6.0       19.2146266799       18.3026311661       23.8699517715
H    1.0       19.9142654872       17.4570574241       23.9086343967
H    1.0       18.2316310279       17.8842673257       23.6156410768
C    6.0       19.6474954662       19.2996576126       22.7689055244
H    1.0       20.6463910813       19.6957714239       22.9954894723
H    1.0       18.9591143324       20.1562449362       22.7599363989
C    6.0       19.6671240437       18.6391052571       21.3716948322
H    1.0       20.3532570193       17.7808220595       21.3806925526
H    1.0       18.6686036147       18.2449328458       21.1370275075
C    6.0       20.0997469065       19.6325572577       20.2704627567
H    1.0       21.0996356830       20.0276053125       20.4987338063
H    1.0       19.4150764330       20.4922036908       20.2562848633
C    6.0       20.1174934799       18.9693763917       18.8767712348
H    1.0       19.1220882299       18.5942172833       18.6053802860
H    1.0       20.8197552839       18.1259738085       18.8498118721
H    1.0       20.4268237960       19.6898814677       18.1085079308
 $end
$$$$
! Edit this basic GAMESS input file as needed.
! Conformer was generated by a VeraChem VCPack run 
! and contains     23 atoms.
!
 $contrl scftyp=rhf runtyp=optimize nzvar=0
  maxit=200 icharg=0 $end
 $system mwords=50 $end
 $basis gbasis=pm3 $end
 $statpt nstep=200 $end
 $guess guess=huckel $end
 $data
VM2 Rank=3      G=38.223            E=10.601            -TS=27.623              
C1
N    7.0       18.7298455903       18.7422470847       25.7154893777
H    1.0       17.9834054191       18.9804694324       25.0554784537
H    1.0       18.4301446254       19.0734353764       26.6387902907
H    1.0       18.7754267751       17.7194547897       25.7654838375
C    6.0       20.0586023832       19.3465613638       25.3050644420
H    1.0       20.7923728117       19.0860085772       26.0727122489
H    1.0       19.9481729967       20.4342809431       25.2949204342
C    6.0       20.5632544332       18.8635534083       23.9314227037
H    1.0       21.5692183472       19.2725001580       23.7677695940
H    1.0       20.6677279701       17.7704217088       23.9429616270
C    6.0       19.6389464521       19.2960733225       22.7685293008
H    1.0       19.5163944998       20.3880380195       22.7854055746
H    1.0       18.6397510757       18.8609978759       22.9040183460
C    6.0       20.2012159933       18.8613212108       21.3960288871
H    1.0       21.1993588233       19.2978401912       21.2523405156
H    1.0       20.3266345377       17.7697603043       21.3794455536
C    6.0       19.2795251566       19.2913700012       20.2331159783
H    1.0       19.1525857490       20.3830324735       20.2443347148
H    1.0       18.2802751124       18.8547765239       20.3703518057
C    6.0       19.8446099913       18.8558736086       18.8643493105
H    1.0       20.8299515442       19.3047466547       18.6831228386
H    1.0       19.1768678162       19.1698787907       18.0515991551
H    1.0       19.9509280308       17.7645447187       18.8102761015
 $end
$$$$
! Edit this basic GAMESS input file as needed.
! Conformer was generated by a VeraChem VCPack run 
! and contains     23 atoms.
!
 $contrl scftyp=rhf runtyp=optimize nzvar=0
  maxit=200 icharg=0 $end
 $system mwords=50 $end
 $basis gbasis=pm3 $end
 $statpt nstep=200 $end
 $guess guess=huckel $end
 $data
VM2 Rank=4      G=38.379            E=10.761            -TS=27.618              
C1
N    7.0       19.5096834092       18.2598533672       26.0548432546
H    1.0       20.4067227166       17.7705977826       26.1372301793
H    1.0       18.7900578167       17.6263190208       26.4192708017
H    1.0       19.5460660879       19.0648566819       26.6884814892
C    6.0       19.2219763068       18.6768340980       24.6268646616
H    1.0       18.2432554601       19.1638342249       24.6080643047
H    1.0       19.1674684136       17.7709100402       24.0177489208
C    6.0       20.2860358942       19.6299392003       24.0504716185
H    1.0       20.3621176332       20.5150294853       24.6960520346
H    1.0       21.2692061099       19.1410817374       24.0702774644
C    6.0       19.9615128915       20.0868585973       22.6086171149
H    1.0       20.7076650068       20.8317119290       22.2989374190
H    1.0       18.9889067302       20.5982706168       22.5965477900
C    6.0       19.9519855771       18.9222300761       21.5892982364
H    1.0       20.9140375967       18.3927030406       21.6276736119
H    1.0       19.1763752751       18.1931138284       21.8592511586
C    6.0       19.6977199257       19.4218654277       20.1496861566
H    1.0       20.4735624217       20.1465925715       19.8654361665
H    1.0       18.7365605564       19.9531052536       20.1056974398
C    6.0       19.6870859955       18.2594192334       19.1342189574
H    1.0       20.6483855791       17.7292118644       19.1310303582
H    1.0       19.5056230167       18.6337908549       18.1183641131
H    1.0       18.8976229142       17.5345540937       19.3719991699
 $end
$$$$
! Edit this basic GAMESS input file as needed.
! Conformer was generated by a VeraChem VCPack run 
! and contains     23 atoms.
!
 $contrl scftyp=rhf runtyp=optimize nzvar=0
  maxit=200 icharg=0 $end
 $system mwords=50 $end
 $basis gbasis=pm3 $end
 $statpt nstep=200 $end
 $guess guess=huckel $end
 $data
VM2 Rank=5      G=38.446            E=10.828            -TS=27.618              
C1
N    7.0       20.2168630278       18.5541171446       26.0871389627
H    1.0       21.1422599994       18.6048719360       26.5265681118
H    1.0       19.9271307688       17.5712182102       26.1154849199
H    1.0       19.5722464746       19.0758938990       26.6896924014
C    6.0       20.2344324918       19.0979975776       24.6730456521
H    1.0       20.9613766573       18.5171304244       24.0996004498
H    1.0       20.5780692334       20.1351151637       24.7144944793
C    6.0       18.8574693090       19.0355818284       23.9853441191
H    1.0       18.5119811280       17.9939633511       23.9445456694
H    1.0       18.1272930598       19.5852287547       24.5941764638
C    6.0       18.8736093601       19.6342612937       22.5590367131
H    1.0       19.1951453838       20.6840520165       22.6059814562
H    1.0       17.8465230696       19.6414345082       22.1685330423
C    6.0       19.7839454048       18.8523327961       21.5816256320
H    1.0       20.8236625416       18.8784699069       21.9342773124
H    1.0       19.4806504410       17.7963700282       21.5623602306
C    6.0       19.7202419202       19.4312488315       20.1506938843
H    1.0       20.0221869836       20.4879535686       20.1642227438
H    1.0       18.6845644882       19.4023637318       19.7839534167
C    6.0       20.6294384863       18.6514605282       19.1771150368
H    1.0       20.5704450758       19.0767620746       18.1668269853
H    1.0       20.3303474810       17.5968958130       19.1165724552
H    1.0       21.6783802691       18.6914283012       19.4985863727
 $end
$$$$
! Edit this basic GAMESS input file as needed.
! Conformer was generated by a VeraChem VCPack run 
! and contains     23 atoms.
!
 $contrl scftyp=rhf runtyp=optimize nzvar=0
  maxit=200 icharg=0 $end
 $system mwords=50 $end
 $basis gbasis=pm3 $end
 $statpt nstep=200 $end
 $guess guess=huckel $end
 $data
VM2 Rank=6      G=38.523            E=10.893            -TS=27.630              
C1
N    7.0       19.5473823380       18.7522013738       26.3216515032
H    1.0       19.7317092764       17.7456487802       26.3828611474
H    1.0       18.8411872074       18.9695424922       27.0330788105
H    1.0       20.4084093479       19.2339223247       26.5999505684
C    6.0       19.0936208245       19.1608277425       24.9349258994
H    1.0       18.8876615490       20.2345359663       24.9499445117
H    1.0       18.1602614166       18.6348447199       24.7165830929
C    6.0       20.1322558026       18.8478598215       23.8431959357
H    1.0       21.0728154617       19.3648783607       24.0757835447
H    1.0       20.3479004806       17.7710147535       23.8423107465
C    6.0       19.6321823314       19.2790118935       22.4466343438
H    1.0       19.4159006483       20.3563811615       22.4517546833
H    1.0       18.6865173036       18.7647384898       22.2298784515
C    6.0       20.6694651899       18.9645189470       21.3417848025
H    1.0       21.6298033073       19.4268895372       21.6089362617
H    1.0       20.8494212973       17.8813943217       21.2994814318
C    6.0       20.2523766894       19.4738907027       19.9408369349
H    1.0       21.0845061015       19.3063535752       19.2427347622
H    1.0       20.0925030279       20.5607293538       19.9727957207
C    6.0       18.9887168242       18.7786895189       19.3849705805
H    1.0       18.7903768337       19.1076302245       18.3566690973
H    1.0       18.1009032083       19.0167221961       19.9837583757
H    1.0       19.1120947637       17.6880108220       19.3703091222
 $end
$$$$
! Edit this basic GAMESS input file as needed.
! Conformer was generated by a VeraChem VCPack run 
! and contains     23 atoms.
!
 $contrl scftyp=rhf runtyp=optimize nzvar=0
  maxit=200 icharg=0 $end
 $system mwords=50 $end
 $basis gbasis=pm3 $end
 $statpt nstep=200 $end
 $guess guess=huckel $end
 $data
VM2 Rank=7      G=38.557            E=10.927            -TS=27.630              
C1
N    7.0       19.8212218458       18.8660274881       26.3341389052
H    1.0       20.3997061562       18.0234342897       26.4132934605
H    1.0       18.8541785907       18.5872993879       26.5291036305
H    1.0       20.1078746985       19.4963557556       27.0908385399
C    6.0       19.9580211090       19.5203496854       24.9743470692
H    1.0       21.0025350483       19.8170734027       24.8461405045
H    1.0       19.3413092408       20.4232050073       24.9706840557
C    6.0       19.5351336742       18.5995030975       23.8159877229
H    1.0       20.1461580639       17.6871138628       23.8330929462
H    1.0       18.4908029267       18.2909127903       23.9581203899
C    6.0       19.6892712965       19.3028025218       22.4492527180
H    1.0       20.7340257386       19.6163858401       22.3231803533
H    1.0       19.0780352788       20.2159040173       22.4364176422
C    6.0       19.2693510141       18.3822874404       21.2779823585
H    1.0       19.9129952295       17.4920028296       21.2567984703
H    1.0       18.2471025580       18.0201299116       21.4547758258
C    6.0       19.3102801451       19.0821691546       19.8979211605
H    1.0       18.6508403036       19.9612897093       19.9071799931
H    1.0       18.8986510552       18.3975204872       19.1431545728
C    6.0       20.7327209152       19.5038606123       19.4643700657
H    1.0       21.1413064273       20.2807961171       20.1222818354
H    1.0       20.7188487256       19.9096665250       18.4445299274
H    1.0       21.4191371314       18.6472780896       19.4751887852
 $end
$$$$
! Edit this basic GAMESS input file as needed.
! Conformer was generated by a VeraChem VCPack run 
! and contains     23 atoms.
!
 $contrl scftyp=rhf runtyp=optimize nzvar=0
  maxit=200 icharg=0 $end
 $system mwords=50 $end
 $basis gbasis=pm3 $end
 $statpt nstep=200 $end
 $guess guess=huckel $end
 $data
VM2 Rank=8      G=38.645            E=11.025            -TS=27.619              
C1
N    7.0       19.3992751502       18.2117472372       26.0666271796
H    1.0       18.6476607387       17.5625069589       25.8128786032
H    1.0       19.1879270757       18.5585977934       27.0084906757
H    1.0       20.2614790535       17.6619189175       26.1384442266
C    6.0       19.5314283631       19.3428426775       25.0670537566
H    1.0       20.3260177215       20.0087852417       25.4143707376
H    1.0       18.5916821611       19.9017311729       25.0635441284
C    6.0       19.8496109407       18.8557563374       23.6422315291
H    1.0       20.7856862042       18.2817102508       23.6537664433
H    1.0       19.0554322761       18.1742770436       23.3124527491
C    6.0       19.9778535270       20.0417130991       22.6573249971
H    1.0       20.7194458302       20.7518087367       23.0491664283
H    1.0       19.0252224820       20.5873062379       22.6081768794
C    6.0       20.4084772108       19.6196765006       21.2308451040
H    1.0       20.5872493766       20.5277301345       20.6384731940
H    1.0       21.3694246732       19.0889288994       21.2778780070
C    6.0       19.3631444593       18.7423660814       20.5019385534
H    1.0       18.3885881322       19.2503022444       20.5001345108
H    1.0       19.2264569256       17.7924400605       21.0354842041
C    6.0       19.7862103490       18.4428980667       19.0479788802
H    1.0       19.8934268828       19.3692817372       18.4687236038
H    1.0       19.0358443821       17.8177114729       18.5468489445
H    1.0       20.7445372662       17.9081546481       19.0181525336
 $end
