$$$$
! Edit this basic GAMESS input file as needed.
! Conformer was generated by a VeraChem VCPack run 
! and contains     20 atoms.
!
 $contrl scftyp=rhf runtyp=optimize nzvar=0
  maxit=200 icharg=0 $end
 $system mwords=50 $end
 $basis gbasis=pm3 $end
 $statpt nstep=200 $end
 $guess guess=huckel $end
 $data
VM2 Rank=1      G=53.937            E=31.435            -TS=22.502              
C1
C    6.0       19.8543508795       19.1510030836       18.8169383099
H    1.0       20.0356664222       20.2331301649       18.7808592570
H    1.0       20.3379259714       18.6998818984       17.9407695168
H    1.0       18.7731811130       18.9827310850       18.7278752690
C    6.0       20.4072638470       18.5374681041       20.1215824162
H    1.0       21.4948225512       18.6913206951       20.1651397935
H    1.0       20.2422726625       17.4507080185       20.1125613779
C    6.0       19.7439058382       19.1541887253       21.3727338018
H    1.0       19.9120420724       20.2393585219       21.3827340181
H    1.0       18.6578819184       18.9970016234       21.3301722846
C    6.0       20.3005696349       18.5373804627       22.6693666351
H    1.0       21.3791658382       18.7056237356       22.7224060960
H    1.0       20.1208444377       17.4593330076       22.6697645825
N    7.0       19.6775785265       19.1133194933       23.9259034472
H    1.0       18.6546900022       18.9806663722       23.9098814637
H    1.0       19.8197986510       20.1345229302       23.9586662376
C    6.0       20.2823312739       18.4506401311       25.1564753898
H    1.0       21.3590495940       18.6330546496       25.1709886866
H    1.0       19.8251177474       18.8743696924       26.0533693185
H    1.0       20.0900086033       17.3762442043       25.1178330155
 $end
$$$$
! Edit this basic GAMESS input file as needed.
! Conformer was generated by a VeraChem VCPack run 
! and contains     20 atoms.
!
 $contrl scftyp=rhf runtyp=optimize nzvar=0
  maxit=200 icharg=0 $end
 $system mwords=50 $end
 $basis gbasis=pm3 $end
 $statpt nstep=200 $end
 $guess guess=huckel $end
 $data
VM2 Rank=2      G=54.084            E=31.414            -TS=22.671              
C1
C    6.0       20.2446823717       19.5233521725       19.0575481286
H    1.0       21.0844206746       20.2044575867       19.2475604475
H    1.0       20.4068676992       19.0550497853       18.0780541988
H    1.0       19.3265618955       20.1220377652       18.9959192827
C    6.0       20.1365609811       18.4513618268       20.1636305644
H    1.0       21.0548785342       17.8473597455       20.1777890311
H    1.0       19.3108996672       17.7651839678       19.9275133051
C    6.0       19.9075297138       19.0821502495       21.5547959659
H    1.0       20.7340625439       19.7663074550       21.7861542860
H    1.0       18.9878132098       19.6817806442       21.5411295333
C    6.0       19.7993922470       18.0035638089       22.6524899868
H    1.0       20.7301642680       17.4332657349       22.7054589887
H    1.0       18.9938038227       17.3122383581       22.3921540956
N    7.0       19.5005575157       18.5423916177       24.0421392345
H    1.0       19.2825272298       17.7581718999       24.6767640678
H    1.0       18.6430797413       19.1153363081       24.0265704297
C    6.0       20.6772771706       19.3411803246       24.5923961197
H    1.0       20.8595094047       20.2064409647       23.9520823042
H    1.0       20.4391531402       19.6779812691       25.6037486273
H    1.0       21.5642694976       18.7044802307       24.6161616493
 $end
$$$$
! Edit this basic GAMESS input file as needed.
! Conformer was generated by a VeraChem VCPack run 
! and contains     20 atoms.
!
 $contrl scftyp=rhf runtyp=optimize nzvar=0
  maxit=200 icharg=0 $end
 $system mwords=50 $end
 $basis gbasis=pm3 $end
 $statpt nstep=200 $end
 $guess guess=huckel $end
 $data
VM2 Rank=3      G=54.173            E=31.503            -TS=22.670              
C1
C    6.0       19.4687170870       18.7547703336       19.0250510548
H    1.0       18.8814105247       19.6810244069       18.9771662612
H    1.0       19.9765558551       18.6286111414       18.0600635499
H    1.0       18.7726990333       17.9151788714       19.1507987501
C    6.0       20.4938886451       18.8051367427       20.1786341612
H    1.0       21.1967640140       19.6325726891       20.0065146458
H    1.0       21.0885483502       17.8806333238       20.1793225814
C    6.0       19.8068758617       18.9825556065       21.5505737609
H    1.0       19.2164783809       19.9083271654       21.5505914883
H    1.0       19.1062974182       18.1543614308       21.7180194077
C    6.0       20.8389823256       19.0333762370       22.6960613744
H    1.0       21.5476155703       19.8419368110       22.4992216721
H    1.0       21.3984866258       18.0953261891       22.7334462499
N    7.0       20.2444658841       19.2792901547       24.0733165987
H    1.0       19.6800644447       20.1425474237       24.0700458854
H    1.0       21.0029912484       19.4624144306       24.7488836350
C    6.0       19.4130701965       18.0888709255       24.5393630500
H    1.0       18.5741013816       17.9426217632       23.8562610898
H    1.0       20.0405583864       17.1951145858       24.5521826332
H    1.0       19.0358986814       18.2878535239       25.5449061155
 $end
$$$$
! Edit this basic GAMESS input file as needed.
! Conformer was generated by a VeraChem VCPack run 
! and contains     20 atoms.
!
 $contrl scftyp=rhf runtyp=optimize nzvar=0
  maxit=200 icharg=0 $end
 $system mwords=50 $end
 $basis gbasis=pm3 $end
 $statpt nstep=200 $end
 $guess guess=huckel $end
 $data
VM2 Rank=4      G=54.304            E=31.705            -TS=22.599              
C1
C    6.0       20.8667338028       19.3664731576       19.5193735376
H    1.0       20.5576638556       20.4198344152       19.5219958926
H    1.0       21.7364211574       19.2627081568       20.1803877416
H    1.0       21.1934080772       19.1163092721       18.5016843582
C    6.0       19.7057062843       18.4445612065       19.9579865903
H    1.0       20.0429429683       17.3984014100       19.9527085895
H    1.0       18.8958128687       18.5113529537       19.2179696416
C    6.0       19.1424088066       18.8035472195       21.3529791429
H    1.0       18.7741747458       19.8380625728       21.3461017977
H    1.0       18.2762263537       18.1625077042       21.5642920771
C    6.0       20.1839135576       18.6322018031       22.4759908490
H    1.0       21.0329924359       19.2956605501       22.2952881440
H    1.0       20.5483236175       17.6019062549       22.4843534928
N    7.0       19.6383392196       18.9444624033       23.8555969685
H    1.0       18.8280105713       18.3410048559       24.0637124833
H    1.0       19.2748061120       19.9093752365       23.8852266200
C    6.0       20.7288983291       18.7527542099       24.9010729117
H    1.0       20.3227981249       18.9807187650       25.8890602026
H    1.0       21.0742377107       17.7169581343       24.8751554518
H    1.0       21.5607679084       19.4253158540       24.6809521480
 $end
$$$$
! Edit this basic GAMESS input file as needed.
! Conformer was generated by a VeraChem VCPack run 
! and contains     20 atoms.
!
 $contrl scftyp=rhf runtyp=optimize nzvar=0
  maxit=200 icharg=0 $end
 $system mwords=50 $end
 $basis gbasis=pm3 $end
 $statpt nstep=200 $end
 $guess guess=huckel $end
 $data
VM2 Rank=5      G=54.310            E=31.711            -TS=22.599              
C1
C    6.0       19.6008436878       18.1121151991       19.4663395473
H    1.0       19.6693987552       17.2145320307       20.0938006447
H    1.0       18.5509008713       18.4313496285       19.4378987879
H    1.0       19.8910882297       17.8258197882       18.4471324182
C    6.0       20.5129480407       19.2444706992       19.9918148962
H    1.0       20.4841460195       20.0852704733       19.2845385031
H    1.0       21.5555814690       18.8972919874       20.0160715105
C    6.0       20.1000386699       19.7524285446       21.3931226950
H    1.0       20.7387951365       20.6024551504       21.6675348845
H    1.0       19.0698525761       20.1310894712       21.3585085429
C    6.0       20.2150410539       18.6631023009       22.4772759699
H    1.0       21.2409245220       18.2880767713       22.5132202658
H    1.0       19.5525667899       17.8292105144       22.2333107446
N    7.0       19.8496030314       19.1536208580       23.8644735639
H    1.0       18.8875010324       19.5256801842       23.8691086549
H    1.0       20.4507716261       19.9481517606       24.1317194958
C    6.0       19.9875255164       18.0182623983       24.8699733277
H    1.0       21.0204353727       17.6634490889       24.8727465903
H    1.0       19.7216620554       18.3849861907       25.8638719832
H    1.0       19.3175992124       17.2034574767       24.5869689187
 $end
$$$$
! Edit this basic GAMESS input file as needed.
! Conformer was generated by a VeraChem VCPack run 
! and contains     20 atoms.
!
 $contrl scftyp=rhf runtyp=optimize nzvar=0
  maxit=200 icharg=0 $end
 $system mwords=50 $end
 $basis gbasis=pm3 $end
 $statpt nstep=200 $end
 $guess guess=huckel $end
 $data
VM2 Rank=6      G=54.342            E=31.753            -TS=22.589              
C1
C    6.0       19.6843582371       18.8158151253       18.9888614551
H    1.0       20.5413271879       19.3304649964       18.5350885369
H    1.0       19.4591587152       17.9337323070       18.3754766732
H    1.0       18.8179388915       19.4883097126       18.9414100181
C    6.0       19.9896480785       18.4041705031       20.4453551914
H    1.0       20.8399903503       17.7076621594       20.4562802413
H    1.0       19.1275243569       17.8583054546       20.8518890891
C    6.0       20.3100674812       19.6309363047       21.3316741436
H    1.0       21.1481585345       20.1874291809       20.8914444431
H    1.0       19.4536955120       20.3181164907       21.3479853768
C    6.0       20.6878848386       19.2435132502       22.7755231275
H    1.0       20.9885417051       20.1403337447       23.3231881403
H    1.0       21.5356653519       18.5539544670       22.7609606514
N    7.0       19.5633355608       18.5876368907       23.5546915034
H    1.0       19.2485394086       17.7325816910       23.0727803790
H    1.0       18.7396198196       19.2080314161       23.5802335651
C    6.0       20.0307058038       18.2619279260       24.9668945791
H    1.0       20.3277383056       19.1849717290       25.4694352889
H    1.0       19.2124899709       17.7908038665       25.5160343968
H    1.0       20.8812928307       17.5787775889       24.9159279919
 $end
$$$$
! Edit this basic GAMESS input file as needed.
! Conformer was generated by a VeraChem VCPack run 
! and contains     20 atoms.
!
 $contrl scftyp=rhf runtyp=optimize nzvar=0
  maxit=200 icharg=0 $end
 $system mwords=50 $end
 $basis gbasis=pm3 $end
 $statpt nstep=200 $end
 $guess guess=huckel $end
 $data
VM2 Rank=7      G=54.383            E=31.794            -TS=22.589              
C1
C    6.0       20.1834527100       19.3099588597       19.0097771387
H    1.0       19.6811625433       18.4780745986       18.4990491329
H    1.0       19.5210277695       20.1845168568       18.9707443357
H    1.0       21.0926302143       19.5514597717       18.4440034234
C    6.0       20.5303878135       18.9398178046       20.4680821399
H    1.0       21.0659631445       19.7784832250       20.9331581039
H    1.0       21.2184471757       18.0825652399       20.4723393663
C    6.0       19.2644680989       18.5954269845       21.2878574265
H    1.0       18.5846822526       19.4575102180       21.3115322121
H    1.0       18.7198411362       17.7823688288       20.7896596011
C    6.0       19.5871484146       18.1534589009       22.7294130467
H    1.0       20.2692187176       17.2997884438       22.7079273136
H    1.0       18.6653650823       17.8396463862       23.2258575679
N    7.0       20.2193806875       19.2374260107       23.5821658183
H    1.0       19.6056880215       20.0658246840       23.6165885966
H    1.0       21.0967174681       19.5631273274       23.1501317490
C    6.0       20.4811622755       18.7079114395       24.9857044299
H    1.0       21.1582811000       17.8529863604       24.9273642213
H    1.0       20.9359824946       19.4973664401       25.5881073863
H    1.0       19.5351735968       18.3999377547       25.4363069309
 $end
$$$$
! Edit this basic GAMESS input file as needed.
! Conformer was generated by a VeraChem VCPack run 
! and contains     20 atoms.
!
 $contrl scftyp=rhf runtyp=optimize nzvar=0
  maxit=200 icharg=0 $end
 $system mwords=50 $end
 $basis gbasis=pm3 $end
 $statpt nstep=200 $end
 $guess guess=huckel $end
 $data
VM2 Rank=8      G=54.497            E=31.685            -TS=22.812              
C1
C    6.0       19.9201839564       18.3275804025       19.2181761803
H    1.0       19.1811136918       17.5277984601       19.3570488689
H    1.0       19.4294370211       19.1592181554       18.6959774828
H    1.0       20.7136906119       17.9422452514       18.5648259579
C    6.0       20.5031686712       18.7869270386       20.5720950110
H    1.0       21.2611564784       19.5636531614       20.3979324292
H    1.0       21.0182725515       17.9404703379       21.0462631334
C    6.0       19.4037182862       19.3330741499       21.5131886802
H    1.0       18.8681331892       20.1490315442       21.0101877220
H    1.0       18.6580760676       18.5526380322       21.7123837687
C    6.0       19.9677883844       19.8725428861       22.8464047889
H    1.0       19.1519282557       20.2797211805       23.4489592924
H    1.0       20.6647196120       20.6870043627       22.6329380245
N    7.0       20.7069426767       18.8541067869       23.7014309030
H    1.0       21.1548377787       19.3330916190       24.4984179913
H    1.0       21.4862982077       18.4409038891       23.1686102714
C    6.0       19.7641980251       17.7697687359       24.2117044367
H    1.0       20.3229111616       17.0805098145       24.8486455597
H    1.0       18.9608615222       18.2339193194       24.7877870810
H    1.0       19.3449413394       17.2259161702       23.3629037976
 $end
