$$$$
! Edit this basic GAMESS input file as needed.
! Conformer was generated by a VeraChem VCPack run 
! and contains     16 atoms.
!
 $contrl scftyp=rhf runtyp=optimize nzvar=0
  maxit=200 icharg=0 $end
 $system mwords=50 $end
 $basis gbasis=pm3 $end
 $statpt nstep=200 $end
 $guess guess=huckel $end
 $data
VM2 Rank=1      G=30.218            E=15.547            -TS=14.671              
C1
C    6.0       19.6971340101       19.0163941502       20.9390872612
H    1.0       19.6785326363       19.9332966868       20.3343884149
H    1.0       20.1312980103       18.2118502928       20.3293479795
C    6.0       18.2981261656       18.6037638693       21.4167971045
H    1.0       17.7279775799       19.4984219737       21.7035768124
H    1.0       17.7317647073       18.0676498446       20.6431799867
C    6.0       18.5585724705       17.7365959629       22.6617072180
H    1.0       18.6890568386       16.6896765403       22.3577370513
H    1.0       17.7164446639       17.7774022799       23.3651823515
C    6.0       19.8755793780       18.2476386542       23.2814914672
H    1.0       20.5433322164       17.3965118492       23.4794679718
C    6.0       20.5129786344       19.1856849309       22.2344692523
H    1.0       20.4511967063       20.2285839587       22.5740019441
H    1.0       21.5724506909       18.9477206990       22.0750668814
O    8.0       19.6066093414       18.9649224324       24.4804476968
H    1.0       19.1944006334       18.3291648084       25.1026556613
 $end
$$$$
! Edit this basic GAMESS input file as needed.
! Conformer was generated by a VeraChem VCPack run 
! and contains     16 atoms.
!
 $contrl scftyp=rhf runtyp=optimize nzvar=0
  maxit=200 icharg=0 $end
 $system mwords=50 $end
 $basis gbasis=pm3 $end
 $statpt nstep=200 $end
 $guess guess=huckel $end
 $data
VM2 Rank=2      G=30.235            E=15.563            -TS=14.672              
C1
C    6.0       19.5321885600       19.3693052303       21.1296981009
H    1.0       19.0757570785       20.3345278882       21.3899692212
H    1.0       19.9651717373       19.4531109510       20.1236321406
C    6.0       18.4765179877       18.2591045374       21.2230113338
H    1.0       17.4976824463       18.5802616518       20.8416230191
H    1.0       18.8038598581       17.3882322591       20.6382026316
C    6.0       18.4312223139       17.8943111124       22.7187197844
H    1.0       18.1717143547       16.8381747488       22.8661928492
H    1.0       17.6658965516       18.5008285369       23.2218605855
C    6.0       19.8270872836       18.2175743052       23.2927625388
H    1.0       20.3646069861       17.2856399169       23.5209647105
C    6.0       20.5808231991       18.9911941646       22.1913077286
H    1.0       21.1013314998       19.8774320943       22.5778001154
H    1.0       21.3344367422       18.3308485308       21.7424469056
O    8.0       19.7011606555       19.0235106501       24.4585005135
H    1.0       20.6112295545       19.2080160944       24.7731134724
 $end
$$$$
! Edit this basic GAMESS input file as needed.
! Conformer was generated by a VeraChem VCPack run 
! and contains     16 atoms.
!
 $contrl scftyp=rhf runtyp=optimize nzvar=0
  maxit=200 icharg=0 $end
 $system mwords=50 $end
 $basis gbasis=pm3 $end
 $statpt nstep=200 $end
 $guess guess=huckel $end
 $data
VM2 Rank=3      G=30.360            E=15.047            -TS=15.313              
C1
C    6.0       19.5851056279       19.3562426502       21.1698999426
H    1.0       19.3999943622       20.4294194677       21.3156823799
H    1.0       19.9162424405       19.2130912520       20.1321845524
C    6.0       18.2992271384       18.5557747165       21.4712122090
H    1.0       17.4915086430       19.2416187282       21.7617898068
H    1.0       17.9582769076       17.9930720629       20.5913724277
C    6.0       18.6385578243       17.6061588750       22.6397671648
H    1.0       18.8818949822       16.6109270253       22.2448985880
H    1.0       17.8004503567       17.4919766942       23.3401554725
C    6.0       19.8852308857       18.1925127875       23.3157763991
H    1.0       20.4855879501       17.4116399404       23.8044397580
C    6.0       20.6535246989       18.8593930306       22.1668847917
H    1.0       21.3047945000       19.6709790335       22.5178545902
H    1.0       21.2889449737       18.1081681454       21.6795202992
O    8.0       19.4873538248       19.1849179403       24.2504594929
H    1.0       18.9644531609       19.8294974247       23.7305991683
 $end
