$$$$
! Edit this basic GAMESS input file as needed.
! Conformer was generated by a VeraChem VCPack run 
! and contains     29 atoms.
!
 $contrl scftyp=rhf runtyp=optimize nzvar=0
  maxit=200 icharg=0 $end
 $system mwords=50 $end
 $basis gbasis=pm3 $end
 $statpt nstep=200 $end
 $guess guess=huckel $end
 $data
VM2 Rank=1      G=33.702            E=-3.682            -TS=37.384              
C1
C    6.0       19.5303422119       19.9313020248       18.7439741912
H    1.0       18.5900164498       20.4919452308       18.8259424017
H    1.0       20.3578723699       20.6524488866       18.7240791732
H    1.0       19.5232628288       19.3997693156       17.7835179424
C    6.0       19.6879654402       18.9384952966       19.9150181927
H    1.0       20.6195611670       18.3694522929       19.7876582225
H    1.0       18.8653283200       18.2101556931       19.8887593923
C    6.0       19.7009612390       19.6615303504       21.2799349500
H    1.0       20.5233988563       20.3899437852       21.3006380046
H    1.0       18.7689819721       20.2307614740       21.4015531928
C    6.0       19.8586273462       18.6704527552       22.4550764578
H    1.0       20.7902282761       18.1009961526       22.3313695577
H    1.0       19.0356771464       17.9425775009       22.4338284523
C    6.0       19.8723598653       19.3942285045       23.8204072468
H    1.0       20.6978757878       20.1193163742       23.8421591585
H    1.0       18.9416309657       19.9658906314       23.9336155806
C    6.0       20.0289518164       18.3990497059       24.9957686602
H    1.0       20.9355746919       17.8003702769       24.8353830092
H    1.0       19.1857110451       17.6955503103       25.0018133965
C    6.0       20.1313656969       19.0989312578       26.3682254946
H    1.0       20.9618773617       19.8105384087       26.3292678696
C    6.0       20.4279473589       18.0708523954       27.4715831388
H    1.0       19.6206602796       17.3322448271       27.5534050682
H    1.0       21.3621426871       17.5343576015       27.2637028511
H    1.0       20.5382090706       18.5660177193       28.4442418799
N    7.0       18.8974790253       19.8911577094       26.7040116679
H    1.0       18.0709547308       19.2897707111       26.7563760073
H    1.0       18.7120482505       20.6103975198       25.9997414718
H    1.0       18.9908493162       20.3638838230       27.6076071999
 $end
$$$$
! Edit this basic GAMESS input file as needed.
! Conformer was generated by a VeraChem VCPack run 
! and contains     29 atoms.
!
 $contrl scftyp=rhf runtyp=optimize nzvar=0
  maxit=200 icharg=0 $end
 $system mwords=50 $end
 $basis gbasis=pm3 $end
 $statpt nstep=200 $end
 $guess guess=huckel $end
 $data
VM2 Rank=2      G=34.127            E=-3.403            -TS=37.530              
C1
C    6.0       19.0307454021       19.3523221835       18.8498313915
H    1.0       18.5002235576       18.3914548590       18.8267454841
H    1.0       18.2858404284       20.1518387895       18.9553776645
H    1.0       19.5318196912       19.4840572166       17.8820394829
C    6.0       20.0549254764       19.3927324516       20.0036420043
H    1.0       20.5927036426       20.3509343236       19.9804121204
H    1.0       20.8053996074       18.6041120614       19.8527700012
C    6.0       19.3750715730       19.2094985277       21.3784655216
H    1.0       18.6244209807       19.9986728316       21.5237879791
H    1.0       18.8368789073       18.2516663380       21.3959875317
C    6.0       20.3977009089       19.2491523601       22.5363933639
H    1.0       20.9356260605       20.2071319282       22.5173452585
H    1.0       21.1481083488       18.4599418935       22.3897794609
C    6.0       19.7173344661       19.0656409629       23.9117632161
H    1.0       18.9680587498       19.8560395540       24.0511637353
H    1.0       19.1790044751       18.1087846210       23.9191095853
C    6.0       20.7490342261       19.1030418464       25.0691597046
H    1.0       21.3132030759       20.0435971421       25.0188572105
H    1.0       21.4853433787       18.3012768594       24.9249397854
C    6.0       20.1433626507       18.9722262453       26.4866275547
H    1.0       20.9693192788       19.0446476714       27.2009990123
C    6.0       19.4611528271       17.6099129181       26.7012017814
H    1.0       20.1451583379       16.7882331378       26.4551161313
H    1.0       19.1631490443       17.4915176212       27.7501922598
H    1.0       18.5610730394       17.5050449770       26.0838972084
N    7.0       19.2066724696       20.1014725045       26.8169154618
H    1.0       19.6665616146       21.0112829707       26.7195895318
H    1.0       18.8632543635       20.0333023754       27.7792489664
H    1.0       18.3913719440       20.1000885291       26.1989965768
 $end
$$$$
! Edit this basic GAMESS input file as needed.
! Conformer was generated by a VeraChem VCPack run 
! and contains     29 atoms.
!
 $contrl scftyp=rhf runtyp=optimize nzvar=0
  maxit=200 icharg=0 $end
 $system mwords=50 $end
 $basis gbasis=pm3 $end
 $statpt nstep=200 $end
 $guess guess=huckel $end
 $data
VM2 Rank=3      G=34.129            E=-3.270            -TS=37.399              
C1
C    6.0       20.2030698610       19.4673555437       18.6904272992
H    1.0       20.5984816638       20.4914198748       18.7044541732
H    1.0       21.0524680654       18.7733806104       18.6437901836
H    1.0       19.6168598252       19.3449323601       17.7704152927
C    6.0       19.3302288448       19.1928318366       19.9332628061
H    1.0       18.9221319928       18.1740653811       19.8743570190
H    1.0       18.4715905721       19.8788623345       19.9344994166
C    6.0       20.1320319727       19.3585084384       21.2430707335
H    1.0       20.9904491006       18.6725937943       21.2360507401
H    1.0       20.5397521860       20.3774939727       21.2964425115
C    6.0       19.2612669301       19.0843225257       22.4899440394
H    1.0       18.8541557064       18.0650781066       22.4360472368
H    1.0       18.4026420036       19.7700331110       22.4947312668
C    6.0       20.0638049462       19.2507101094       23.8002150259
H    1.0       20.9233411563       18.5679483243       23.7813397300
H    1.0       20.4665399080       20.2715790239       23.8562904624
C    6.0       19.1902209017       18.9708372617       25.0477530426
H    1.0       18.8391834482       17.9304865139       25.0283542141
H    1.0       18.2937350929       19.6027336882       24.9953128270
C    6.0       19.9085849796       19.2523673285       26.3872073606
H    1.0       20.2850484371       20.2797126956       26.3655387838
C    6.0       21.0972431258       18.3024235236       26.6195430553
H    1.0       20.7789509161       17.2529973219       26.5862044114
H    1.0       21.8787100813       18.4491576977       25.8651248106
H    1.0       21.5542321937       18.4881591563       27.5993504938
N    7.0       18.9495484380       19.1766434325       27.5425766374
H    1.0       19.4123276206       19.4012666922       28.4280801760
H    1.0       18.5498788641       18.2389341446       27.6360933125
H    1.0       18.1715079748       19.8331771003       27.4306239945
 $end
$$$$
! Edit this basic GAMESS input file as needed.
! Conformer was generated by a VeraChem VCPack run 
! and contains     29 atoms.
!
 $contrl scftyp=rhf runtyp=optimize nzvar=0
  maxit=200 icharg=0 $end
 $system mwords=50 $end
 $basis gbasis=pm3 $end
 $statpt nstep=200 $end
 $guess guess=huckel $end
 $data
VM2 Rank=4      G=34.284            E=-3.211            -TS=37.495              
C1
C    6.0       18.8286584852       18.7943618504       19.4038001340
H    1.0       18.8814624920       18.5120463482       18.3443448249
H    1.0       18.6829134548       17.8742822507       19.9831727089
H    1.0       17.9438304140       19.4299971365       19.5382477056
C    6.0       20.1156355981       19.5361028422       19.8304495507
H    1.0       20.2824254158       20.3785947814       19.1447749027
H    1.0       20.9818275133       18.8696579600       19.7151551970
C    6.0       20.0615310369       20.0782746216       21.2790783948
H    1.0       20.9616864540       20.6821205481       21.4590438379
H    1.0       19.2060187024       20.7597106250       21.3837986786
C    6.0       19.9770838948       18.9654207677       22.3510276962
H    1.0       20.8047999802       18.2569014140       22.2093593092
H    1.0       19.0456220546       18.3974932193       22.2274831666
C    6.0       20.0307897905       19.5437537580       23.7831565838
H    1.0       20.9657238815       20.1056071120       23.9168456790
H    1.0       19.2069552925       20.2581018360       23.9130403281
C    6.0       19.9408386865       18.4305868989       24.8551555931
H    1.0       20.7389275484       17.6982548182       24.6739247340
H    1.0       18.9902843506       17.8905503488       24.7512108570
C    6.0       20.0774800905       18.9690392579       26.2957468500
H    1.0       21.0190637656       19.5221665575       26.3673234128
C    6.0       20.1236152010       17.8055828466       27.2990109643
H    1.0       20.9623261182       17.1335376979       27.0783748418
H    1.0       20.2573313372       18.1796554756       28.3215554606
H    1.0       19.1975650268       17.2178481022       27.2682203001
N    7.0       18.9803672164       19.9328771568       26.6565742330
H    1.0       18.0609028548       19.4857139734       26.6099989246
H    1.0       18.9655480747       20.7364084831       26.0226931789
H    1.0       19.0979745833       20.2946489834       27.6073411026
 $end
$$$$
! Edit this basic GAMESS input file as needed.
! Conformer was generated by a VeraChem VCPack run 
! and contains     29 atoms.
!
 $contrl scftyp=rhf runtyp=optimize nzvar=0
  maxit=200 icharg=0 $end
 $system mwords=50 $end
 $basis gbasis=pm3 $end
 $statpt nstep=200 $end
 $guess guess=huckel $end
 $data
VM2 Rank=5      G=34.302            E=-3.193            -TS=37.495              
C1
C    6.0       20.4857481722       18.8973449164       19.3012639773
H    1.0       20.3542098300       18.5904604882       18.2555806169
H    1.0       21.2782973382       19.6562876479       19.3313296790
H    1.0       20.8287016906       18.0189431674       19.8618419625
C    6.0       19.1616842439       19.4537571675       19.8720470524
H    1.0       18.3941817343       18.6673084233       19.8591036784
H    1.0       18.7971285218       20.2501697352       19.2082788163
C    6.0       19.3010000198       20.0256102717       21.3034801151
H    1.0       20.0547910496       20.8249985825       21.3072994371
H    1.0       18.3490640362       20.4969097297       21.5844956464
C    6.0       19.6677011903       18.9572081192       22.3611811603
H    1.0       20.6510084739       18.5264656285       22.1311021772
H    1.0       18.9404636685       18.1346731803       22.3189781684
C    6.0       19.6950290335       19.5492073116       23.7884796279
H    1.0       20.4226084746       20.3717963057       23.8293726244
H    1.0       18.7115939634       19.9803324619       24.0182540482
C    6.0       20.0644508136       18.4806153487       24.8458778984
H    1.0       21.0241058759       18.0241176966       24.5688027864
H    1.0       19.3190362886       17.6742415008       24.8352442869
C    6.0       20.1827077271       19.0599973641       26.2721504344
H    1.0       20.9119821954       19.8757116911       26.2516488197
C    6.0       20.6892298316       17.9839885659       27.2457747582
H    1.0       19.9895830003       17.1407910021       27.3046066748
H    1.0       21.6647350866       17.5968743044       26.9259414296
H    1.0       20.8103964836       18.3987344610       28.2540967910
N    7.0       18.8884489680       19.6482709349       26.7637449759
H    1.0       18.1503349774       18.9406403428       26.8083319338
H    1.0       18.5610671087       20.3977339686       26.1482667302
H    1.0       18.9904594239       20.0449995490       27.7022889781
 $end
$$$$
! Edit this basic GAMESS input file as needed.
! Conformer was generated by a VeraChem VCPack run 
! and contains     29 atoms.
!
 $contrl scftyp=rhf runtyp=optimize nzvar=0
  maxit=200 icharg=0 $end
 $system mwords=50 $end
 $basis gbasis=pm3 $end
 $statpt nstep=200 $end
 $guess guess=huckel $end
 $data
VM2 Rank=6      G=34.352            E=-3.103            -TS=37.455              
C1
C    6.0       20.6747603159       18.9868621640       19.1353973375
H    1.0       21.2748369591       18.1129725989       19.4208163057
H    1.0       20.3352765170       18.8395901011       18.1019048242
H    1.0       21.3265961840       19.8700558578       19.1534902063
C    6.0       19.4706845378       19.1668203774       20.0839653739
H    1.0       18.8204824902       18.2830674261       20.0197274221
H    1.0       18.8713354002       20.0263466595       19.7524977195
C    6.0       19.9211463097       19.3770810882       21.5465154668
H    1.0       20.5263382849       18.5168087727       21.8603664525
H    1.0       20.5685478193       20.2628225101       21.6058534405
C    6.0       18.7139133883       19.5529714375       22.4989661992
H    1.0       18.0960625560       18.6444493874       22.4866559739
H    1.0       18.0766516087       20.3638217919       22.1197310212
C    6.0       19.1147823275       19.8883844995       23.9567343144
H    1.0       19.7302755687       20.7986114530       23.9681220260
H    1.0       18.1991270405       20.1274863994       24.5132368536
C    6.0       19.8698509857       18.7381193140       24.6714977020
H    1.0       20.7967875566       18.5192716210       24.1273127899
H    1.0       19.2645420778       17.8223676431       24.6437817873
C    6.0       20.2341823862       19.0749008128       26.1339149156
H    1.0       20.8047676923       20.0087411158       26.1389515432
C    6.0       21.1157282924       17.9675891466       26.7333937984
H    1.0       20.5875735114       17.0059877618       26.7516504886
H    1.0       22.0352685856       17.8413234102       26.1483620944
H    1.0       21.4073395719       18.2170619966       27.7610801463
N    7.0       19.0209514565       19.3032711601       26.9936148923
H    1.0       19.2829411333       19.5421774419       27.9543062245
H    1.0       18.4308774707       18.4680405110       27.0352889754
H    1.0       18.4461575972       20.0697752187       26.6335263176
 $end
$$$$
! Edit this basic GAMESS input file as needed.
! Conformer was generated by a VeraChem VCPack run 
! and contains     29 atoms.
!
 $contrl scftyp=rhf runtyp=optimize nzvar=0
  maxit=200 icharg=0 $end
 $system mwords=50 $end
 $basis gbasis=pm3 $end
 $statpt nstep=200 $end
 $guess guess=huckel $end
 $data
VM2 Rank=7      G=34.363            E=-3.215            -TS=37.578              
C1
C    6.0       19.7044266473       20.0255211940       19.0212969340
H    1.0       20.4609981011       20.3916623062       18.3151891366
H    1.0       19.2422796494       19.1299545196       18.5858254692
H    1.0       18.9302033472       20.7980335147       19.1164358983
C    6.0       20.3439493123       19.7097990579       20.3899285212
H    1.0       20.8267040142       20.6150114186       20.7841708083
H    1.0       21.1362915017       18.9597156670       20.2577621988
C    6.0       19.2994888043       19.1919906108       21.4033134336
H    1.0       18.5085604675       19.9440702259       21.5305262492
H    1.0       18.8179791485       18.2889210717       21.0032772951
C    6.0       19.9363448174       18.8742755240       22.7748797016
H    1.0       20.4223714673       19.7789686591       23.1635219003
H    1.0       20.7242874038       18.1192841603       22.6462338388
C    6.0       18.8871608997       18.3577780815       23.7883638531
H    1.0       18.1091259503       19.1180419925       23.9388593584
H    1.0       18.3772847157       17.4825565156       23.3624870713
C    6.0       19.5032707932       17.9514375179       25.1515968522
H    1.0       20.2037075402       17.1214241345       24.9889957825
H    1.0       18.7089648573       17.5593275889       25.8005994671
C    6.0       20.2406900232       19.0964782418       25.8814138783
H    1.0       21.0407899931       19.4615587678       25.2308113933
C    6.0       20.8785599692       18.5794512661       27.1804696026
H    1.0       21.4367874278       19.3785526616       27.6836658471
H    1.0       20.1166048658       18.2047885977       27.8754312238
H    1.0       21.5812762709       17.7632378540       26.9713462507
N    7.0       19.3421087334       20.2692685059       26.1627372233
H    1.0       18.5655747698       20.0051225787       26.7748751433
H    1.0       18.9409691896       20.6447746634       25.2990156482
H    1.0       19.8510199598       21.0296695310       26.6225170351
 $end
$$$$
! Edit this basic GAMESS input file as needed.
! Conformer was generated by a VeraChem VCPack run 
! and contains     29 atoms.
!
 $contrl scftyp=rhf runtyp=optimize nzvar=0
  maxit=200 icharg=0 $end
 $system mwords=50 $end
 $basis gbasis=pm3 $end
 $statpt nstep=200 $end
 $guess guess=huckel $end
 $data
VM2 Rank=8      G=34.365            E=-3.137            -TS=37.502              
C1
C    6.0       18.6214536387       18.9172774385       19.2918894828
H    1.0       18.8571462298       18.8317168560       18.2231644848
H    1.0       18.1663072945       17.9714080550       19.6134623122
H    1.0       17.8749420679       19.7135612201       19.4097799352
C    6.0       19.8947716035       19.2257615599       20.1076315412
H    1.0       20.3457071238       20.1582207242       19.7401425730
H    1.0       20.6345690695       18.4296333035       19.9439841996
C    6.0       19.5905214182       19.3521716991       21.6167734318
H    1.0       18.8522322808       20.1502557959       21.7754299722
H    1.0       19.1327055108       18.4185152083       21.9687615837
C    6.0       20.8673797333       19.6574491089       22.4361407594
H    1.0       21.3528365288       20.5520247698       22.0220881766
H    1.0       21.5870525772       18.8351857876       22.3210647212
C    6.0       20.5928980031       19.9004769400       23.9404410368
H    1.0       21.5314352443       20.2130069005       24.4190621098
H    1.0       19.8943452047       20.7409720912       24.0480577537
C    6.0       20.0437067123       18.6515668921       24.6762465050
H    1.0       20.7002446052       17.7970647420       24.4648525809
H    1.0       19.0507199555       18.3900082316       24.2893720401
C    6.0       19.9583744186       18.8475716881       26.2051926428
H    1.0       20.9520289148       19.1232151151       26.5716681439
C    6.0       19.5376104604       17.5374227028       26.8898328363
H    1.0       18.5421132378       17.2174984286       26.5573122934
H    1.0       20.2485227550       16.7331843113       26.6627617881
H    1.0       19.5110312660       17.6599884512       27.9796374112
N    7.0       19.0292840119       19.9663019707       26.5898517639
H    1.0       18.0724039810       19.7802976577       26.2779983310
H    1.0       19.3224923577       20.8545582704       26.1742112555
H    1.0       19.0014620354       20.0971706959       27.6051109101
 $end
