$$$$
! Edit this basic GAMESS input file as needed.
! Conformer was generated by a VeraChem VCPack run 
! and contains     20 atoms.
!
 $contrl scftyp=rhf runtyp=optimize nzvar=0
  maxit=200 icharg=0 $end
 $system mwords=50 $end
 $basis gbasis=pm3 $end
 $statpt nstep=200 $end
 $guess guess=huckel $end
 $data
VM2 Rank=1      G=2.706             E=-20.181           -TS=22.887              
C1
N    7.0       20.3912031176       20.1731355090       24.1279440497
H    1.0       20.0069620679       20.9379916435       23.5676423435
H    1.0       21.3895341293       20.1069594768       23.9146361543
H    1.0       20.3065870890       20.4446006087       25.1112046195
C    6.0       19.6810820242       18.8752364285       23.8518043568
H    1.0       18.6271242994       19.0338783736       24.1005881957
C    6.0       20.2261412257       17.7582293337       24.7568891662
H    1.0       20.1319206212       18.0342858405       25.8143290797
H    1.0       21.2848135010       17.5590660163       24.5487051388
H    1.0       19.6672863700       16.8262659019       24.6060120034
C    6.0       19.7687728424       18.4546996389       22.3680236387
H    1.0       20.8203225102       18.3116438503       22.0857252135
H    1.0       19.2769860591       17.4803116716       22.2464399418
C    6.0       19.1036473101       19.4719954093       21.4097780525
H    1.0       19.6148891077       20.4421833518       21.4713710143
H    1.0       18.0613483638       19.6414184621       21.7149842617
C    6.0       19.1341534800       18.9807036806       19.9465607362
H    1.0       18.5957823850       18.0302406796       19.8369749506
H    1.0       20.1655929739       18.8309467069       19.6016517005
H    1.0       18.6601077944       19.7140930276       19.2813504437
 $end
$$$$
! Edit this basic GAMESS input file as needed.
! Conformer was generated by a VeraChem VCPack run 
! and contains     20 atoms.
!
 $contrl scftyp=rhf runtyp=optimize nzvar=0
  maxit=200 icharg=0 $end
 $system mwords=50 $end
 $basis gbasis=pm3 $end
 $statpt nstep=200 $end
 $guess guess=huckel $end
 $data
VM2 Rank=2      G=3.182             E=-19.721           -TS=22.903              
C1
N    7.0       20.6729354052       20.0593734211       24.6125169366
H    1.0       20.5583545258       21.0416881490       24.3483407227
H    1.0       21.6536192855       19.8127404765       24.4570881810
H    1.0       20.4990335394       19.9950420719       25.6191443111
C    6.0       19.7478194843       19.1634179708       23.8354101473
H    1.0       18.7310361719       19.4974455126       24.0644101093
C    6.0       19.8976930964       17.7048163194       24.3053264621
H    1.0       20.8831082677       17.3015615541       24.0409019227
H    1.0       19.1314552204       17.0607354992       23.8589382867
H    1.0       19.7835047038       17.6360389155       25.3941112533
C    6.0       19.9739399592       19.3115625949       22.3127760077
H    1.0       19.9614218040       20.3805246493       22.0621250524
H    1.0       20.9742893808       18.9427291859       22.0498886032
C    6.0       18.9090609691       18.5920303275       21.4493682217
H    1.0       17.9039210038       18.9145345374       21.7555638995
H    1.0       18.9581588990       17.5067597847       21.6096097739
C    6.0       19.1035510859       18.8827993663       19.9456022245
H    1.0       18.3432746295       18.3625278889       19.3486221237
H    1.0       20.0901085367       18.5448306193       19.6024676495
H    1.0       19.0182607949       19.9570155642       19.7357881436
 $end
$$$$
! Edit this basic GAMESS input file as needed.
! Conformer was generated by a VeraChem VCPack run 
! and contains     20 atoms.
!
 $contrl scftyp=rhf runtyp=optimize nzvar=0
  maxit=200 icharg=0 $end
 $system mwords=50 $end
 $basis gbasis=pm3 $end
 $statpt nstep=200 $end
 $guess guess=huckel $end
 $data
VM2 Rank=3      G=3.268             E=-19.761           -TS=23.029              
C1
N    7.0       20.2984290176       20.2325949915       24.2273334442
H    1.0       21.0731573726       20.3632386751       23.5729837067
H    1.0       20.6865441320       20.2776578746       25.1733721684
H    1.0       19.6669172979       21.0309377073       24.1198416830
C    6.0       19.5878507298       18.9286285230       23.9851895121
H    1.0       18.7946628946       18.8719972959       24.7372988697
C    6.0       20.5307355032       17.7340655484       24.2150289025
H    1.0       20.8913642798       17.7239751504       25.2508521032
H    1.0       21.4063729365       17.7751193331       23.5565338566
H    1.0       20.0095254171       16.7855398247       24.0358365175
C    6.0       18.9067688600       18.8735256391       22.5966142484
H    1.0       18.3346401303       17.9393473873       22.5210247193
H    1.0       18.1683456536       19.6840339376       22.5399248563
C    6.0       19.8731983865       18.9807730554       21.3887820748
H    1.0       20.5885602194       18.1476096142       21.3991978492
H    1.0       20.4606366727       19.9064185718       21.4540340964
C    6.0       19.1080175029       18.9644122425       20.0480518180
H    1.0       18.4081020473       19.8075944260       19.9818480708
H    1.0       18.5354989995       18.0350189539       19.9311202185
H    1.0       19.8047514131       19.0387682238       19.2030085388
 $end
$$$$
! Edit this basic GAMESS input file as needed.
! Conformer was generated by a VeraChem VCPack run 
! and contains     20 atoms.
!
 $contrl scftyp=rhf runtyp=optimize nzvar=0
  maxit=200 icharg=0 $end
 $system mwords=50 $end
 $basis gbasis=pm3 $end
 $statpt nstep=200 $end
 $guess guess=huckel $end
 $data
VM2 Rank=4      G=3.364             E=-19.711           -TS=23.075              
C1
N    7.0       20.0485490461       20.2198024623       23.9725527478
H    1.0       21.0585334721       20.2892157691       24.1193048780
H    1.0       19.5920575934       20.5335439862       24.8332053617
H    1.0       19.7981463452       20.8828050420       23.2345826322
C    6.0       19.6393018253       18.8179202495       23.6100319467
H    1.0       18.5536331247       18.8320038135       23.4749210417
C    6.0       19.9662061865       17.8438459472       24.7536349880
H    1.0       21.0468683075       17.7934061649       24.9363328053
H    1.0       19.6121868144       16.8326536205       24.5174520904
H    1.0       19.4768527983       18.1584312452       25.6835846905
C    6.0       20.2855304666       18.3358516257       22.2913279597
H    1.0       21.3763314596       18.2991506015       22.4123238799
H    1.0       19.9644467072       17.3047354717       22.0922485569
C    6.0       19.9414653567       19.2100368675       21.0587209606
H    1.0       20.4478604370       18.7917802997       20.1775132836
H    1.0       20.3462162968       20.2231725471       21.1863854218
C    6.0       18.4239471186       19.2865428476       20.7747313971
H    1.0       17.8840394482       19.7852531835       21.5894004638
H    1.0       17.9962363867       18.2840879241       20.6430964288
H    1.0       18.2330566780       19.8548647124       19.8551446363
 $end
$$$$
! Edit this basic GAMESS input file as needed.
! Conformer was generated by a VeraChem VCPack run 
! and contains     20 atoms.
!
 $contrl scftyp=rhf runtyp=optimize nzvar=0
  maxit=200 icharg=0 $end
 $system mwords=50 $end
 $basis gbasis=pm3 $end
 $statpt nstep=200 $end
 $guess guess=huckel $end
 $data
VM2 Rank=5      G=3.525             E=-19.636           -TS=23.161              
C1
N    7.0       20.3128969038       20.0923782041       24.6251008887
H    1.0       19.7915048821       20.0632007174       25.5054044843
H    1.0       20.3189090157       21.0660996634       24.3094131106
H    1.0       21.2797740038       19.8327214063       24.8358385508
C    6.0       19.7071518817       19.1784325250       23.5954592166
H    1.0       18.6822471447       19.5284149926       23.4399695411
C    6.0       19.6524668596       17.7346125044       24.1269604269
H    1.0       19.0895609636       17.0824054621       23.4492472244
H    1.0       19.1505744614       17.7000665801       25.1016629191
H    1.0       20.6598884231       17.3175301796       24.2479214781
C    6.0       20.4627965546       19.2735188597       22.2484676031
H    1.0       20.5390421254       20.3307890772       21.9623006845
H    1.0       21.4934638662       18.9199442639       22.3842726058
C    6.0       19.8115570927       18.4968189431       21.0755522058
H    1.0       19.8398501053       17.4163937616       21.2708792027
H    1.0       20.4158099165       18.6538923550       20.1710935127
C    6.0       18.3581307075       18.9382389637       20.7894596590
H    1.0       17.6936149090       18.7083593059       21.6318587654
H    1.0       17.9648158725       18.4176688580       19.9066644880
H    1.0       18.3042759886       20.0170912500       20.5936695688
 $end
$$$$
! Edit this basic GAMESS input file as needed.
! Conformer was generated by a VeraChem VCPack run 
! and contains     20 atoms.
!
 $contrl scftyp=rhf runtyp=optimize nzvar=0
  maxit=200 icharg=0 $end
 $system mwords=50 $end
 $basis gbasis=pm3 $end
 $statpt nstep=200 $end
 $guess guess=huckel $end
 $data
VM2 Rank=6      G=5.471             E=-17.433           -TS=22.905              
C1
N    7.0       20.4416812289       20.1738366169       23.6449435715
H    1.0       20.2929491666       20.7282249587       24.4923982074
H    1.0       20.1633299676       20.7487219122       22.8468181160
H    1.0       21.4469981327       20.0032969942       23.5635136849
C    6.0       19.6680735060       18.8842080482       23.6853618738
H    1.0       18.6139141948       19.1449421785       23.8213798502
C    6.0       20.1157036128       18.0452383239       24.8942933054
H    1.0       21.1660857378       17.7423480495       24.8004101223
H    1.0       19.5055206904       17.1383569035       24.9885696840
H    1.0       20.0061077305       18.6152596414       25.8250991322
C    6.0       19.8013011840       18.0636520542       22.3803043293
H    1.0       20.8560834261       18.0046587944       22.0810919003
H    1.0       19.4892074411       17.0304450513       22.5831936088
C    6.0       18.9384761891       18.5777012489       21.1979796281
H    1.0       17.8790330110       18.5892484545       21.4903537953
H    1.0       19.0172431517       17.8521303106       20.3761707767
C    6.0       19.3397642793       19.9693637079       20.6581172919
H    1.0       18.8252743149       20.1703434830       19.7093317843
H    1.0       20.4196141064       20.0285136692       20.4690620467
H    1.0       19.0547259234       20.7694637647       21.3509549956
 $end
$$$$
! Edit this basic GAMESS input file as needed.
! Conformer was generated by a VeraChem VCPack run 
! and contains     20 atoms.
!
 $contrl scftyp=rhf runtyp=optimize nzvar=0
  maxit=200 icharg=0 $end
 $system mwords=50 $end
 $basis gbasis=pm3 $end
 $statpt nstep=200 $end
 $guess guess=huckel $end
 $data
VM2 Rank=7      G=5.931             E=-17.087           -TS=23.018              
C1
N    7.0       20.3127351723       19.9500446327       24.7197299592
H    1.0       20.2466035341       20.9492559312       24.5071233622
H    1.0       21.3009855100       19.7331039746       24.8719501580
H    1.0       19.8274533970       19.7973467845       25.6079414609
C    6.0       19.7250786334       19.1083888165       23.6193427748
H    1.0       18.6774918038       19.4122012755       23.5297847456
C    6.0       19.7757021777       17.6196402458       24.0105266314
H    1.0       19.2280315330       17.4470290696       24.9450800170
H    1.0       20.8100260873       17.2845316526       24.1573064195
H    1.0       19.3228468183       16.9852107138       23.2409736403
C    6.0       20.4197094041       19.3672685433       22.2596752738
H    1.0       20.9760993235       20.3123060070       22.3145025855
H    1.0       21.1721187923       18.5927490838       22.0596399931
C    6.0       19.4387514455       19.4784455722       21.0650479421
H    1.0       20.0115270539       19.7387071272       20.1638679741
H    1.0       18.7442283616       20.3129085441       21.2364833453
C    6.0       18.6330231670       18.1902121895       20.7866774186
H    1.0       17.9352308556       17.9692446346       21.6039221384
H    1.0       19.2985615344       17.3275463775       20.6529032142
H    1.0       18.0393994591       18.2999883309       19.8698343016
 $end
$$$$
! Edit this basic GAMESS input file as needed.
! Conformer was generated by a VeraChem VCPack run 
! and contains     20 atoms.
!
 $contrl scftyp=rhf runtyp=optimize nzvar=0
  maxit=200 icharg=0 $end
 $system mwords=50 $end
 $basis gbasis=pm3 $end
 $statpt nstep=200 $end
 $guess guess=huckel $end
 $data
VM2 Rank=8      G=5.948             E=-17.185           -TS=23.133              
C1
N    7.0       20.6494846967       19.8404524319       24.7412848638
H    1.0       20.5502161610       19.4722581345       25.6911234150
H    1.0       20.4667183286       20.8466146700       24.7865311152
H    1.0       21.6280521138       19.7186501971       24.4687822358
C    6.0       19.7192131298       19.1489324470       23.7825639828
H    1.0       18.7061501165       19.3280460484       24.1559529733
C    6.0       19.9722939972       17.6316913081       23.7961646385
H    1.0       20.9372576610       17.3847638948       23.3364624046
H    1.0       19.1816969956       17.0969967440       23.2575901720
H    1.0       19.9764402415       17.2487369890       24.8240126575
C    6.0       19.8242132310       19.7636751235       22.3653811714
H    1.0       19.6662737899       20.8458679897       22.4633924997
H    1.0       20.8436695586       19.6452206136       21.9749899087
C    6.0       18.7909432620       19.2269204177       21.3397617444
H    1.0       18.4773996264       20.0571223557       20.6912454544
H    1.0       17.8813436243       18.8880273055       21.8552669219
C    6.0       19.3488516832       18.1023282718       20.4358435991
H    1.0       19.6645741489       17.2262106113       21.0131468731
H    1.0       20.2135395384       18.4557253423       19.8591791885
H    1.0       18.5855377134       17.7708543949       19.7199803086
 $end
