$$$$
! Edit this basic GAMESS input file as needed.
! Conformer was generated by a VeraChem VCPack run 
! and contains     26 atoms.
!
 $contrl scftyp=rhf runtyp=optimize nzvar=0
  maxit=200 icharg=0 $end
 $system mwords=50 $end
 $basis gbasis=pm3 $end
 $statpt nstep=200 $end
 $guess guess=huckel $end
 $data
VM2 Rank=1      G=75.467            E=43.304            -TS=32.163              
C1
N    7.0       19.9837497493       18.6238273026       26.4860908588
H    1.0       20.8628997579       18.0855470325       26.5332505365
H    1.0       19.2304518721       17.9186306533       26.4752978313
C    6.0       19.9442666405       19.4506941456       25.2166129197
H    1.0       20.7597983220       20.1767600912       25.2639259764
H    1.0       18.9975945893       19.9966644423       25.2014388033
C    6.0       20.0759375708       18.6065553047       23.9359294014
H    1.0       21.0205671803       18.0470767832       23.9630164599
H    1.0       19.2642674495       17.8676189730       23.9007514468
C    6.0       20.0305610598       19.4900306884       22.6694924140
H    1.0       20.8407625338       20.2314339674       22.7110491183
H    1.0       19.0865252366       20.0523532613       22.6489756928
C    6.0       20.1617617533       18.6528322248       21.3767170691
H    1.0       21.1056972400       18.0905984431       21.3969844156
H    1.0       19.3516666134       17.9115280217       21.3349438441
C    6.0       20.1163094255       19.5367236629       20.1102726567
H    1.0       20.9264424473       20.2786131212       20.1460577820
H    1.0       19.1725923087       20.0994889995       20.0839931523
C    6.0       20.2476393860       18.6973634113       18.8214286607
H    1.0       20.2132247734       19.3421171988       17.9336575905
H    1.0       19.4308457351       17.9683900487       18.7398931252
H    1.0       21.1984346051       18.1488824751       18.8024563343
C    6.0       19.8477744148       19.5319732598       27.7004560196
H    1.0       18.8962779239       20.0654299837       27.6452702993
H    1.0       19.8777684549       18.9240958571       28.6075040508
H    1.0       20.6732275447       20.2471891801       27.7083191596
 $end
