$$$$
! Edit this basic GAMESS input file as needed.
! Conformer was generated by a VeraChem VCPack run 
! and contains     26 atoms.
!
 $contrl scftyp=rhf runtyp=optimize nzvar=0
  maxit=200 icharg=0 $end
 $system mwords=50 $end
 $basis gbasis=pm3 $end
 $statpt nstep=200 $end
 $guess guess=huckel $end
 $data
VM2 Rank=1      G=23.712            E=-8.840            -TS=32.553              
C1
C    6.0       20.2414352106       18.6561773428       18.8059769468
H    1.0       19.6042476191       19.4967876687       18.5016586611
H    1.0       21.0557311536       18.5687602352       18.0749997824
H    1.0       19.6427651275       17.7373535602       18.7549964724
C    6.0       20.8050585221       18.8730148064       20.2263448785
H    1.0       21.4261189879       19.7797094425       20.2375262543
H    1.0       21.4644585760       18.0338113512       20.4887336009
C    6.0       19.6784656342       18.9994080570       21.2757061828
H    1.0       19.0205484453       19.8374085433       21.0067028084
H    1.0       19.0594504755       18.0916324466       21.2594912329
C    6.0       20.2389143598       19.2173971773       22.6994198006
H    1.0       20.8548537985       20.1273948992       22.7149747715
H    1.0       20.9000468412       18.3794691891       22.9575871938
C    6.0       19.1075890618       19.3422795698       23.7488100030
H    1.0       18.4279122160       20.1490367859       23.4433705234
H    1.0       18.5118988512       18.4198351391       23.7645649275
C    6.0       19.6331398466       19.6455717042       25.1687725342
H    1.0       20.2418778691       20.5538620478       25.1222520885
C    6.0       18.4605419428       19.8995823128       26.1296084659
H    1.0       17.8446634233       20.7376807334       25.7802997125
H    1.0       18.8275717666       20.1520164392       27.1320770551
H    1.0       17.8172595640       19.0147032173       26.2138062850
N    7.0       20.5228554220       18.5545690297       25.6993611882
H    1.0       20.0216769961       17.6650855210       25.7696497644
H    1.0       21.3336959214       18.4049008824       25.0931192806
H    1.0       20.8768803340       18.7814061439       26.6329762646
 $end
