$$$$
! Edit this basic GAMESS input file as needed.
! Conformer was generated by a VeraChem VCPack run 
! and contains     20 atoms.
!
 $contrl scftyp=rhf runtyp=optimize nzvar=0
  maxit=200 icharg=0 $end
 $system mwords=50 $end
 $basis gbasis=pm3 $end
 $statpt nstep=200 $end
 $guess guess=huckel $end
 $data
VM2 Rank=1      G=-21.888           E=-37.136           -TS=15.247              
C1
C    6.0       20.4454575431       18.0660378181       18.7398765726
H    1.0       20.6596862417       17.7973903073       17.7068588987
H    1.0       20.5833086745       17.2882868003       19.4879728745
C    6.0       20.0331543809       19.2995293069       19.0535938831
H    1.0       19.9135069325       20.0362291890       18.2594998975
C    6.0       19.6972470298       19.8196749996       20.4412633815
H    1.0       18.6643302127       20.1927750407       20.4377344992
H    1.0       20.3271541316       20.6942166076       20.6522782750
C    6.0       19.8604975489       18.7896986653       21.5833999682
H    1.0       19.2167413701       17.9208953031       21.3888637451
H    1.0       20.8976051577       18.4277627770       21.6056998039
C    6.0       19.5002842859       19.3965527319       22.9570778524
H    1.0       18.4635702610       19.7606700121       22.9412665258
H    1.0       20.1409883895       20.2665380386       23.1576560104
C    6.0       19.6629808809       18.3671264106       24.1024553155
H    1.0       19.0193089540       17.4973314574       23.9242807938
H    1.0       20.6967563060       18.0031851183       24.1406417939
C    6.0       19.3129561190       18.9429645407       25.4698898140
O    8.0       20.1971351374       19.4750778485       26.1115508161
O    8.0       18.1612870741       18.8613376784       25.8488923966
 $end
