$$$$
! Edit this basic GAMESS input file as needed.
! Conformer was generated by a VeraChem VCPack run 
! and contains     26 atoms.
!
 $contrl scftyp=rhf runtyp=optimize nzvar=0
  maxit=200 icharg=0 $end
 $system mwords=50 $end
 $basis gbasis=pm3 $end
 $statpt nstep=200 $end
 $guess guess=huckel $end
 $data
VM2 Rank=1      G=48.261            E=15.909            -TS=32.352              
C1
C    6.0       19.9052420576       19.3106543774       18.8162318403
H    1.0       20.2945394039       20.3369141828       18.7942564233
H    1.0       20.2786888902       18.7894590458       17.9251977069
H    1.0       18.8107838950       19.3584959947       18.7447011602
C    6.0       20.3457234401       18.5775995448       20.1010414976
H    1.0       21.4427189633       18.5157423358       20.1275437707
H    1.0       19.9704312751       17.5448508669       20.0783555286
C    6.0       19.8326675654       19.2912455397       21.3713904494
H    1.0       20.2083395884       20.3237315782       21.3883447436
H    1.0       18.7360161267       19.3526283447       21.3392440089
C    6.0       20.2719018430       18.5601574857       22.6601694521
H    1.0       21.3686241819       18.4989311121       22.6913083380
H    1.0       19.8961935415       17.5276669430       22.6421645690
C    6.0       19.7582874866       19.2745040098       23.9307797218
H    1.0       20.1339547717       20.3071341205       23.9492281085
H    1.0       18.6614430202       19.3359449087       23.9000079581
C    6.0       20.1968081810       18.5443018077       25.2192687556
H    1.0       21.2928323849       18.4854849884       25.2564167655
H    1.0       19.8187531846       17.5132652526       25.2071230883
C    6.0       19.6802385839       19.2637137151       26.4777028914
H    1.0       20.0676220309       20.2858648982       26.5026029008
H    1.0       18.5881247145       19.3101805812       26.4530588851
N    7.0       20.0901308425       18.5768235197       27.7644153917
H    1.0       19.7359452080       19.0719964838       28.5901411342
H    1.0       21.1094563375       18.5250166835       27.8621583725
H    1.0       19.7327987503       17.6171843555       27.8160694752
 $end
