$$$$
! Edit this basic GAMESS input file as needed.
! Conformer was generated by a VeraChem VCPack run 
! and contains     17 atoms.
!
 $contrl scftyp=rhf runtyp=optimize nzvar=0
  maxit=200 icharg=0 $end
 $system mwords=50 $end
 $basis gbasis=pm3 $end
 $statpt nstep=200 $end
 $guess guess=huckel $end
 $data
VM2 Rank=1      G=15.404            E=-2.454            -TS=17.858              
C1
N    7.0       19.6262142415       18.8413663020       24.1383263641
H    1.0       20.0581207015       19.1906780363       24.9999214905
H    1.0       19.6530223870       17.8183466686       24.1874025730
H    1.0       18.6402032780       19.1181126285       24.1681609880
C    6.0       20.3271187585       19.3692415844       22.9024304341
H    1.0       21.3758166062       19.0639150535       22.9527458877
H    1.0       20.2866165470       20.4614917733       22.9319743929
C    6.0       19.7034753536       18.8636772229       21.5887587205
H    1.0       19.7320598587       17.7660420711       21.5694900387
H    1.0       18.6464400938       19.1587633659       21.5488758822
C    6.0       20.4461308360       19.4243347875       20.3560189407
H    1.0       21.5050109102       19.1320755752       20.3970626305
H    1.0       20.4206552382       20.5230890946       20.3764474230
C    6.0       19.8260608104       18.9213801032       19.0344655406
H    1.0       20.3674079733       19.3305759125       18.1715921116
H    1.0       18.7755138845       19.2282943479       18.9486607248
H    1.0       19.8683926398       17.8263054801       18.9694501248
 $end
