$$$$
! Edit this basic GAMESS input file as needed.
! Conformer was generated by a VeraChem VCPack run 
! and contains     20 atoms.
!
 $contrl scftyp=rhf runtyp=optimize nzvar=0
  maxit=200 icharg=0 $end
 $system mwords=50 $end
 $basis gbasis=pm3 $end
 $statpt nstep=200 $end
 $guess guess=huckel $end
 $data
VM2 Rank=1      G=2.706             E=-20.181           -TS=22.887              
C1
N    7.0       20.3912031176       20.1731355090       24.1279440497
H    1.0       20.0069620679       20.9379916435       23.5676423435
H    1.0       21.3895341293       20.1069594768       23.9146361543
H    1.0       20.3065870890       20.4446006087       25.1112046195
C    6.0       19.6810820242       18.8752364285       23.8518043568
H    1.0       18.6271242994       19.0338783736       24.1005881957
C    6.0       20.2261412257       17.7582293337       24.7568891662
H    1.0       20.1319206212       18.0342858405       25.8143290797
H    1.0       21.2848135010       17.5590660163       24.5487051388
H    1.0       19.6672863700       16.8262659019       24.6060120034
C    6.0       19.7687728424       18.4546996389       22.3680236387
H    1.0       20.8203225102       18.3116438503       22.0857252135
H    1.0       19.2769860591       17.4803116716       22.2464399418
C    6.0       19.1036473101       19.4719954093       21.4097780525
H    1.0       19.6148891077       20.4421833518       21.4713710143
H    1.0       18.0613483638       19.6414184621       21.7149842617
C    6.0       19.1341534800       18.9807036806       19.9465607362
H    1.0       18.5957823850       18.0302406796       19.8369749506
H    1.0       20.1655929739       18.8309467069       19.6016517005
H    1.0       18.6601077944       19.7140930276       19.2813504437
 $end
