$$$$
! Edit this basic GAMESS input file as needed.
! Conformer was generated by a VeraChem VCPack run 
! and contains     23 atoms.
!
 $contrl scftyp=rhf runtyp=optimize nzvar=0
  maxit=200 icharg=0 $end
 $system mwords=50 $end
 $basis gbasis=pm3 $end
 $statpt nstep=200 $end
 $guess guess=huckel $end
 $data
VM2 Rank=1      G=37.917            E=10.396            -TS=27.520              
C1
N    7.0       19.7413605840       18.6609666107       26.4278134748
H    1.0       19.4802507828       19.1972187717       27.2622888019
H    1.0       20.7320187447       18.4173395626       26.5284406035
H    1.0       19.2105832926       17.7845063602       26.4590531487
C    6.0       19.4764061847       19.4376213977       25.1540373885
H    1.0       20.0478730758       20.3685799870       25.2013448044
H    1.0       18.4125208783       19.6884273704       25.1268051331
C    6.0       19.8579518489       18.6596319763       23.8821364306
H    1.0       20.9232989960       18.3958345574       23.9214463874
H    1.0       19.2937876982       17.7180382547       23.8472101029
C    6.0       19.5728321099       19.4846688857       22.6076939432
H    1.0       20.1349251673       20.4281485237       22.6489225378
H    1.0       18.5071217592       19.7510895050       22.5747818793
C    6.0       19.9524834984       18.7124968894       21.3237084827
H    1.0       21.0180612577       18.4460716414       21.3564520491
H    1.0       19.3904458920       17.7691457478       21.2822837480
C    6.0       19.6672669866       19.5379086568       20.0493040832
H    1.0       20.2292272130       20.4817870804       20.0848744453
H    1.0       18.6017953776       19.8048296612       20.0106426498
C    6.0       20.0476987876       18.7637055834       18.7693061971
H    1.0       19.4761483932       17.8299108739       18.6881467418
H    1.0       21.1162938035       18.5121244919       18.7629833834
H    1.0       19.8381352642       19.3655787624       17.8755060422
 $end
