$$$$
! Edit this basic GAMESS input file as needed.
! Conformer was generated by a VeraChem VCPack run 
! and contains     19 atoms.
!
 $contrl scftyp=rhf runtyp=optimize nzvar=0
  maxit=200 icharg=0 $end
 $system mwords=50 $end
 $basis gbasis=pm3 $end
 $statpt nstep=200 $end
 $guess guess=huckel $end
 $data
VM2 Rank=1      G=-26.152           E=-40.889           -TS=14.737              
C1
C    6.0       19.9538820391       19.2770585831       25.5145004838
O    8.0       20.6501487364       18.4763276188       26.1062979008
O    8.0       19.7317709021       20.4017916319       25.9167733346
C    6.0       19.3418780975       18.8541620756       24.1837196512
H    1.0       18.3778532512       19.3654072707       24.0740510217
H    1.0       19.1346332336       17.7782378142       24.2303952969
C    6.0       20.2548906342       19.1702851866       22.9735174708
H    1.0       20.4633768204       20.2489178128       22.9482903881
H    1.0       21.2201166615       18.6616479205       23.1045831341
C    6.0       19.6127437333       18.7327756354       21.6394034024
H    1.0       18.6474970729       19.2419354180       21.5119380074
H    1.0       19.4043253598       17.6543872526       21.6682725081
C    6.0       20.5244766818       19.0488807711       20.4355795373
H    1.0       20.7336894152       20.1271218045       20.4021260073
H    1.0       21.4904657953       18.5397066502       20.5584559450
C    6.0       19.8802091755       18.6107184976       19.1052082190
H    1.0       19.6887130766       17.5296490177       19.0988104342
H    1.0       18.9262751292       19.1289528588       18.9413027195
H    1.0       20.5415210342       18.8427759346       18.2602682710
 $end
$$$$
! Edit this basic GAMESS input file as needed.
! Conformer was generated by a VeraChem VCPack run 
! and contains     19 atoms.
!
 $contrl scftyp=rhf runtyp=optimize nzvar=0
  maxit=200 icharg=0 $end
 $system mwords=50 $end
 $basis gbasis=pm3 $end
 $statpt nstep=200 $end
 $guess guess=huckel $end
 $data
VM2 Rank=2      G=-25.412           E=-40.258           -TS=14.846              
C1
C    6.0       19.8291847934       19.3146143502       25.3694761128
O    8.0       20.1458900758       18.4558618537       26.1685569414
O    8.0       19.7257355114       20.4915348709       25.6530592891
C    6.0       19.5681197140       18.8952372619       23.9271428569
H    1.0       18.7937661194       19.5567402047       23.5226228679
H    1.0       19.1556492608       17.8792290308       23.9374958119
C    6.0       20.8441773803       18.9453221450       23.0471715529
H    1.0       21.2228082939       19.9760641477       23.0081678409
H    1.0       21.6282835843       18.3449554690       23.5290032140
C    6.0       20.6254205387       18.4138339653       21.6107893942
H    1.0       20.2551458866       17.3803370308       21.6530976216
H    1.0       21.5981620877       18.3748010248       21.1016084191
C    6.0       19.6562348748       19.2805712441       20.7759491840
H    1.0       18.6554408532       19.2713577442       21.2272680812
H    1.0       19.9988587098       20.3245430249       20.7759040731
C    6.0       19.5552371115       18.7750243089       19.3228546688
H    1.0       20.5339917041       18.8067985360       18.8264521267
H    1.0       19.1882391805       17.7407354561       19.2918119226
H    1.0       18.8615049243       19.3984138904       18.7438815263
 $end
$$$$
! Edit this basic GAMESS input file as needed.
! Conformer was generated by a VeraChem VCPack run 
! and contains     19 atoms.
!
 $contrl scftyp=rhf runtyp=optimize nzvar=0
  maxit=200 icharg=0 $end
 $system mwords=50 $end
 $basis gbasis=pm3 $end
 $statpt nstep=200 $end
 $guess guess=huckel $end
 $data
VM2 Rank=3      G=-25.371           E=-40.216           -TS=14.846              
C1
C    6.0       20.1746551572       19.3730697582       25.3607123761
O    8.0       20.1981892287       18.4647076712       26.1673177628
O    8.0       19.8984520000       20.5207345613       25.6485336339
C    6.0       20.4874420697       19.0508039773       23.9037737968
H    1.0       21.2110311843       18.2270404582       23.8852143875
H    1.0       20.9802272624       19.9267342095       23.4670211876
C    6.0       19.2240240782       18.6711567855       23.0884051884
H    1.0       18.7057511394       17.8504118073       23.6033740682
H    1.0       18.5260902941       19.5197224146       23.0767759322
C    6.0       19.5340990503       18.2291428337       21.6385762538
H    1.0       18.6043971591       17.8680595111       21.1778290029
H    1.0       20.2253145838       17.3753300912       21.6538885612
C    6.0       20.1217179891       19.3593934108       20.7640755844
H    1.0       19.4551842513       20.2325183457       20.7896609607
H    1.0       21.0908607947       19.6837046864       21.1652595354
C    6.0       20.3114204267       18.9029910020       19.3036054038
H    1.0       20.7318907558       19.7150130659       18.6962222595
H    1.0       20.9962635217       18.0468034049       19.2458323392
H    1.0       19.3534174345       18.6067950801       18.8565218671
 $end
$$$$
! Edit this basic GAMESS input file as needed.
! Conformer was generated by a VeraChem VCPack run 
! and contains     19 atoms.
!
 $contrl scftyp=rhf runtyp=optimize nzvar=0
  maxit=200 icharg=0 $end
 $system mwords=50 $end
 $basis gbasis=pm3 $end
 $statpt nstep=200 $end
 $guess guess=huckel $end
 $data
VM2 Rank=4      G=-25.272           E=-40.125           -TS=14.853              
C1
C    6.0       20.0105584756       19.3757562085       25.3742903350
O    8.0       20.8025744463       18.7067531456       26.0078440422
O    8.0       19.7500112356       20.5338865666       25.6332668305
C    6.0       19.3188013558       18.7318408559       24.1779023688
H    1.0       18.3202556870       19.1750706676       24.0820764154
H    1.0       19.1808513868       17.6662210519       24.3972268855
C    6.0       20.1097328346       18.9083383831       22.8581620581
H    1.0       20.2515435740       19.9806945691       22.6695819806
H    1.0       21.1098356717       18.4680592830       22.9730007953
C    6.0       19.3840058272       18.2495956802       21.6623225353
H    1.0       18.4036505197       18.7237325656       21.5170528003
H    1.0       19.1877607893       17.1950918241       21.9000262849
C    6.0       20.1896979082       18.3139178718       20.3442506573
H    1.0       21.1689611130       17.8355442918       20.4839935466
H    1.0       19.6631653669       17.7255573021       19.5801569110
C    6.0       20.3846179167       19.7519112882       19.8169611729
H    1.0       21.0060981649       20.3474712395       20.4972666387
H    1.0       20.8827917947       19.7376664359       18.8389207135
H    1.0       19.4192610298       20.2607158070       19.6971203290
 $end
$$$$
! Edit this basic GAMESS input file as needed.
! Conformer was generated by a VeraChem VCPack run 
! and contains     19 atoms.
!
 $contrl scftyp=rhf runtyp=optimize nzvar=0
  maxit=200 icharg=0 $end
 $system mwords=50 $end
 $basis gbasis=pm3 $end
 $statpt nstep=200 $end
 $guess guess=huckel $end
 $data
VM2 Rank=5      G=-25.266           E=-40.119           -TS=14.853              
C1
C    6.0       19.8728430801       19.2876518010       25.3816757368
O    8.0       20.1973463179       18.3193396715       26.0399406287
O    8.0       18.9512010539       20.0226405667       25.6759357405
C    6.0       20.6536424272       19.5862496520       24.1066491826
H    1.0       21.6933252565       19.2743855686       24.2631031103
H    1.0       20.6600202439       20.6726849262       23.9571597632
C    6.0       20.0649630800       18.8797054301       22.8605765195
H    1.0       20.0566348595       17.7940232050       23.0292917115
H    1.0       19.0199162515       19.1924512370       22.7353277806
C    6.0       20.8734395155       19.2027995837       21.5828311407
H    1.0       21.9286507800       18.9491941384       21.7537306605
H    1.0       20.8406334148       20.2833391091       21.3869657527
C    6.0       20.3803430333       18.4359173073       20.3340967744
H    1.0       21.0747610088       18.6290390422       19.5048009140
H    1.0       20.4171219072       17.3543160065       20.5241286774
C    6.0       18.9562214921       18.8376959877       19.8932942769
H    1.0       18.6879733214       18.3329812516       18.9561449030
H    1.0       18.2094425146       18.5574643369       20.6466447862
H    1.0       18.8875786359       19.9204429330       19.7256495833
 $end
$$$$
! Edit this basic GAMESS input file as needed.
! Conformer was generated by a VeraChem VCPack run 
! and contains     19 atoms.
!
 $contrl scftyp=rhf runtyp=optimize nzvar=0
  maxit=200 icharg=0 $end
 $system mwords=50 $end
 $basis gbasis=pm3 $end
 $statpt nstep=200 $end
 $guess guess=huckel $end
 $data
VM2 Rank=6      G=-24.722           E=-39.769           -TS=15.047              
C1
C    6.0       20.1397062003       19.2124575105       25.1802733596
O    8.0       20.9104685340       18.2974348498       25.3928966868
O    8.0       20.3192385285       20.3475963000       25.5751276947
C    6.0       18.8654818863       18.9175973130       24.3936636935
H    1.0       18.0325215567       19.3859653117       24.9311754048
H    1.0       18.6856949845       17.8357558179       24.4104835988
C    6.0       18.8927313752       19.4329070486       22.9312000372
H    1.0       17.8955187437       19.3034891645       22.4892131813
H    1.0       19.1020480187       20.5117087198       22.9293475997
C    6.0       19.9351357105       18.6959762582       22.0607792464
H    1.0       19.7293979353       17.6168739561       22.0762843470
H    1.0       20.9382756370       18.8348492629       22.4872142845
C    6.0       19.9230887920       19.2026112256       20.6034603619
H    1.0       18.9230611056       19.0623254376       20.1702231218
H    1.0       20.1310044732       20.2814529447       20.5848568373
C    6.0       20.9641489732       18.4654194943       19.7375989199
H    1.0       21.9783275027       18.6148183516       20.1307433651
H    1.0       20.7614216748       17.3866685003       19.7130685254
H    1.0       20.9423990491       18.8380661084       18.7052493593
 $end
$$$$
! Edit this basic GAMESS input file as needed.
! Conformer was generated by a VeraChem VCPack run 
! and contains     19 atoms.
!
 $contrl scftyp=rhf runtyp=optimize nzvar=0
  maxit=200 icharg=0 $end
 $system mwords=50 $end
 $basis gbasis=pm3 $end
 $statpt nstep=200 $end
 $guess guess=huckel $end
 $data
VM2 Rank=7      G=-24.720           E=-39.768           -TS=15.047              
C1
C    6.0       20.0469058999       19.4069152899       25.1611700320
O    8.0       21.0054405672       18.9084359831       25.7174175863
O    8.0       19.8125764145       20.5992319487       25.1658620428
C    6.0       19.0739032492       18.4808265813       24.4366252198
H    1.0       18.1247195048       19.0117231545       24.2945476308
H    1.0       18.8677019020       17.6353205468       25.1034925836
C    6.0       19.5997066039       17.9514148326       23.0770877939
H    1.0       20.5641293734       17.4476433615       23.2311498651
H    1.0       18.9032281881       17.1917469114       22.6971444087
C    6.0       19.7563404853       19.0709704186       22.0238226890
H    1.0       20.4651373330       19.8268438354       22.3894518513
H    1.0       18.7929396625       19.5799441520       21.8829881388
C    6.0       20.2500133808       18.5174038026       20.6708801810
H    1.0       21.2148653903       18.0098469303       20.8084299289
H    1.0       19.5426481570       17.7636611035       20.2981390930
C    6.0       20.4051133993       19.6368011432       19.6221344552
H    1.0       20.7570981829       19.2259977639       18.6669206610
H    1.0       19.4468688104       20.1414097659       19.4417354587
H    1.0       21.1314687823       20.3894760810       19.9557957706
 $end
$$$$
! Edit this basic GAMESS input file as needed.
! Conformer was generated by a VeraChem VCPack run 
! and contains     19 atoms.
!
 $contrl scftyp=rhf runtyp=optimize nzvar=0
  maxit=200 icharg=0 $end
 $system mwords=50 $end
 $basis gbasis=pm3 $end
 $statpt nstep=200 $end
 $guess guess=huckel $end
 $data
VM2 Rank=8      G=-24.443           E=-39.689           -TS=15.246              
C1
C    6.0       20.0072746180       19.2236370349       25.5349363674
O    8.0       19.9565843354       18.5580558800       26.5498719981
O    8.0       20.1008403880       20.4358086782       25.5404520396
C    6.0       19.9480846662       18.4725390649       24.2037624207
H    1.0       19.0189301430       17.8905741339       24.1975434115
H    1.0       20.7764851452       17.7543843554       24.1962421557
C    6.0       20.0162673602       19.3644734151       22.9355996299
H    1.0       19.1871643656       20.0854330506       22.9521367932
H    1.0       20.9465367179       19.9491391349       22.9508650212
C    6.0       19.9504249985       18.5266811097       21.6402115326
H    1.0       19.0197579183       17.9428683264       21.6271181637
H    1.0       20.7800849391       17.8065373407       21.6258100352
C    6.0       20.0183042918       19.4152455456       20.3807512074
H    1.0       19.1887909805       20.1358739402       20.3904873901
H    1.0       20.9489546680       19.9994655356       20.3891155516
C    6.0       19.9522193419       18.5755592716       19.0894148044
H    1.0       19.0158735084       18.0044085592       19.0397652984
H    1.0       20.0017043476       19.2228713329       18.2041765610
H    1.0       20.7892911072       17.8669494190       19.0383883668
 $end
