$$$$
! Edit this basic GAMESS input file as needed.
! Conformer was generated by a VeraChem VCPack run 
! and contains     20 atoms.
!
 $contrl scftyp=rhf runtyp=optimize nzvar=0
  maxit=200 icharg=0 $end
 $system mwords=50 $end
 $basis gbasis=pm3 $end
 $statpt nstep=200 $end
 $guess guess=huckel $end
 $data
VM2 Rank=1      G=53.937            E=31.435            -TS=22.502              
C1
C    6.0       19.8543508795       19.1510030836       18.8169383099
H    1.0       20.0356664222       20.2331301649       18.7808592570
H    1.0       20.3379259714       18.6998818984       17.9407695168
H    1.0       18.7731811130       18.9827310850       18.7278752690
C    6.0       20.4072638470       18.5374681041       20.1215824162
H    1.0       21.4948225512       18.6913206951       20.1651397935
H    1.0       20.2422726625       17.4507080185       20.1125613779
C    6.0       19.7439058382       19.1541887253       21.3727338018
H    1.0       19.9120420724       20.2393585219       21.3827340181
H    1.0       18.6578819184       18.9970016234       21.3301722846
C    6.0       20.3005696349       18.5373804627       22.6693666351
H    1.0       21.3791658382       18.7056237356       22.7224060960
H    1.0       20.1208444377       17.4593330076       22.6697645825
N    7.0       19.6775785265       19.1133194933       23.9259034472
H    1.0       18.6546900022       18.9806663722       23.9098814637
H    1.0       19.8197986510       20.1345229302       23.9586662376
C    6.0       20.2823312739       18.4506401311       25.1564753898
H    1.0       21.3590495940       18.6330546496       25.1709886866
H    1.0       19.8251177474       18.8743696924       26.0533693185
H    1.0       20.0900086033       17.3762442043       25.1178330155
 $end
