$$$$
! Edit this basic GAMESS input file as needed.
! Conformer was generated by a VeraChem VCPack run 
! and contains     13 atoms.
!
 $contrl scftyp=rhf runtyp=optimize nzvar=0
  maxit=200 icharg=0 $end
 $system mwords=50 $end
 $basis gbasis=pm3 $end
 $statpt nstep=200 $end
 $guess guess=huckel $end
 $data
VM2 Rank=1      G=-44.757           E=-49.835           -TS=5.078               
C1
C    6.0       20.0726207111       19.2403194495       23.9326025198
O    8.0       20.6421532220       20.2278657079       24.3518236458
O    8.0       19.9464766907       18.2159164500       24.5729511683
C    6.0       19.5016601272       19.2823968754       22.5191908342
H    1.0       19.1790002198       20.3099631350       22.3117850506
H    1.0       18.6052893286       18.6508028298       22.4941490794
C    6.0       20.5130214898       18.8145950213       21.4448733454
H    1.0       21.4103640814       19.4477730910       21.4858984402
H    1.0       20.8364397155       17.7882724997       21.6682242439
C    6.0       19.9060677591       18.8689064959       20.0285584863
H    1.0       20.6373180640       18.5338972320       19.2813616195
H    1.0       19.0237205435       18.2196839336       19.9542019357
H    1.0       19.6020897562       19.8919150548       19.7704741828
 $end
