$$$$
! Edit this basic GAMESS input file as needed.
! Conformer was generated by a VeraChem VCPack run 
! and contains     29 atoms.
!
 $contrl scftyp=rhf runtyp=optimize nzvar=0
  maxit=200 icharg=0 $end
 $system mwords=50 $end
 $basis gbasis=pm3 $end
 $statpt nstep=200 $end
 $guess guess=huckel $end
 $data
VM2 Rank=1      G=33.702            E=-3.682            -TS=37.384              
C1
C    6.0       19.5303422119       19.9313020248       18.7439741912
H    1.0       18.5900164498       20.4919452308       18.8259424017
H    1.0       20.3578723699       20.6524488866       18.7240791732
H    1.0       19.5232628288       19.3997693156       17.7835179424
C    6.0       19.6879654402       18.9384952966       19.9150181927
H    1.0       20.6195611670       18.3694522929       19.7876582225
H    1.0       18.8653283200       18.2101556931       19.8887593923
C    6.0       19.7009612390       19.6615303504       21.2799349500
H    1.0       20.5233988563       20.3899437852       21.3006380046
H    1.0       18.7689819721       20.2307614740       21.4015531928
C    6.0       19.8586273462       18.6704527552       22.4550764578
H    1.0       20.7902282761       18.1009961526       22.3313695577
H    1.0       19.0356771464       17.9425775009       22.4338284523
C    6.0       19.8723598653       19.3942285045       23.8204072468
H    1.0       20.6978757878       20.1193163742       23.8421591585
H    1.0       18.9416309657       19.9658906314       23.9336155806
C    6.0       20.0289518164       18.3990497059       24.9957686602
H    1.0       20.9355746919       17.8003702769       24.8353830092
H    1.0       19.1857110451       17.6955503103       25.0018133965
C    6.0       20.1313656969       19.0989312578       26.3682254946
H    1.0       20.9618773617       19.8105384087       26.3292678696
C    6.0       20.4279473589       18.0708523954       27.4715831388
H    1.0       19.6206602796       17.3322448271       27.5534050682
H    1.0       21.3621426871       17.5343576015       27.2637028511
H    1.0       20.5382090706       18.5660177193       28.4442418799
N    7.0       18.8974790253       19.8911577094       26.7040116679
H    1.0       18.0709547308       19.2897707111       26.7563760073
H    1.0       18.7120482505       20.6103975198       25.9997414718
H    1.0       18.9908493162       20.3638838230       27.6076071999
 $end
