$$$$
! Edit this basic GAMESS input file as needed.
! Conformer was generated by a VeraChem VCPack run 
! and contains     26 atoms.
!
 $contrl scftyp=rhf runtyp=optimize nzvar=0
  maxit=200 icharg=0 $end
 $system mwords=50 $end
 $basis gbasis=pm3 $end
 $statpt nstep=200 $end
 $guess guess=huckel $end
 $data
VM2 Rank=1      G=23.712            E=-8.840            -TS=32.553              
C1
C    6.0       20.2414352106       18.6561773428       18.8059769468
H    1.0       19.6042476191       19.4967876687       18.5016586611
H    1.0       21.0557311536       18.5687602352       18.0749997824
H    1.0       19.6427651275       17.7373535602       18.7549964724
C    6.0       20.8050585221       18.8730148064       20.2263448785
H    1.0       21.4261189879       19.7797094425       20.2375262543
H    1.0       21.4644585760       18.0338113512       20.4887336009
C    6.0       19.6784656342       18.9994080570       21.2757061828
H    1.0       19.0205484453       19.8374085433       21.0067028084
H    1.0       19.0594504755       18.0916324466       21.2594912329
C    6.0       20.2389143598       19.2173971773       22.6994198006
H    1.0       20.8548537985       20.1273948992       22.7149747715
H    1.0       20.9000468412       18.3794691891       22.9575871938
C    6.0       19.1075890618       19.3422795698       23.7488100030
H    1.0       18.4279122160       20.1490367859       23.4433705234
H    1.0       18.5118988512       18.4198351391       23.7645649275
C    6.0       19.6331398466       19.6455717042       25.1687725342
H    1.0       20.2418778691       20.5538620478       25.1222520885
C    6.0       18.4605419428       19.8995823128       26.1296084659
H    1.0       17.8446634233       20.7376807334       25.7802997125
H    1.0       18.8275717666       20.1520164392       27.1320770551
H    1.0       17.8172595640       19.0147032173       26.2138062850
N    7.0       20.5228554220       18.5545690297       25.6993611882
H    1.0       20.0216769961       17.6650855210       25.7696497644
H    1.0       21.3336959214       18.4049008824       25.0931192806
H    1.0       20.8768803340       18.7814061439       26.6329762646
 $end
$$$$
! Edit this basic GAMESS input file as needed.
! Conformer was generated by a VeraChem VCPack run 
! and contains     26 atoms.
!
 $contrl scftyp=rhf runtyp=optimize nzvar=0
  maxit=200 icharg=0 $end
 $system mwords=50 $end
 $basis gbasis=pm3 $end
 $statpt nstep=200 $end
 $guess guess=huckel $end
 $data
VM2 Rank=2      G=24.182            E=-8.384            -TS=32.567              
C1
C    6.0       20.2650767267       18.6437584680       18.8025803118
H    1.0       21.1742165279       18.0291288285       18.8331772613
H    1.0       19.4028422794       17.9735506089       18.6902704920
H    1.0       20.3173159345       19.2783246227       17.9083509820
C    6.0       20.1352730604       19.5061554072       20.0759786821
H    1.0       19.2362326517       20.1338552292       20.0008525593
H    1.0       20.9939304449       20.1889173146       20.1428852660
C    6.0       20.0596946114       18.6366049355       21.3505629535
H    1.0       19.2010251767       17.9547217824       21.2782982344
H    1.0       20.9590494075       18.0089204742       21.4186103638
C    6.0       19.9302046536       19.4968272265       22.6281392212
H    1.0       19.0340191874       20.1255976747       22.5454906348
H    1.0       20.7917204202       20.1749376275       22.7022217509
C    6.0       19.8500033218       18.6221943627       23.9035967318
H    1.0       18.9534156883       17.9894079319       23.8630599499
H    1.0       20.7111720735       17.9410267017       23.9147249777
C    6.0       19.8535131827       19.4354729854       25.2183188657
H    1.0       20.7326255622       20.0872806603       25.2161301072
C    6.0       18.5968843716       20.3129634731       25.3616980835
H    1.0       17.6825766679       19.7091905665       25.3052693088
H    1.0       18.5528514392       21.0781643055       24.5782081100
H    1.0       18.5994586554       20.8366348174       26.3255918458
N    7.0       19.9973500718       18.5340231416       26.4131251504
H    1.0       19.2076621928       17.8877287421       26.4919336189
H    1.0       20.8512887535       17.9712657246       26.3607895381
H    1.0       20.0403180466       19.0709784211       27.2839329583
 $end
$$$$
! Edit this basic GAMESS input file as needed.
! Conformer was generated by a VeraChem VCPack run 
! and contains     26 atoms.
!
 $contrl scftyp=rhf runtyp=optimize nzvar=0
  maxit=200 icharg=0 $end
 $system mwords=50 $end
 $basis gbasis=pm3 $end
 $statpt nstep=200 $end
 $guess guess=huckel $end
 $data
VM2 Rank=3      G=24.223            E=-8.475            -TS=32.698              
C1
C    6.0       20.3612573769       18.7664299306       18.8988636895
H    1.0       20.3290052252       17.9289051107       18.1899531691
H    1.0       19.6207258687       19.5098422712       18.5760795441
H    1.0       21.3566916650       19.2248182200       18.8338357984
C    6.0       20.0680776889       18.2779178937       20.3332660126
H    1.0       20.8039860333       17.5117128826       20.6148336397
H    1.0       19.0813810276       17.7945080607       20.3590427042
C    6.0       20.1073530321       19.4385049320       21.3520526426
H    1.0       21.0946460456       19.9198441503       21.3202028563
H    1.0       19.3718887951       20.2026952925       21.0647136645
C    6.0       19.8141380893       18.9534872624       22.7899010149
H    1.0       20.5512810564       18.1892181747       23.0693633931
H    1.0       18.8284196769       18.4703653567       22.8097177944
C    6.0       19.8522520619       20.1238669539       23.8069709759
H    1.0       20.8255060851       20.6276745030       23.7405083195
H    1.0       19.1035185551       20.8754266981       23.5235267842
C    6.0       19.6133367677       19.7156693662       25.2800274337
H    1.0       19.6966757888       20.6232099024       25.8860556949
C    6.0       18.2039891663       19.1383273660       25.4994290545
H    1.0       18.0784231085       18.1718716160       24.9970774146
H    1.0       17.4375905263       19.8256494661       25.1202477439
H    1.0       18.0142344887       18.9865367880       26.5690697333
N    7.0       20.6675958169       18.7737962953       25.7934891763
H    1.0       20.6508596364       17.8852209619       25.2871243081
H    1.0       21.6065211263       19.1694533991       25.6917776614
H    1.0       20.5303745596       18.5639767800       26.7862465498
 $end
$$$$
! Edit this basic GAMESS input file as needed.
! Conformer was generated by a VeraChem VCPack run 
! and contains     26 atoms.
!
 $contrl scftyp=rhf runtyp=optimize nzvar=0
  maxit=200 icharg=0 $end
 $system mwords=50 $end
 $basis gbasis=pm3 $end
 $statpt nstep=200 $end
 $guess guess=huckel $end
 $data
VM2 Rank=4      G=24.303            E=-8.362            -TS=32.665              
C1
C    6.0       21.0483193422       19.5371802028       19.5910412697
H    1.0       21.6440794204       19.2909819412       18.7025641922
H    1.0       20.3767462842       20.3641434834       19.3261930037
H    1.0       21.7412035077       19.8905627146       20.3646483572
C    6.0       20.2491255455       18.3022222077       20.0653174462
H    1.0       20.9437271271       17.5004801683       20.3525220946
H    1.0       19.6638001101       17.9134885573       19.2202824121
C    6.0       19.2859883221       18.6058985653       21.2382782307
H    1.0       18.5787222841       19.3911397708       20.9375091556
H    1.0       18.6846615497       17.7079432245       21.4369505494
C    6.0       20.0116674229       19.0260410485       22.5390064643
H    1.0       20.5567603567       19.9650682100       22.3753088149
H    1.0       20.7571408915       18.2624154782       22.7973516136
C    6.0       19.0189824815       19.2155163347       23.7118004558
H    1.0       18.2492782474       19.9389044900       23.4111607202
H    1.0       18.4984463501       18.2701565680       23.9150248956
C    6.0       19.7000429675       19.7208909055       25.0022122068
H    1.0       20.2300123282       20.6495740283       24.7689917241
C    6.0       18.6460665746       20.0244536815       26.0790881543
H    1.0       19.1201765428       20.4190323813       26.9862263901
H    1.0       18.0851731145       19.1216146542       26.3514684459
H    1.0       17.9308743918       20.7767137322       25.7236520450
N    7.0       20.7278073437       18.7557970539       25.5272557721
H    1.0       21.1824767633       19.1157874002       26.3711137339
H    1.0       20.3057306027       17.8549534689       25.7673133723
H    1.0       21.4617908332       18.5784251842       24.8364552823
 $end
$$$$
! Edit this basic GAMESS input file as needed.
! Conformer was generated by a VeraChem VCPack run 
! and contains     26 atoms.
!
 $contrl scftyp=rhf runtyp=optimize nzvar=0
  maxit=200 icharg=0 $end
 $system mwords=50 $end
 $basis gbasis=pm3 $end
 $statpt nstep=200 $end
 $guess guess=huckel $end
 $data
VM2 Rank=5      G=24.328            E=-8.330            -TS=32.658              
C1
C    6.0       21.0697866183       18.0176267122       19.8286223922
H    1.0       21.6580120188       18.0075520775       18.9018924131
H    1.0       21.7716348655       17.9122099945       20.6650656014
H    1.0       20.4117697358       17.1390322439       19.8179360421
C    6.0       20.2509610293       19.3242014804       19.9348476932
H    1.0       19.6581225483       19.4456219720       19.0174562727
H    1.0       20.9325660307       20.1852781000       19.9763348368
C    6.0       19.2943031567       19.3544950348       21.1512703254
H    1.0       18.6763357208       20.2606335877       21.0852348028
H    1.0       18.6016841760       18.5034056408       21.0943634292
C    6.0       20.0281888507       19.3401963612       22.5137721147
H    1.0       20.7542591094       20.1643058779       22.5470819649
H    1.0       20.5965905796       18.4071994717       22.6136473421
C    6.0       19.0395540470       19.4756056894       23.6975415432
H    1.0       18.4433486366       20.3875367210       23.5598003657
H    1.0       18.3329635607       18.6349826074       23.6891222062
C    6.0       19.7463169216       19.5466941128       25.0687033390
H    1.0       20.4616823065       20.3745285815       25.0430874649
C    6.0       18.7246071304       19.8265579368       26.1824846936
H    1.0       17.9821355430       19.0216614839       26.2516898667
H    1.0       18.1920632979       20.7674407806       25.9957622365
H    1.0       19.2245747990       19.9149765656       27.1548979372
N    7.0       20.5342822459       18.3026226724       25.3767578988
H    1.0       21.2507124893       18.1281178278       24.6670959497
H    1.0       21.0102565089       18.3755472661       26.2803969754
H    1.0       19.9298043970       17.4777121163       25.4147011339
 $end
$$$$
! Edit this basic GAMESS input file as needed.
! Conformer was generated by a VeraChem VCPack run 
! and contains     26 atoms.
!
 $contrl scftyp=rhf runtyp=optimize nzvar=0
  maxit=200 icharg=0 $end
 $system mwords=50 $end
 $basis gbasis=pm3 $end
 $statpt nstep=200 $end
 $guess guess=huckel $end
 $data
VM2 Rank=6      G=24.406            E=-8.339            -TS=32.745              
C1
C    6.0       20.8971002641       19.5642294548       19.3397480485
H    1.0       21.6801601187       20.2087874360       19.7599771443
H    1.0       21.3060494655       19.0768503331       18.4451740848
H    1.0       20.0618516511       20.2026734690       19.0235373819
C    6.0       20.4324520439       18.5122668095       20.3691175895
H    1.0       21.2808233391       17.8684840830       20.6406002850
H    1.0       19.6755546191       17.8617991083       19.9087599671
C    6.0       19.8510155403       19.1724616043       21.6387966519
H    1.0       20.6120976547       19.8274550180       22.0831637501
H    1.0       19.0023469907       19.8129619239       21.3614212255
C    6.0       19.3868574377       18.1185422907       22.6726711228
H    1.0       20.2366612347       17.4901929165       22.9709976223
H    1.0       18.6631832801       17.4428860829       22.1960546637
C    6.0       18.7225695185       18.7435521182       23.9262553600
H    1.0       17.8185346291       19.2834218500       23.6144177389
H    1.0       18.3840008808       17.9378391869       24.5911440892
C    6.0       19.6369853172       19.7071852974       24.7157362963
H    1.0       19.9488261346       20.5135517232       24.0454206694
C    6.0       18.8677672685       20.3323422165       25.8903168795
H    1.0       19.4995027301       21.0475102741       26.4314263419
H    1.0       18.5345730501       19.5651166531       26.6004099695
H    1.0       17.9832615976       20.8739852743       25.5325569809
N    7.0       20.8932526098       19.0374202086       25.2013580515
H    1.0       21.4998656511       19.6945935450       25.6998610838
H    1.0       20.6819435781       18.2683292961       25.8425300027
H    1.0       21.4331159445       18.6507305859       24.4224748819
 $end
$$$$
! Edit this basic GAMESS input file as needed.
! Conformer was generated by a VeraChem VCPack run 
! and contains     26 atoms.
!
 $contrl scftyp=rhf runtyp=optimize nzvar=0
  maxit=200 icharg=0 $end
 $system mwords=50 $end
 $basis gbasis=pm3 $end
 $statpt nstep=200 $end
 $guess guess=huckel $end
 $data
VM2 Rank=7      G=24.407            E=-8.262            -TS=32.668              
C1
C    6.0       19.9267005407       18.4375728061       19.0848848801
H    1.0       20.9094790745       18.6605067526       18.6493751518
H    1.0       19.5851048054       17.4794570178       18.6721366628
H    1.0       19.2236724593       19.2150321040       18.7584694243
C    6.0       20.0037641126       18.3710293324       20.6249710730
H    1.0       20.6908700147       17.5659414515       20.9206453514
H    1.0       19.0138844466       18.1064515575       21.0198198638
C    6.0       20.4794652213       19.7128123880       21.2303494029
H    1.0       21.4336234844       19.9962571052       20.7649100742
H    1.0       19.7649327904       20.5078153344       20.9759993085
C    6.0       20.6775000091       19.6633631293       22.7652726013
H    1.0       21.1156409898       20.6173623634       23.0901502787
H    1.0       21.4128831189       18.8849434510       23.0087201016
C    6.0       19.3622532316       19.4201441510       23.5488688747
H    1.0       18.6078205456       20.1425281646       23.2098916473
H    1.0       18.9664117299       18.4216965317       23.3241200445
C    6.0       19.5396894763       19.5652356967       25.0757584335
H    1.0       19.9495485971       20.5591554453       25.2803107016
C    6.0       18.1813559072       19.4481975616       25.7856225771
H    1.0       18.2954162175       19.5878065093       26.8676889963
H    1.0       17.7268382210       18.4644230165       25.6138652444
H    1.0       17.4847141557       20.2143680807       25.4231286014
N    7.0       20.5172715012       18.5696449348       25.6382721573
H    1.0       20.2019401831       17.6084269208       25.4838233777
H    1.0       21.4394477023       18.6653760693       25.2048428854
H    1.0       20.6391011929       18.6939400812       26.6472884433
 $end
$$$$
! Edit this basic GAMESS input file as needed.
! Conformer was generated by a VeraChem VCPack run 
! and contains     26 atoms.
!
 $contrl scftyp=rhf runtyp=optimize nzvar=0
  maxit=200 icharg=0 $end
 $system mwords=50 $end
 $basis gbasis=pm3 $end
 $statpt nstep=200 $end
 $guess guess=huckel $end
 $data
VM2 Rank=8      G=24.519            E=-8.104            -TS=32.623              
C1
C    6.0       19.8814534944       18.9330382582       18.9777398069
H    1.0       19.2376979632       18.0472297373       18.8992084334
H    1.0       19.4704624097       19.7079511983       18.3177090962
H    1.0       20.8781573376       18.6657551017       18.6030822794
C    6.0       19.9526655218       19.4392536628       20.4341098953
H    1.0       18.9457137468       19.7349321385       20.7566387148
H    1.0       20.5790355799       20.3412820249       20.4755336041
C    6.0       20.5251861366       18.3610500037       21.3846084075
H    1.0       19.8674769717       17.4808728496       21.3858719605
H    1.0       21.4937345923       18.0205076898       20.9929867519
C    6.0       20.7323500861       18.8571900082       22.8370332731
H    1.0       21.3919956624       19.7360257934       22.8341690490
H    1.0       21.2652709284       18.0726681507       23.3900432186
C    6.0       19.4090116907       19.1992830831       23.5692351755
H    1.0       18.8911595688       20.0002000636       23.0273742447
H    1.0       18.7411377289       18.3277563239       23.5567172432
C    6.0       19.6293343230       19.6629545035       25.0258912643
H    1.0       20.3251315965       20.5076243042       25.0152562001
C    6.0       18.3034030565       20.1383751649       25.6414617720
H    1.0       17.8751543781       20.9623573012       25.0571801573
H    1.0       18.4586387467       20.5023360703       26.6646016243
H    1.0       17.5674499993       19.3252858558       25.6757905320
N    7.0       20.2545956909       18.5968553157       25.8839204056
H    1.0       19.6598224181       17.7659404397       25.9397231317
H    1.0       21.1621096006       18.3024062436       25.5137773458
H    1.0       20.4078982649       18.9286733945       26.8403689409
 $end
