$$$$
! Edit this basic GAMESS input file as needed.
! Conformer was generated by a VeraChem VCPack run 
! and contains     29 atoms.
!
 $contrl scftyp=rhf runtyp=optimize nzvar=0
  maxit=200 icharg=0 $end
 $system mwords=50 $end
 $basis gbasis=pm3 $end
 $statpt nstep=200 $end
 $guess guess=huckel $end
 $data
VM2 Rank=1      G=58.148            E=20.963            -TS=37.185              
C1
C    6.0       19.9950348014       18.9913074408       18.8122138144
H    1.0       20.8994760984       19.6135524433       18.8049592789
H    1.0       20.3037190701       17.9386983881       18.7676736506
H    1.0       19.4251217636       19.2143162939       17.9008848009
C    6.0       19.1426156716       19.2665440777       20.0689832386
H    1.0       18.2298406710       18.6555376982       20.0314085693
H    1.0       18.8210283633       20.3174869730       20.0684213203
C    6.0       19.9220455620       18.9603732663       21.3669421223
H    1.0       20.2433256937       17.9095807848       21.3619713771
H    1.0       20.8345823545       19.5716499676       21.3989844439
C    6.0       19.0716618737       19.2348091645       22.6277217196
H    1.0       18.1591703573       18.6234821560       22.5947635423
H    1.0       18.7505863736       20.2856856135       22.6318541976
C    6.0       19.8517601431       18.9282700437       23.9259862515
H    1.0       20.1728735596       17.8773798629       23.9214118104
H    1.0       20.7643323700       19.5395480510       23.9584896944
C    6.0       19.0012500108       19.2027903371       25.1867066246
H    1.0       18.0884711610       18.5915818554       25.1546644648
H    1.0       18.6800367155       20.2537728431       25.1918082721
C    6.0       19.7802475931       18.8965388345       26.4846776102
H    1.0       20.0985760142       17.8454534156       26.4858164336
H    1.0       20.6907733946       19.5093912411       26.5230090024
C    6.0       18.9244761780       19.1731996653       27.7331864376
H    1.0       18.0244637323       18.5528867990       27.7076359839
H    1.0       18.6189524840       20.2229505415       27.7450454548
N    7.0       19.6549081663       18.8841671700       29.0285821811
H    1.0       19.9463973728       17.9030587515       29.0919845547
H    1.0       19.0674429530       19.0749440556       29.8478823136
H    1.0       20.4996366619       19.4571820143       29.1267928691
 $end
