$$$$
! Edit this basic GAMESS input file as needed.
! Conformer was generated by a VeraChem VCPack run 
! and contains     22 atoms.
!
 $contrl scftyp=rhf runtyp=optimize nzvar=0
  maxit=200 icharg=0 $end
 $system mwords=50 $end
 $basis gbasis=pm3 $end
 $statpt nstep=200 $end
 $guess guess=huckel $end
 $data
VM2 Rank=1      G=47.363            E=20.694            -TS=26.669              
C1
C    6.0       19.8825186768       19.0489895495       20.9026203628
H    1.0       20.8932054472       19.1565925313       20.4858299286
H    1.0       19.2823605353       18.5759991879       20.1133895305
C    6.0       19.2916935247       20.4492726683       21.1835772567
H    1.0       19.3610548026       21.0411906054       20.2607451366
H    1.0       18.2185379681       20.3558803627       21.3989389625
C    6.0       19.9805990911       21.2344374622       22.3249372799
H    1.0       19.6223829418       22.2719656861       22.2799408905
H    1.0       21.0669568195       21.2803169914       22.1687940666
C    6.0       19.6466397496       20.6732369295       23.7282572613
H    1.0       19.7184973868       21.4904424646       24.4577413092
H    1.0       18.5973605083       20.3506322939       23.7486635058
C    6.0       20.5644088815       19.5313035340       24.2234465680
H    1.0       21.4771098112       19.9849527033       24.6358413584
C    6.0       21.0067827746       18.5018446282       23.1577922625
H    1.0       21.8883528321       18.8894527293       22.6311599888
H    1.0       21.3563943330       17.5991042412       23.6766424788
C    6.0       19.9264516972       18.1000561588       22.1234830421
H    1.0       20.1659948717       17.0930954064       21.7555067424
H    1.0       18.9370936759       18.0248567785       22.5939672424
O    8.0       19.8869056044       18.8388590695       25.2628859669
H    1.0       19.1422650391       18.3714160367       24.8326920161
 $end
$$$$
! Edit this basic GAMESS input file as needed.
! Conformer was generated by a VeraChem VCPack run 
! and contains     22 atoms.
!
 $contrl scftyp=rhf runtyp=optimize nzvar=0
  maxit=200 icharg=0 $end
 $system mwords=50 $end
 $basis gbasis=pm3 $end
 $statpt nstep=200 $end
 $guess guess=huckel $end
 $data
VM2 Rank=2      G=47.387            E=20.718            -TS=26.669              
C1
C    6.0       19.6680483954       19.0240118417       20.9215637947
H    1.0       19.9307301517       18.8837853560       19.8641463342
H    1.0       18.7047420075       18.5145800010       21.0604435654
C    6.0       19.4894009764       20.5379413637       21.1763147511
H    1.0       20.3872267677       21.0730475615       20.8381555226
H    1.0       18.6693291827       20.8979440835       20.5401735803
C    6.0       19.1809926367       20.9231099506       22.6424108326
H    1.0       18.3220536937       20.3539621105       23.0220604376
H    1.0       18.8759758481       21.9783821568       22.6535149997
C    6.0       20.4080402066       20.7691424610       23.5746090225
H    1.0       21.3173880972       21.0516739946       23.0287060428
H    1.0       20.3270087055       21.4969337607       24.3932233745
C    6.0       20.6080390755       19.3660693783       24.1930663384
H    1.0       21.6587994243       19.2969501932       24.5093175544
C    6.0       20.3091709658       18.1641394903       23.2670148462
H    1.0       20.8272128603       17.2916048756       23.6858862773
H    1.0       19.2398926623       17.9172727959       23.3013483086
C    6.0       20.7460449142       18.3355623943       21.7920446930
H    1.0       21.7033602959       18.8701761655       21.7257355969
H    1.0       20.9256249081       17.3362355912       21.3726314699
O    8.0       19.7762628294       19.2580231201       25.3399757214
H    1.0       18.8641520164       19.4246934730       25.0263971151
 $end
$$$$
! Edit this basic GAMESS input file as needed.
! Conformer was generated by a VeraChem VCPack run 
! and contains     22 atoms.
!
 $contrl scftyp=rhf runtyp=optimize nzvar=0
  maxit=200 icharg=0 $end
 $system mwords=50 $end
 $basis gbasis=pm3 $end
 $statpt nstep=200 $end
 $guess guess=huckel $end
 $data
VM2 Rank=3      G=47.470            E=20.456            -TS=27.013              
C1
C    6.0       19.9765738666       19.1865969037       21.0729410894
H    1.0       20.9200072290       19.6951174769       20.8324742906
H    1.0       19.5990684599       18.7849614793       20.1226163507
C    6.0       18.9304510185       20.1892628488       21.6112461425
H    1.0       18.4880330080       20.7247974578       20.7599419590
H    1.0       18.0964160510       19.6368626987       22.0635479752
C    6.0       19.4660280821       21.2481733671       22.6080115032
H    1.0       18.6328138835       21.5820512849       23.2417257965
H    1.0       19.7732589886       22.1365022533       22.0393212306
C    6.0       20.6595908096       20.8354401363       23.5114846280
H    1.0       21.5881271683       20.8958417176       22.9291382820
H    1.0       20.7649577346       21.5917551664       24.3000829129
C    6.0       20.5856347463       19.4459718656       24.1851926596
H    1.0       21.2554826693       19.4691203291       25.0567711011
C    6.0       21.0851475601       18.3068686892       23.2680240586
H    1.0       22.1060254474       18.5417919016       22.9398786477
H    1.0       21.1716534396       17.3942646424       23.8721048538
C    6.0       20.2185025839       17.9903778424       22.0240191015
H    1.0       20.7217246860       17.1953663749       21.4570652960
H    1.0       19.2563914808       17.5642342940       22.3390150170
O    8.0       19.2640713328       19.1753083468       24.6260808171
H    1.0       18.7216045793       19.2541069145       23.8162641804
 $end
$$$$
! Edit this basic GAMESS input file as needed.
! Conformer was generated by a VeraChem VCPack run 
! and contains     22 atoms.
!
 $contrl scftyp=rhf runtyp=optimize nzvar=0
  maxit=200 icharg=0 $end
 $system mwords=50 $end
 $basis gbasis=pm3 $end
 $statpt nstep=200 $end
 $guess guess=huckel $end
 $data
VM2 Rank=4      G=47.498            E=20.485            -TS=27.013              
C1
C    6.0       19.2811231272       18.8974018843       21.3797357199
H    1.0       19.0867495187       18.5182468431       20.3669624317
H    1.0       18.3217071332       18.8068477871       21.9057186912
C    6.0       19.6718902394       20.3897128566       21.2807484123
H    1.0       20.7220157952       20.5011169381       20.9785720076
H    1.0       19.0762243203       20.8402634757       20.4750644992
C    6.0       19.3812874542       21.1820831483       22.5775603965
H    1.0       18.3601440161       20.9706115513       22.9225619984
H    1.0       19.3953792401       22.2538869020       22.3372477320
C    6.0       20.3858551692       20.9417341618       23.7316253037
H    1.0       21.3654322605       21.3420335980       23.4396467429
H    1.0       20.0691614551       21.5379910267       24.5973201692
C    6.0       20.5672180193       19.4786238360       24.1949631731
H    1.0       21.2303410310       19.5027561105       25.0716430822
C    6.0       21.2479108982       18.5908956636       23.1279252292
H    1.0       22.0434442350       19.1707643369       22.6422971088
H    1.0       21.7638984069       17.7713158003       23.6446917368
C    6.0       20.3342858893       17.9696245112       22.0368175461
H    1.0       20.9859801758       17.5702413005       21.2476939447
H    1.0       19.8154129776       17.0962734048       22.4555577013
O    8.0       19.3164292032       18.9279239382       24.5776242192
H    1.0       18.8183244521       18.8615836926       23.7387116281
 $end
$$$$
! Edit this basic GAMESS input file as needed.
! Conformer was generated by a VeraChem VCPack run 
! and contains     22 atoms.
!
 $contrl scftyp=rhf runtyp=optimize nzvar=0
  maxit=200 icharg=0 $end
 $system mwords=50 $end
 $basis gbasis=pm3 $end
 $statpt nstep=200 $end
 $guess guess=huckel $end
 $data
VM2 Rank=5      G=47.628            E=20.970            -TS=26.657              
C1
C    6.0       19.8709681662       19.1040710512       20.8414786793
H    1.0       20.3616338478       18.9261511361       19.8748164839
H    1.0       18.8000935782       18.9296097756       20.6692538531
C    6.0       20.0921679515       20.5825328456       21.2421336886
H    1.0       21.1479633390       20.7714684718       21.4792155517
H    1.0       19.8618204398       21.2034883521       20.3656256644
C    6.0       19.1751479347       21.0346690221       22.4024673356
H    1.0       18.1926464393       20.5540385278       22.3001983153
H    1.0       18.9860327024       22.1127261702       22.3080803482
C    6.0       19.7368379203       20.7695798861       23.8215216165
H    1.0       20.4182455629       21.5886149731       24.0858665513
H    1.0       18.9026817870       20.8273696382       24.5337808083
C    6.0       20.4966309827       19.4386825380       24.0270820990
H    1.0       21.5263083945       19.5657272448       23.6631459613
C    6.0       19.8777171675       18.2249501155       23.2989261937
H    1.0       20.1403253952       17.3143526313       23.8538758897
H    1.0       18.7819454185       18.2857803546       23.3108864521
C    6.0       20.4028626325       18.0614336072       21.8514675132
H    1.0       21.5011829666       18.0856365494       21.8567979352
H    1.0       20.1270140654       17.0616395186       21.4894506931
O    8.0       20.5336672447       19.1620809344       25.4219228741
H    1.0       20.9741874892       19.9261536938       25.8496122170
 $end
$$$$
! Edit this basic GAMESS input file as needed.
! Conformer was generated by a VeraChem VCPack run 
! and contains     22 atoms.
!
 $contrl scftyp=rhf runtyp=optimize nzvar=0
  maxit=200 icharg=0 $end
 $system mwords=50 $end
 $basis gbasis=pm3 $end
 $statpt nstep=200 $end
 $guess guess=huckel $end
 $data
VM2 Rank=6      G=47.662            E=20.999            -TS=26.663              
C1
C    6.0       19.8722180324       19.1044649646       20.8421605834
H    1.0       18.8013199884       18.9312567181       20.6687927230
H    1.0       20.3635443276       18.9262961246       19.8758746677
C    6.0       20.0945067497       20.5828112741       21.2430799881
H    1.0       21.1500973918       20.7706111014       21.4819699561
H    1.0       19.8665018948       21.2038988451       20.3660571195
C    6.0       19.1760854560       21.0367986116       22.4017171344
H    1.0       18.1921021801       20.5600297237       22.2959900561
H    1.0       18.9914106144       22.1157274220       22.3088036933
C    6.0       19.7326536588       20.7670454932       23.8221059916
H    1.0       20.4124584473       21.5843923926       24.0953441964
H    1.0       18.8977761735       20.8197047723       24.5336653783
C    6.0       20.4953740183       19.4381412201       24.0259829701
H    1.0       21.5233411311       19.5706455859       23.6591467951
C    6.0       19.8750309859       18.2240782394       23.2987609597
H    1.0       20.1301758297       17.3096342324       23.8502857501
H    1.0       18.7793071603       18.2898293620       23.3066443822
C    6.0       20.4020084190       18.0606140627       21.8521257790
H    1.0       21.5003725658       18.0834298082       21.8580772389
H    1.0       20.1251286732       17.0615013300       21.4888938913
O    8.0       20.5381226798       19.1640461343       25.4210665939
H    1.0       21.0890521171       18.3613789394       25.5342973935
 $end
$$$$
! Edit this basic GAMESS input file as needed.
! Conformer was generated by a VeraChem VCPack run 
! and contains     22 atoms.
!
 $contrl scftyp=rhf runtyp=optimize nzvar=0
  maxit=200 icharg=0 $end
 $system mwords=50 $end
 $basis gbasis=pm3 $end
 $statpt nstep=200 $end
 $guess guess=huckel $end
 $data
VM2 Rank=7      G=47.680            E=21.017            -TS=26.663              
C1
C    6.0       20.3584074189       19.2285590165       20.9955058847
H    1.0       21.4157573771       19.4313099056       21.2134753983
H    1.0       20.3227473723       18.8935461107       19.9498484489
C    6.0       19.5132545359       20.5207134495       21.1036997254
H    1.0       19.7944792234       21.1926410886       20.2813367528
H    1.0       18.4542023439       20.2777802399       20.9416191218
C    6.0       19.6622129897       21.2966223495       22.4326496326
H    1.0       18.9673723623       22.1472728000       22.4122244618
H    1.0       20.6687243303       21.7332909183       22.4893540751
C    6.0       19.3881452772       20.4652295954       23.7096979779
H    1.0       19.2974260471       21.1667849141       24.5493852347
H    1.0       18.4216132039       19.9500271063       23.6363583110
C    6.0       20.5171620514       19.4564697408       24.0184894462
H    1.0       21.4693838827       19.8926663566       23.6840498012
C    6.0       20.3500346596       18.0781143241       23.3391501137
H    1.0       21.3275032713       17.5790521993       23.3576310881
H    1.0       19.6815375665       17.4526664892       23.9458101857
C    6.0       19.8208527722       18.0817385098       21.8831308595
H    1.0       18.7227531885       18.1103608647       21.8913582976
H    1.0       20.0863529224       17.1201135761       21.4231179663
O    8.0       20.5759302952       19.2505530144       25.4246763600
H    1.0       20.7578576600       20.1239471466       25.8305109827
 $end
$$$$
! Edit this basic GAMESS input file as needed.
! Conformer was generated by a VeraChem VCPack run 
! and contains     22 atoms.
!
 $contrl scftyp=rhf runtyp=optimize nzvar=0
  maxit=200 icharg=0 $end
 $system mwords=50 $end
 $basis gbasis=pm3 $end
 $statpt nstep=200 $end
 $guess guess=huckel $end
 $data
VM2 Rank=8      G=47.689            E=21.017            -TS=26.672              
C1
C    6.0       19.5785339939       19.1193508288       21.0158367913
H    1.0       19.6449610957       18.8662737763       19.9488723415
H    1.0       18.5133611836       19.0574739620       21.2771240350
C    6.0       20.1080318642       20.5609456617       21.1996507348
H    1.0       21.2049795816       20.5431872760       21.2556445060
H    1.0       19.8702007259       21.1443298465       20.2995941615
C    6.0       19.5371515721       21.3181665352       22.4230601689
H    1.0       18.5666258755       21.7554422047       22.1513821979
H    1.0       20.1978434170       22.1691361732       22.6382653878
C    6.0       19.3461211298       20.4871265138       23.7156772037
H    1.0       19.2545822697       21.1878070473       24.5560783126
H    1.0       18.3849510157       19.9590965651       23.6675324700
C    6.0       20.4699827099       19.4666681572       24.0056819651
H    1.0       21.4327749210       19.8683630970       23.6585022899
C    6.0       20.2107549766       18.0983565224       23.3357228403
H    1.0       20.8900905031       17.3575314994       23.7777544640
H    1.0       19.1958027100       17.7607415000       23.5825176078
C    6.0       20.4017440492       18.0695414970       21.8003464744
H    1.0       20.1279690059       17.0687538991       21.4395160461
H    1.0       21.4676671770       18.1914964701       21.5641456708
O    8.0       20.5336797043       19.2578442839       25.4110238215
H    1.0       20.7547117261       20.1231731828       25.8147368801
 $end
$$$$
! Edit this basic GAMESS input file as needed.
! Conformer was generated by a VeraChem VCPack run 
! and contains     22 atoms.
!
 $contrl scftyp=rhf runtyp=optimize nzvar=0
  maxit=200 icharg=0 $end
 $system mwords=50 $end
 $basis gbasis=pm3 $end
 $statpt nstep=200 $end
 $guess guess=huckel $end
 $data
VM2 Rank=9      G=47.701            E=21.028            -TS=26.672              
C1
C    6.0       20.3925577674       19.2598564448       20.9702819054
H    1.0       21.3939158788       19.6893980997       21.1099992206
H    1.0       20.3463503198       18.9624506562       19.9136763548
C    6.0       19.3246698387       20.3479965188       21.2308865186
H    1.0       19.2149068317       20.9430728713       20.3139840107
H    1.0       18.3418175760       19.8946696438       21.4184764707
C    6.0       19.7147550815       21.3145013332       22.3749700484
H    1.0       19.0439816992       22.1838563295       22.3431653290
H    1.0       20.7237630341       21.7082751587       22.1913910431
C    6.0       19.6524664252       20.7081802047       23.7973547031
H    1.0       20.0105010392       21.4658336478       24.5069208944
H    1.0       18.6054608534       20.5159692335       24.0654083490
C    6.0       20.4758282880       19.4159468021       23.9986665106
H    1.0       21.4938217078       19.5657284292       23.6112180770
C    6.0       19.8314196074       18.1929518176       23.3076293176
H    1.0       20.0804323618       17.2787613342       23.8624763428
H    1.0       18.7388339191       18.2825050185       23.3643588895
C    6.0       20.2502029400       17.9817722935       21.8318229081
H    1.0       21.2064725720       17.4416196159       21.8042492891
H    1.0       19.5165318765       17.3134016614       21.3607084406
O    8.0       20.5441000518       19.1567945853       25.3953880882
H    1.0       21.1158071854       18.3687133461       25.5081328040
 $end
$$$$
! Edit this basic GAMESS input file as needed.
! Conformer was generated by a VeraChem VCPack run 
! and contains     22 atoms.
!
 $contrl scftyp=rhf runtyp=optimize nzvar=0
  maxit=200 icharg=0 $end
 $system mwords=50 $end
 $basis gbasis=pm3 $end
 $statpt nstep=200 $end
 $guess guess=huckel $end
 $data
VM2 Rank=10     G=47.735            E=21.108            -TS=26.627              
C1
C    6.0       20.3549102048       19.2282002695       20.9937171234
H    1.0       21.4129909732       19.4311973679       21.2080502696
H    1.0       20.3156280859       18.8921720181       19.9485110906
C    6.0       19.5105241284       20.5204434338       21.1037235335
H    1.0       19.7898893575       21.1920870459       20.2804952752
H    1.0       18.4508480432       20.2781586984       20.9447930689
C    6.0       19.6644925045       21.2959982183       22.4321081889
H    1.0       18.9728590569       22.1492637295       22.4127973102
H    1.0       20.6727395631       21.7288698927       22.4874554024
C    6.0       19.3896641980       20.4661332396       23.7099567119
H    1.0       19.3075506026       21.1694409629       24.5496206775
H    1.0       18.4202834615       19.9562111158       23.6381892100
C    6.0       20.5169582131       19.4562294887       24.0204770502
H    1.0       21.4700713727       19.8969251528       23.6951682354
C    6.0       20.3596630998       18.0783195424       23.3365860981
H    1.0       21.3437386727       17.5917063537       23.3439507035
H    1.0       19.7038213449       17.4378127636       23.9409396908
C    6.0       19.8204993197       18.0826587036       21.8845371172
H    1.0       20.0821057845       17.1207820277       21.4227445095
H    1.0       18.7224855652       18.1126156843       21.8991345547
O    8.0       20.5692883318       19.2500171041       25.4258941768
H    1.0       19.6964487914       18.8890326849       25.6849251874
 $end
$$$$
! Edit this basic GAMESS input file as needed.
! Conformer was generated by a VeraChem VCPack run 
! and contains     22 atoms.
!
 $contrl scftyp=rhf runtyp=optimize nzvar=0
  maxit=200 icharg=0 $end
 $system mwords=50 $end
 $basis gbasis=pm3 $end
 $statpt nstep=200 $end
 $guess guess=huckel $end
 $data
VM2 Rank=11     G=47.745            E=21.097            -TS=26.648              
C1
C    6.0       19.5781520390       19.1191411535       21.0159797394
H    1.0       19.6436525848       18.8658830497       19.9489976980
H    1.0       18.5133247708       19.0563943737       21.2785160592
C    6.0       20.1064935962       20.5611299866       21.1988562994
H    1.0       21.2035054775       20.5445403864       21.2538182002
H    1.0       19.8670963833       21.1441893276       20.2990101526
C    6.0       19.5362023477       21.3177819283       22.4227776732
H    1.0       18.5648375906       21.7540588287       22.1526437667
H    1.0       20.1963866466       22.1693215342       22.6372354417
C    6.0       19.3483563791       20.4872683622       23.7163870465
H    1.0       19.2664502281       21.1871021261       24.5588287004
H    1.0       18.3854858957       19.9621775071       23.6747475268
C    6.0       20.4709534664       19.4659526350       24.0061157414
H    1.0       21.4330410304       19.8713249592       23.6612689274
C    6.0       20.2115661818       18.0976053344       23.3350239058
H    1.0       20.8878924118       17.3517168549       23.7726429592
H    1.0       19.1949520089       17.7621565923       23.5788039971
C    6.0       20.4032777623       18.0705391648       21.7998651424
H    1.0       21.4689779413       18.1943299474       21.5635237872
H    1.0       20.1310433958       17.0696567905       21.4380332394
O    8.0       20.5309982275       19.2585814351       25.4119944518
H    1.0       21.2791618966       18.6470883335       25.5758595947
 $end
$$$$
! Edit this basic GAMESS input file as needed.
! Conformer was generated by a VeraChem VCPack run 
! and contains     22 atoms.
!
 $contrl scftyp=rhf runtyp=optimize nzvar=0
  maxit=200 icharg=0 $end
 $system mwords=50 $end
 $basis gbasis=pm3 $end
 $statpt nstep=200 $end
 $guess guess=huckel $end
 $data
VM2 Rank=12     G=47.766            E=21.133            -TS=26.633              
C1
C    6.0       19.5786766211       19.1187657381       21.0162932704
H    1.0       18.5136536900       19.0559079760       21.2779366016
H    1.0       19.6449726995       18.8655308995       19.9493505021
C    6.0       20.1069625936       20.5608009132       21.1993828252
H    1.0       21.2039862142       20.5440140649       21.2544336172
H    1.0       19.8679003149       21.1437770487       20.2993899896
C    6.0       19.5370843015       21.3181957786       22.4231132958
H    1.0       18.5667052666       21.7562246022       22.1521703264
H    1.0       20.1985875250       22.1687152792       22.6377047334
C    6.0       19.3470991448       20.4884847296       23.7168016325
H    1.0       19.2663232436       21.1908648075       24.5574016801
H    1.0       18.3826963033       19.9661985334       23.6716675498
C    6.0       20.4688657877       19.4657892214       24.0054684739
H    1.0       21.4319975114       19.8686886809       23.6612039982
C    6.0       20.2098917760       18.0972961982       23.3352903246
H    1.0       20.8895921255       17.3556918542       23.7759265248
H    1.0       19.1939105968       17.7580756147       23.5756996967
C    6.0       20.4037009080       18.0703116352       21.8005536269
H    1.0       20.1329943341       17.0692372537       21.4381225430
H    1.0       21.4696859315       18.1951936462       21.5660187091
O    8.0       20.5337188673       19.2583557857       25.4100965507
H    1.0       19.6614099814       18.9025363705       25.6777321373
 $end
$$$$
! Edit this basic GAMESS input file as needed.
! Conformer was generated by a VeraChem VCPack run 
! and contains     22 atoms.
!
 $contrl scftyp=rhf runtyp=optimize nzvar=0
  maxit=200 icharg=0 $end
 $system mwords=50 $end
 $basis gbasis=pm3 $end
 $statpt nstep=200 $end
 $guess guess=huckel $end
 $data
VM2 Rank=13     G=47.783            E=21.066            -TS=26.717              
C1
C    6.0       19.6919748433       18.9840811115       20.9455937311
H    1.0       20.4032983701       18.7525830195       20.1409950156
H    1.0       18.6996089779       18.7372636126       20.5440432954
C    6.0       19.7582797594       20.5048478352       21.2211327670
H    1.0       20.7978347052       20.8484715765       21.1322606788
H    1.0       19.2106042908       21.0183316097       20.4190625773
C    6.0       19.1831075155       20.9502323301       22.5848618540
H    1.0       18.2923735489       20.3637607523       22.8459864003
H    1.0       18.8416718639       21.9895498194       22.4849862530
C    6.0       20.2378865612       20.9107286428       23.7197561585
H    1.0       21.1359020278       21.4522978226       23.3954228853
H    1.0       19.8513259171       21.4739800031       24.5795485644
C    6.0       20.6572440887       19.5089478810       24.2144597283
H    1.0       21.5166344532       19.6487871032       24.8858294969
C    6.0       21.0959464035       18.5203652636       23.1057125396
H    1.0       21.9251576169       18.9506968309       22.5294715915
H    1.0       21.5097020945       17.6351493936       23.6061857110
C    6.0       19.9705875777       18.0492059918       22.1467599014
H    1.0       20.2448407846       17.0641762899       21.7451787010
H    1.0       19.0401236440       17.8800342895       22.7024628627
O    8.0       19.5909732508       18.9495909440       24.9687233203
H    1.0       18.8387878084       18.8914786424       24.3469776370
 $end
$$$$
! Edit this basic GAMESS input file as needed.
! Conformer was generated by a VeraChem VCPack run 
! and contains     22 atoms.
!
 $contrl scftyp=rhf runtyp=optimize nzvar=0
  maxit=200 icharg=0 $end
 $system mwords=50 $end
 $basis gbasis=pm3 $end
 $statpt nstep=200 $end
 $guess guess=huckel $end
 $data
VM2 Rank=14     G=47.788            E=21.137            -TS=26.651              
C1
C    6.0       19.6690246537       19.0240063420       20.9199636788
H    1.0       19.9329651856       18.8845060402       19.8627898193
H    1.0       18.7062990215       18.5132475149       21.0580787881
C    6.0       19.4869298380       20.5375424544       21.1756498328
H    1.0       20.3822640767       21.0752375160       20.8351218514
H    1.0       18.6639488689       20.8953806089       20.5421074953
C    6.0       19.1817409331       20.9216005981       22.6430399922
H    1.0       18.3288185205       20.3468036928       23.0293725497
H    1.0       18.8713076097       21.9751298020       22.6566144941
C    6.0       20.4109507444       20.7702395375       23.5719865580
H    1.0       21.3190187757       21.0477552988       23.0213833450
H    1.0       20.3325021056       21.5039356460       24.3848916020
C    6.0       20.6078342552       19.3673269704       24.1941916659
H    1.0       21.6596023241       19.2970039448       24.5073263981
C    6.0       20.3076357575       18.1667165577       23.2671466169
H    1.0       20.8192506909       17.2913334724       23.6874887276
H    1.0       19.2361680075       17.9289004515       23.3033913279
C    6.0       20.7462362503       18.3360919502       21.7920677046
H    1.0       20.9255709213       17.3361528048       21.3741084573
H    1.0       21.7037933673       18.8701871305       21.7260178104
O    8.0       19.7756475677       19.2544755896       25.3429539508
H    1.0       19.9988623203       20.0072363467       25.9286568621
 $end
$$$$
! Edit this basic GAMESS input file as needed.
! Conformer was generated by a VeraChem VCPack run 
! and contains     22 atoms.
!
 $contrl scftyp=rhf runtyp=optimize nzvar=0
  maxit=200 icharg=0 $end
 $system mwords=50 $end
 $basis gbasis=pm3 $end
 $statpt nstep=200 $end
 $guess guess=huckel $end
 $data
VM2 Rank=15     G=47.821            E=21.169            -TS=26.652              
C1
C    6.0       19.8804434051       19.0486161610       20.9018072942
H    1.0       20.8900851007       19.1538288376       20.4819812140
H    1.0       19.2771613241       18.5752066122       20.1152603944
C    6.0       19.2925840819       20.4504639173       21.1821147157
H    1.0       19.3635737743       21.0424419074       20.2594749002
H    1.0       18.2191928608       20.3585810400       21.3970118891
C    6.0       19.9809094751       21.2341585079       22.3250071107
H    1.0       19.6221795480       22.2715417613       22.2816842382
H    1.0       21.0672738940       21.2806554010       22.1694858307
C    6.0       19.6462785315       20.6701369871       23.7274386754
H    1.0       19.7110094730       21.4859833435       24.4588327473
H    1.0       18.5996470174       20.3382855867       23.7461941953
C    6.0       20.5648071505       19.5296833979       24.2240835127
H    1.0       21.4775176015       19.9859293376       24.6339794983
C    6.0       21.0095373365       18.5031094293       23.1552358958
H    1.0       21.8873184228       18.8956745471       22.6259366435
H    1.0       21.3635224846       17.5986243064       23.6669775147
C    6.0       19.9265035224       18.1015265679       22.1244188918
H    1.0       20.1606997548       17.0926015811       21.7587691202
H    1.0       18.9402025316       18.0315592948       22.6034128650
O    8.0       19.8849364971       18.8403050315       25.2668939038
H    1.0       20.4919509775       18.1407705854       25.5858141355
 $end
$$$$
! Edit this basic GAMESS input file as needed.
! Conformer was generated by a VeraChem VCPack run 
! and contains     22 atoms.
!
 $contrl scftyp=rhf runtyp=optimize nzvar=0
  maxit=200 icharg=0 $end
 $system mwords=50 $end
 $basis gbasis=pm3 $end
 $statpt nstep=200 $end
 $guess guess=huckel $end
 $data
VM2 Rank=16     G=47.838            E=21.157            -TS=26.682              
C1
C    6.0       19.8864746002       19.0518452412       20.8995142982
H    1.0       20.8994393929       19.1572498459       20.4878389366
H    1.0       19.2890109515       18.5802898516       20.1074352656
C    6.0       19.2970646461       20.4532662097       21.1779708739
H    1.0       19.3746527801       21.0468876685       20.2569138800
H    1.0       18.2221870986       20.3614298517       21.3853245455
C    6.0       19.9782154490       21.2341469542       22.3268259433
H    1.0       19.6182741682       22.2711978708       22.2848627265
H    1.0       21.0652949107       21.2824476803       22.1765444681
C    6.0       19.6381327411       20.6647547452       23.7255426903
H    1.0       19.6927875433       21.4820040197       24.4563346391
H    1.0       18.5937776392       20.3249763511       23.7347663098