$$$$
! Edit this basic GAMESS input file as needed.
! Conformer was generated by a VeraChem VCPack run 
! and contains     20 atoms.
!
 $contrl scftyp=rhf runtyp=optimize nzvar=0
  maxit=200 icharg=0 $end
 $system mwords=50 $end
 $basis gbasis=pm3 $end
 $statpt nstep=200 $end
 $guess guess=huckel $end
 $data
VM2 Rank=1      G=53.936            E=31.434            -TS=22.502              
C1
C    6.0       19.8541917767       19.1508540665       18.8169413259
H    1.0       20.3378193632       18.6997962925       17.9407703285
H    1.0       18.7730568657       18.9823163447       18.7279553586
H    1.0       20.0352433315       20.2330228045       18.7807886320
C    6.0       20.4073222410       18.5375240947       20.1215877139
H    1.0       21.4948660140       18.6915150057       20.1650232817
H    1.0       20.2424651044       17.4507424392       20.1126889031
C    6.0       19.7440086406       19.1542863316       21.3727396477
H    1.0       19.9121652846       20.2394549996       21.3827137782
H    1.0       18.6579808879       18.9971157513       21.3302050243
C    6.0       20.3006849037       18.5374838355       22.6693679403
H    1.0       21.3792695955       18.7057931561       22.7224455125
H    1.0       20.1210263684       17.4594246745       22.6697283198
N    7.0       19.6776095390       19.1133470788       23.9258962433
H    1.0       18.6547125314       18.9807639587       23.9097578192
H    1.0       19.8198976192       20.1345374052       23.9587674341
C    6.0       20.2821828990       18.4505045930       25.1564671289
H    1.0       21.3589272695       18.6327568235       25.1710630928
H    1.0       19.8249710795       18.8742482506       26.0533544928
H    1.0       20.0897016711       17.3761397637       25.1177498205
 $end
$$$$
! Edit this basic GAMESS input file as needed.
! Conformer was generated by a VeraChem VCPack run 
! and contains     20 atoms.
!
 $contrl scftyp=rhf runtyp=optimize nzvar=0
  maxit=200 icharg=0 $end
 $system mwords=50 $end
 $basis gbasis=pm3 $end
 $statpt nstep=200 $end
 $guess guess=huckel $end
 $data
VM2 Rank=2      G=54.084            E=31.414            -TS=22.671              
C1
C    6.0       20.2445178772       19.5234238116       19.0575719569
H    1.0       21.0841521256       20.2046588433       19.2475741650
H    1.0       20.4067319523       19.0551924588       18.0780494321
H    1.0       19.3262971504       20.1219647466       18.9960133672
C    6.0       20.1366208895       18.4513731770       20.1636174556
H    1.0       21.0550316845       17.8475107256       20.1777075617
H    1.0       19.3110512242       17.7650778905       19.9275181802
C    6.0       19.9075613849       19.0820920096       21.5548093079
H    1.0       20.7340183529       19.7663472584       21.7861519676
H    1.0       18.9877693799       19.6816082044       21.5411872337
C    6.0       19.7995972115       18.0034790429       22.6524942737
H    1.0       20.7304825493       17.4333689372       22.7055031670
H    1.0       18.9941561535       17.3119913404       22.3921321121
N    7.0       19.5006012741       18.5422576797       24.0421288302
H    1.0       19.2827687192       17.7579947926       24.6767678907
H    1.0       18.6429723490       19.1149747843       24.0265386821
C    6.0       20.6771013629       19.3413742791       24.5923781757
H    1.0       20.4389262056       19.6780362768       25.6037653104
H    1.0       21.5642910176       18.7049472005       24.6160523269
H    1.0       20.8590274225       20.2067320160       23.9521078421
 $end
$$$$
! Edit this basic GAMESS input file as needed.
! Conformer was generated by a VeraChem VCPack run 
! and contains     20 atoms.
!
 $contrl scftyp=rhf runtyp=optimize nzvar=0
  maxit=200 icharg=0 $end
 $system mwords=50 $end
 $basis gbasis=pm3 $end
 $statpt nstep=200 $end
 $guess guess=huckel $end
 $data
VM2 Rank=3      G=54.174            E=31.503            -TS=22.670              
C1
C    6.0       19.4687053811       18.7547230421       19.0250469431
H    1.0       19.9765568852       18.6287895957       18.0600351972
H    1.0       18.7729191035       17.9149302259       19.1507371202
H    1.0       18.8811455285       19.6808220526       18.9772612441
C    6.0       20.4938898991       18.8052629919       20.1786108839
H    1.0       21.1965712320       19.6328696534       20.0065189963
H    1.0       21.0887645693       17.8808981068       20.1792360973
C    6.0       19.8068696512       18.9824606364       21.5505764990
H    1.0       19.2163304372       19.9081418865       21.5506699683
H    1.0       19.1064204240       18.1541466961       21.7179736502
C    6.0       20.8389815558       19.0333508873       22.6960561229
H    1.0       21.5475928911       19.8419228306       22.4991828500
H    1.0       21.3985105501       18.0953159384       22.7334707772
N    7.0       20.2444708445       19.2793041569       24.0733075378
H    1.0       19.6800651035       20.1425595473       24.0700117600
H    1.0       21.0030002901       19.4624548963       24.7488628729
C    6.0       19.4130826683       18.0888982854       24.5394020133
H    1.0       20.0405707248       17.1951418288       24.5522274144
H    1.0       19.0359400858       18.2879080609       25.5449520261
H    1.0       18.5740957425       17.9426332163       23.8563249739
 $end
$$$$
! Edit this basic GAMESS input file as needed.
! Conformer was generated by a VeraChem VCPack run 
! and contains     20 atoms.
!
 $contrl scftyp=rhf runtyp=optimize nzvar=0
  maxit=200 icharg=0 $end
 $system mwords=50 $end
 $basis gbasis=pm3 $end
 $statpt nstep=200 $end
 $guess guess=huckel $end
 $data
VM2 Rank=4      G=54.305            E=31.706            -TS=22.599              
C1
C    6.0       20.8668296313       19.3662796743       19.5193444921
H    1.0       20.5580109425       20.4197144106       19.5219559681
H    1.0       21.7364977489       19.2623160459       20.1803524534
H    1.0       21.1934346372       19.1160241233       18.5016554510
C    6.0       19.7055852792       18.4446552881       19.9579835332
H    1.0       20.0425537450       17.3984094827       19.9526842626
H    1.0       18.8956823945       18.5116619509       19.2179958114
C    6.0       19.1424238575       18.8037773474       21.3529943441
H    1.0       18.7744652854       19.8383909513       21.3461321516
H    1.0       18.2760762718       18.1629676345       21.5643250350
C    6.0       20.1838997652       18.6321470527       22.4759895316
H    1.0       21.0331655114       19.2953659232       22.2952786342
H    1.0       20.5480177414       17.6017479227       22.4843591674
N    7.0       19.6383966120       18.9445722865       23.8555860429
H    1.0       18.8278938729       18.3413439774       24.0636828980
H    1.0       19.2751301198       19.9095871727       23.8851984421
C    6.0       20.7288648549       18.7525683510       24.9011020562
H    1.0       21.5609152109       19.4249253805       24.6810380960
H    1.0       20.3227743509       18.9806140749       25.8890743510
H    1.0       21.0739417353       17.7166851724       24.8751792776
 $end
$$$$
! Edit this basic GAMESS input file as needed.
! Conformer was generated by a VeraChem VCPack run 
! and contains     20 atoms.
!
 $contrl scftyp=rhf runtyp=optimize nzvar=0
  maxit=200 icharg=0 $end
 $system mwords=50 $end
 $basis gbasis=pm3 $end
 $statpt nstep=200 $end
 $guess guess=huckel $end
 $data
VM2 Rank=5      G=54.310            E=31.711            -TS=22.599              
C1
C    6.0       19.6005859236       18.1122660354       19.4663422918
H    1.0       19.6688565184       17.2146589624       20.0938002096
H    1.0       18.5507463961       18.4318410447       19.4379135108
H    1.0       19.8907268190       17.8258792976       18.4471313098
C    6.0       20.5130630331       19.2443242224       19.9918110894
H    1.0       20.4845262222       20.0851352298       19.2845373002
H    1.0       21.5555840656       18.8968073143       20.0160557261
C    6.0       20.1003332464       19.7524121196       21.3931246446
H    1.0       20.7393682634       20.6022307672       21.6675324021
H    1.0       19.0702696486       20.1314072324       21.3585224246
C    6.0       20.2149937992       18.6630456672       22.4772737242
H    1.0       21.2407559647       18.2876873431       22.5132061435
H    1.0       19.5522465409       17.8293694470       22.2333132259
N    7.0       19.8497295531       19.1536789197       23.8644765249
H    1.0       18.8877483205       19.5260502438       23.8691228097
H    1.0       20.4511586259       19.9480140771       24.1317182706
C    6.0       19.9872944446       18.0182730356       24.8699717251
H    1.0       21.0200892024       17.6631247426       24.8727330920
H    1.0       19.7215604458       18.3850803126       25.8638741955
H    1.0       19.3171009241       17.2036862030       24.5869721740
 $end
$$$$
! Edit this basic GAMESS input file as needed.
! Conformer was generated by a VeraChem VCPack run 
! and contains     20 atoms.
!
 $contrl scftyp=rhf runtyp=optimize nzvar=0
  maxit=200 icharg=0 $end
 $system mwords=50 $end
 $basis gbasis=pm3 $end
 $statpt nstep=200 $end
 $guess guess=huckel $end
 $data
VM2 Rank=6      G=54.342            E=31.753            -TS=22.589              
C1
C    6.0       19.6844156098       18.8157447386       18.9888685230
H    1.0       20.5414904239       19.3302063017       18.5350822443
H    1.0       19.4590916891       17.9336419429       18.3755582620
H    1.0       18.8181115294       19.4883802029       18.9413173429
C    6.0       19.9895740350       18.4041814228       20.4454103594
H    1.0       20.8398350939       17.7075756471       20.4564379405
H    1.0       19.1273630084       17.8584466150       20.8519328745
C    6.0       20.3100772688       19.6309722880       21.3316648956
H    1.0       21.1482071618       20.1873851738       20.8914078668
H    1.0       19.4537515116       20.3182111475       21.3479435193
C    6.0       20.6878716778       19.2435821572       22.7755282678
H    1.0       20.9885122796       20.1404122544       23.3231875383
H    1.0       21.5356590816       18.5540322766       22.7609816350
N    7.0       19.5633209978       18.5876966291       23.5546892540
H    1.0       19.2484568705       17.7327035435       23.0727119694
H    1.0       18.7396399110       19.2081313941       23.5803258302
C    6.0       20.0307404108       18.2618227643       24.9668387003
H    1.0       19.2125566275       17.7905981599       25.5159403967
H    1.0       20.8813506280       17.5787096309       24.9157653325
H    1.0       20.3277522159       19.1848145301       25.4694873851
 $end
$$$$
! Edit this basic GAMESS input file as needed.
! Conformer was generated by a VeraChem VCPack run 
! and contains     20 atoms.
!
 $contrl scftyp=rhf runtyp=optimize nzvar=0
  maxit=200 icharg=0 $end
 $system mwords=50 $end
 $basis gbasis=pm3 $end
 $statpt nstep=200 $end
 $guess guess=huckel $end
 $data
VM2 Rank=7      G=54.382            E=31.793            -TS=22.589              
C1
C    6.0       20.1834087552       19.3099771625       19.0097667632
H    1.0       21.0925732028       19.5514296460       18.4439518278
H    1.0       19.6810423747       18.4781309235       18.4990522443
H    1.0       19.5210339203       20.1845746986       18.9707774360
C    6.0       20.5303902614       18.9397935456       20.4680501312
H    1.0       21.0660194841       19.7784243433       20.9331252075
H    1.0       21.2184130810       18.0825122130       20.4722608093
C    6.0       19.2644884037       18.5954338145       21.2878634204
H    1.0       18.5847221162       19.4575317639       21.3115559428
H    1.0       18.7198316918       17.7823881962       20.7896778441
C    6.0       19.5871967014       18.1534555608       22.7294093810
H    1.0       20.2692724358       17.2997897214       22.7079068254
H    1.0       18.6654219855       17.8396339813       23.2258637521
N    7.0       20.2194323279       19.2374147977       23.5821683719
H    1.0       19.6057833651       20.0658483565       23.6165259808
H    1.0       21.0968156806       19.5630535271       23.1501814149
C    6.0       20.4810835504       18.7079251189       24.9857419323
H    1.0       19.5350449175       18.4000092224       25.4362796895
H    1.0       21.1581636076       17.8529639018       24.9274783084
H    1.0       20.9358951099       19.4973729868       25.5881603808
 $end
$$$$
! Edit this basic GAMESS input file as needed.
! Conformer was generated by a VeraChem VCPack run 
! and contains     20 atoms.
!
 $contrl scftyp=rhf runtyp=optimize nzvar=0
  maxit=200 icharg=0 $end
 $system mwords=50 $end
 $basis gbasis=pm3 $end
 $statpt nstep=200 $end
 $guess guess=huckel $end
 $data
VM2 Rank=8      G=54.497            E=31.685            -TS=22.812              
C1
C    6.0       19.9181188467       18.3278797885       19.2182400161
H    1.0       20.7102726303       17.9398994116       18.5648143005
H    1.0       19.1764133613       17.5305582087       19.3572107872
H    1.0       19.4300792515       19.1611316492       18.6960776630
C    6.0       20.5027725054       18.7853129846       20.5720847334
H    1.0       21.2633262103       19.5595046711       20.3978248260
H    1.0       21.0151000695       17.9371532399       21.0462179735
C    6.0       19.4052493886       19.3351390655       21.5132841756
H    1.0       18.8722758735       20.1528153268       21.0103005307
H    1.0       18.6570770357       18.5571698410       21.7126426803
C    6.0       19.9712778774       19.8728487636       22.8463790016
H    1.0       19.1568290146       20.2826505794       23.4490637560
H    1.0       20.6707675267       20.6850718035       22.6327534169
N    7.0       20.7073359447       18.8520899171       23.7013061512
H    1.0       21.1568499745       19.3296623571       24.4982301441
H    1.0       21.4853113766       18.4364325123       23.1683775215
C    6.0       19.7612454372       17.7707294807       24.2117059221
H    1.0       20.3178711743       17.0796991083       24.8485554122
H    1.0       18.9594630472       18.2374092129       24.7879111673
H    1.0       19.3401469950       17.2282160792       23.3629587650
 $end
$$$$
! Edit this basic GAMESS input file as needed.
! Conformer was generated by a VeraChem VCPack run 
! and contains     20 atoms.
!
 $contrl scftyp=rhf runtyp=optimize nzvar=0
  maxit=200 icharg=0 $end
 $system mwords=50 $end
 $basis gbasis=pm3 $end
 $statpt nstep=200 $end
 $guess guess=huckel $end
 $data
VM2 Rank=9      G=54.515            E=31.703            -TS=22.812              
C1
C    6.0       20.6593848439       19.0589741342       19.2490468627
H    1.0       19.8553286187       19.5806176362       18.7137648639
H    1.0       21.4597588712       19.7823569701       19.4522233348
H    1.0       21.0641832706       18.2890464522       18.5794564539
C    6.0       20.1376859337       18.4253088803       20.5568161496
H    1.0       20.9583300496       17.8811478338       21.0437339440
H    1.0       19.3616417321       17.6842463144       20.3185680133
C    6.0       19.5630817260       19.4907231554       21.5198589754
H    1.0       20.3416882125       20.2182922219       21.7828340417
H    1.0       18.7744075204       20.0562857193       21.0062659232
C    6.0       18.9622446596       18.8776984266       22.8043259043
H    1.0       18.1507115288       18.1998054812       22.5277327856
H    1.0       18.5380210534       19.6723140656       23.4232882426
N    7.0       19.9363366837       18.0916606134       23.6691437200
H    1.0       20.3640823565       17.3306128757       23.1215397017
H    1.0       19.4197289869       17.6163063170       24.4257012391
C    6.0       21.0072661532       18.9996347901       24.2638083880
H    1.0       20.5270246209       19.7833558019       24.8535608508
H    1.0       21.6635580468       18.4067959635       24.9047095774
H    1.0       21.5905173722       19.4478843243       23.4570218897
 $end
$$$$
! Edit this basic GAMESS input file as needed.
! Conformer was generated by a VeraChem VCPack run 
! and contains     20 atoms.
!
 $contrl scftyp=rhf runtyp=optimize nzvar=0
  maxit=200 icharg=0 $end
 $system mwords=50 $end
 $basis gbasis=pm3 $end
 $statpt nstep=200 $end
 $guess guess=huckel $end
 $data
VM2 Rank=10     G=54.568            E=31.806            -TS=22.762              
C1
C    6.0       20.9216739273       19.1845103844       19.5880447471
H    1.0       21.7492792873       18.4937832194       19.7955539389
H    1.0       20.9061546023       19.3728308471       18.5067169482
H    1.0       21.1378361803       20.1378222548       20.0865826269
C    6.0       19.5720533690       18.5920942743       20.0547155086
H    1.0       19.3535796413       17.6900765912       19.4659727795
H    1.0       18.7624957947       19.3040490582       19.8404633317
C    6.0       19.5607148177       18.2264368323       21.5573953861
H    1.0       18.6051641175       17.7434470056       21.8006250466
H    1.0       20.3468047870       17.4871562828       21.7579884379
C    6.0       19.7504056579       19.4583161128       22.4684128175
H    1.0       18.9838801396       20.1990698693       22.2269790038
H    1.0       20.7278927527       19.9103127492       22.2840889945
N    7.0       19.6452951858       19.1665439194       23.9564396759
H    1.0       18.7463231259       18.7074428297       24.1680842114
H    1.0       19.6183340144       20.0546910690       24.4814885176
C    6.0       20.8158570422       18.3160984768       24.4379918649
H    1.0       21.7513835043       18.8354941379       24.2195495534
H    1.0       20.7249018805       18.1595347193       25.5151073372
H    1.0       20.7989734124       17.3523110329       23.9254325183
 $end
$$$$
! Edit this basic GAMESS input file as needed.
! Conformer was generated by a VeraChem VCPack run 
! and contains     20 atoms.
!
 $contrl scftyp=rhf runtyp=optimize nzvar=0
  maxit=200 icharg=0 $end
 $system mwords=50 $end
 $basis gbasis=pm3 $end
 $statpt nstep=200 $end
 $guess guess=huckel $end
 $data
VM2 Rank=11     G=54.568            E=31.806            -TS=22.762              
C1
C    6.0       19.7743299218       18.0540549417       19.5403294983
H    1.0       19.6322991954       18.1174049777       18.4536889291
H    1.0       20.4439060474       17.2077125650       19.7414950069
H    1.0       18.7977727946       17.8325296290       19.9890316800
C    6.0       20.3653524605       19.3735981925       20.0877888610
H    1.0       19.6745246707       20.2024986899       19.8783883242
H    1.0       21.2944465626       19.6020734919       19.5468917499
C    6.0       20.6672443592       19.3167036909       21.6035388439
H    1.0       21.3863206696       18.5114168120       21.8014088619
H    1.0       21.1528233117       20.2535945561       21.9067960966
C    6.0       19.3954053937       19.1087061206       22.4536114639
H    1.0       18.9378820922       18.1470502710       22.2093840096
H    1.0       18.6763888322       19.8962854669       22.2142319657
N    7.0       19.6254762566       19.1469734449       23.9556101834
H    1.0       18.7163988466       19.1661034357       24.4438931457
H    1.0       20.0878735552       20.0289202334       24.2240816826
C    6.0       20.4381916082       17.9439636094       24.4221211495
H    1.0       20.5503011872       17.9873432119       25.5077143345
H    1.0       19.9153647937       17.0267412557       24.1427391780
H    1.0       21.4229483410       17.9669465924       23.9513610098
 $end
$$$$
! Edit this basic GAMESS input file as needed.
! Conformer was generated by a VeraChem VCPack run 
! and contains     20 atoms.
!
 $contrl scftyp=rhf runtyp=optimize nzvar=0
  maxit=200 icharg=0 $end
 $system mwords=50 $end
 $basis gbasis=pm3 $end
 $statpt nstep=200 $end
 $guess guess=huckel $end
 $data
VM2 Rank=12     G=54.588            E=31.822            -TS=22.766              
C1
C    6.0       19.9878430206       19.5063142615       19.3466706627
H    1.0       18.9086190617       19.7014655431       19.2988667894
H    1.0       20.4745340569       20.3793007192       19.7993998427
H    1.0       20.3578079733       19.4191262754       18.3168589275
C    6.0       20.2852065688       18.2133578506       20.1405199393
H    1.0       21.3708501187       18.0462333322       20.1808491760
H    1.0       19.8610543488       17.3557464993       19.5995990442
C    6.0       19.7080228332       18.2368104408       21.5753378017
H    1.0       18.6194276186       18.3731055307       21.5317533914
H    1.0       19.8836995277       17.2591021567       22.0419715678
C    6.0       20.3335849905       19.3451353352       22.4495766911
H    1.0       20.1581994340       20.3138431948       21.9756378930
H    1.0       21.4135393216       19.1947794456       22.5227747201
N    7.0       19.7751894126       19.4289640798       23.8609613456
H    1.0       18.7494280911       19.5328962526       23.8338452692
H    1.0       20.1159690386       20.2902881320       24.3161599117
C    6.0       20.1761531742       18.2134180322       24.6899335596
H    1.0       19.7901207574       18.3297972755       25.7050190793
H    1.0       19.7554079615       17.3122269305       24.2397686066
H    1.0       21.2654662949       18.1401811648       24.7169804838
 $end
$$$$
! Edit this basic GAMESS input file as needed.
! Conformer was generated by a VeraChem VCPack run 
! and contains     20 atoms.
!
 $contrl scftyp=rhf runtyp=optimize nzvar=0
  maxit=200 icharg=0 $end
 $system mwords=50 $end
 $basis gbasis=pm3 $end
 $statpt nstep=200 $end
 $guess guess=huckel $end
 $data
VM2 Rank=13     G=54.636            E=31.871            -TS=22.765              
C1
C    6.0       19.4757475039       18.9994066909       19.3252516737
H    1.0       19.6030663829       18.6721138129       18.2852251601
H    1.0       18.5800800321       18.5035292789       19.7199946413
H    1.0       19.2924636774       20.0817178486       19.3151487909
C    6.0       20.7312778492       18.6551007800       20.1591894274
H    1.0       21.6147582442       19.0923226955       19.6730865209
H    1.0       20.8867886750       17.5669854382       20.1604461394
C    6.0       20.6523820792       19.1718118146       21.6149264395
H    1.0       21.6079110471       18.9663151214       22.1141848561
H    1.0       20.5277210672       20.2626675013       21.6118206472
C    6.0       19.5026159633       18.5219685174       22.4147685729
H    1.0       19.6402872438       17.4383777121       22.4485901261
H    1.0       18.5564003610       18.7271717813       21.9084681881
N    7.0       19.3640276285       19.0217779955       23.8436898283
H    1.0       18.4813212272       18.6712678281       24.2476545763
H    1.0       19.2701966136       20.0488021878       23.8555123854
C    6.0       20.5399489759       18.5739342016       24.7051740582
H    1.0       20.3841140864       18.9184213996       25.7298726889
H    1.0       20.6025769182       17.4837404461       24.6893005120
H    1.0       21.4629520220       19.0037277118       24.3112644305
 $end
$$$$
! Edit this basic GAMESS input file as needed.
! Conformer was generated by a VeraChem VCPack run 
! and contains     20 atoms.
!
 $contrl scftyp=rhf runtyp=optimize nzvar=0
  maxit=200 icharg=0 $end
 $system mwords=50 $end
 $basis gbasis=pm3 $end
 $statpt nstep=200 $end
 $guess guess=huckel $end
 $data
VM2 Rank=14     G=54.999            E=32.227            -TS=22.773              
C1
C    6.0       20.9000032720       18.3852507290       19.8179549962
H    1.0       20.2844965616       17.6299284774       19.3122762015
H    1.0       21.6438616460       18.7477654533       19.0966798191
H    1.0       21.4436314801       17.8933350632       20.6343442719
C    6.0       20.0312059651       19.5548632878       20.3350304412
H    1.0       19.5821076889       20.0729175895       19.4759983196
H    1.0       20.6689646767       20.2962157354       20.8353004519
C    6.0       18.8990014823       19.0954796527       21.2874364496
H    1.0       18.3051337139       19.9664139622       21.5949091162
H    1.0       18.2126703178       18.4357354633       20.7402152371
C    6.0       19.3986462909       18.3528008165       22.5443167729
H    1.0       19.9517988474       17.4584769069       22.2477132440
H    1.0       18.5408193313       18.0371641377       23.1435220410
N    7.0       20.2999651440       19.1863626186       23.4350453897
H    1.0       19.8098363477       20.0429945403       23.7348040549
H    1.0       21.1203239117       19.5104613140       22.9016948865
C    6.0       20.7371778457       18.3692428955       24.6432159504
H    1.0       21.3858434004       18.9807118858       25.2743326682
H    1.0       19.8545836667       18.0638374268       25.2093609769
H    1.0       21.2814950456       17.4858792352       24.3024094391
 $end
$$$$
! Edit this basic GAMESS input file as needed.
! Conformer was generated by a VeraChem VCPack run 
! and contains     20 atoms.
!
 $contrl scftyp=rhf runtyp=optimize nzvar=0
  maxit=200 icharg=0 $end
 $system mwords=50 $end
 $basis gbasis=pm3 $end
 $statpt nstep=200 $end
 $guess guess=huckel $end
 $data
VM2 Rank=15     G=55.103            E=32.330            -TS=22.773              
C1
C    6.0       20.5632817920       18.0534960166       19.8039100352
H    1.0       21.3478160456       18.6775890927       19.3565999655
H    1.0       21.0126190494       17.4686627067       20.6163572175
H    1.0       20.2212303009       17.3461210720       19.0373581978
C    6.0       19.3850925726       18.9182639124       20.3081098393
H    1.0       18.6144692420       18.2719445359       20.7497222731
H    1.0       18.9100770024       19.4107943737       19.4480051301
C    6.0       19.8195698210       20.0025109511       21.3257714033
H    1.0       20.5112943803       20.7006122008       20.8359383917
H    1.0       18.9447736279       20.5966269163       21.6215802239
C    6.0       20.5015303192       19.4394192285       22.5902154898
H    1.0       20.8035381122       20.2665202494       23.2376986313
H    1.0       21.3997718850       18.8851101117       22.3079571710
N    7.0       19.6186497623       18.5150345304       23.4066913706
H    1.0       19.3059838239       17.7227161576       22.8262073358
H    1.0       18.7570218432       19.0056385961       23.6909520812
C    6.0       20.3778757329       18.0152753610       24.6283018618
H    1.0       21.2671594626       17.4717749284       24.3018952000
H    1.0       20.6713936176       18.8687064444       25.2433348036
H    1.0       19.7313330134       17.3506526019       25.2055599738
 $end
$$$$
! Edit this basic GAMESS input file as needed.
! Conformer was generated by a VeraChem VCPack run 
! and contains     20 atoms.
!
 $contrl scftyp=rhf runtyp=optimize nzvar=0
  maxit=200 icharg=0 $end
 $system mwords=50 $end
 $basis gbasis=pm3 $end
 $statpt nstep=200 $end
 $guess guess=huckel $end
 $data
VM2 Rank=16     G=55.225            E=32.217            -TS=23.008              
C1
C    6.0       19.2818732273       18.9365969602       19.6798863181
H    1.0       19.7311479404       19.7795961465       19.1389956726
H    1.0       18.8404916914       18.2598540419       18.9368072087
H    1.0       18.4645302483       19.3248771727       20.3003407421
C    6.0       20.3394880171       18.1942924048       20.5287508775
H    1.0       21.0873570571       17.7488935971       19.8577778888
H    1.0       19.8682175480       17.3541009100       21.0567135699
C    6.0       21.0637502091       19.1177252427       21.5396947423
H    1.0       21.8259878993       18.5405927815       22.0788259488
H    1.0       21.6083308858       19.8970484883       20.9904930822
C    6.0       20.1197775717       19.8007598423       22.5555282185
H    1.0       19.4245741385       20.4480495552       22.0153553933
H    1.0       20.7042687456       20.4296087158       23.2317947900
N    7.0       19.2900446465       18.8525735410       23.4074788883
H    1.0       18.7326240445       18.2314532718       22.8028344889
H    1.0       18.5966463073       19.3914251304       23.9495982822
C    6.0       20.1710663282       18.0420520090       24.3516609553
H    1.0       20.7347534493       18.7242976945       24.9915287741
H    1.0       19.5387913500       17.3982748772       24.9670360523
H    1.0       20.8595437060       17.4287378018       23.7669953829
 $end
$$$$
! Edit this basic GAMESS input file as needed.
! Conformer was generated by a VeraChem VCPack run 
! and contains     20 atoms.
!
 $contrl scftyp=rhf runtyp=optimize nzvar=0
  maxit=200 icharg=0 $end
 $system mwords=50 $end
 $basis gbasis=pm3 $end
 $statpt nstep=200 $end
 $guess guess=huckel $end
 $data
VM2 Rank=17     G=55.226            E=32.218            -TS=23.008              
C1
C    6.0       20.0371037880       19.6845188093       19.7115536830
H    1.0       19.2136425742       19.2673505680       19.1174669941
H    1.0       19.6303861690       20.4793246878       20.3492386013
H    1.0       20.7484997645       20.1492927044       19.0166675833
C    6.0       20.7334426119       18.5844042701       20.5452190744
H    1.0       21.5547701615       19.0241373332       21.1273001634
H    1.0       21.2000748044       17.8605685755       19.8624236267
C    6.0       19.7617242744       17.8283581165       21.4851392936
H    1.0       19.0014854637       17.3155780057       20.8812942566
H    1.0       20.3087632938       17.0381169180       22.0152514666
C    6.0       19.0448085938       18.7362288193       22.5104850931
H    1.0       18.3827688705       18.1307003076       23.1345494461
H    1.0       18.4271393624       19.4602971123       21.9735595152
N    7.0       19.9635085995       19.5194192553       23.4356496216
H    1.0       19.4084478274       20.1953181916       23.9834845865
H    1.0       20.6146313039       20.0949031798       22.8816084937