$$$$
! Edit this basic GAMESS input file as needed.
! Conformer was generated by a VeraChem VCPack run 
! and contains     20 atoms.
!
 $contrl scftyp=rhf runtyp=optimize nzvar=0
  maxit=200 icharg=0 $end
 $system mwords=50 $end
 $basis gbasis=pm3 $end
 $statpt nstep=200 $end
 $guess guess=huckel $end
 $data
VM2 Rank=1      G=2.706             E=-20.181           -TS=22.887              
C1
N    7.0       20.3911859260       20.1731403674       24.1279424365
H    1.0       20.0069863684       20.9379731559       23.5675801162
H    1.0       21.3895336388       20.1069569463       23.9147132502
H    1.0       20.3064930575       20.4446406182       25.1111871860
C    6.0       19.6810920796       18.8752292298       23.8517929527
H    1.0       18.6271242180       19.0338560672       24.1005419791
C    6.0       20.2261358074       17.7582354187       24.7569018873
H    1.0       19.6672798107       16.8262706608       24.6060365786
H    1.0       20.1318989240       18.0343127849       25.8143356589
H    1.0       21.2848094853       17.5590627887       24.5487339119
C    6.0       19.7688314092       18.4547068588       22.3680118207
H    1.0       20.8203969252       18.3117650162       22.0857137925
H    1.0       19.2771457676       17.4802696949       22.2464128772
C    6.0       19.1035956590       19.4719564517       21.4097939791
H    1.0       19.6147216689       20.4422034880       21.4714246045
H    1.0       18.0612758082       19.6412457183       21.7150021037
C    6.0       19.1341591189       18.9807316735       19.9465569237
H    1.0       18.5959165728       18.0302017382       19.8369306897
H    1.0       20.1656168785       18.8311319014       19.6016343897
H    1.0       18.6600054766       19.7140861174       19.2813849962
 $end
$$$$
! Edit this basic GAMESS input file as needed.
! Conformer was generated by a VeraChem VCPack run 
! and contains     20 atoms.
!
 $contrl scftyp=rhf runtyp=optimize nzvar=0
  maxit=200 icharg=0 $end
 $system mwords=50 $end
 $basis gbasis=pm3 $end
 $statpt nstep=200 $end
 $guess guess=huckel $end
 $data
VM2 Rank=2      G=3.182             E=-19.721           -TS=22.903              
C1
N    7.0       20.6729417206       20.0593595566       24.6125419178
H    1.0       20.5583652207       21.0416850781       24.3484047536
H    1.0       21.6536192715       19.8127223526       24.4570820738
H    1.0       20.4990648280       19.9949926744       25.6191716013
C    6.0       19.7478032605       19.1634373886       23.8354246600
H    1.0       18.7310244700       19.4974436546       24.0644763024
C    6.0       19.8977076169       17.7048150079       24.3052666302
H    1.0       19.7836274052       17.6359921403       25.3940606798
H    1.0       20.8830905846       17.3015597293       24.0407223821
H    1.0       19.1314120307       17.0607666151       23.8589302153
C    6.0       19.9738727613       19.3116652730       22.3127890115
H    1.0       19.9611316461       20.3806321120       22.0621705246
H    1.0       20.9742968717       18.9430457411       22.0498847347
C    6.0       18.9091439823       18.5919235668       21.4493680438
H    1.0       17.9039328999       18.9141714566       21.7556019421
H    1.0       18.9585086160       17.5066572470       21.6095560290
C    6.0       19.1035306584       18.8827992071       19.9456097368
H    1.0       18.3433769577       18.3623510068       19.3486273994
H    1.0       20.0901685228       18.5450969284       19.6024429079
H    1.0       19.0179572197       19.9570015112       19.7358369027
 $end
$$$$
! Edit this basic GAMESS input file as needed.
! Conformer was generated by a VeraChem VCPack run 
! and contains     20 atoms.
!
 $contrl scftyp=rhf runtyp=optimize nzvar=0
  maxit=200 icharg=0 $end
 $system mwords=50 $end
 $basis gbasis=pm3 $end
 $statpt nstep=200 $end
 $guess guess=huckel $end
 $data
VM2 Rank=3      G=3.269             E=-19.760           -TS=23.029              
C1
N    7.0       20.2984144661       20.2325985906       24.2273054107
H    1.0       20.6865055274       20.2777046107       25.1733518081
H    1.0       19.6668984593       21.0309300942       24.1197625792
H    1.0       21.0731569234       20.3632237878       23.5729670094
C    6.0       19.5878520575       18.9286160432       23.9851905476
H    1.0       18.7946689721       18.8719886229       24.7373053782
C    6.0       20.5307477823       17.7340630605       24.2150426754
H    1.0       20.0095651549       16.7855324108       24.0357959665
H    1.0       20.8913229105       17.7239456262       25.2508845906
H    1.0       21.4064173954       17.7751500566       23.5565908652
C    6.0       18.9067657950       18.8734833607       22.5966186986
H    1.0       18.3347123007       17.9392590738       22.5210114082
H    1.0       18.1682759763       19.6839323263       22.5399484691
C    6.0       19.8731893653       18.9808412181       21.3887922146
H    1.0       20.5886484798       18.1477615214       21.3992172570
H    1.0       20.4605196026       19.9065553104       21.4540517198
C    6.0       19.1080305338       18.9643977269       20.0480504531
H    1.0       19.8047714007       19.0388604829       19.2030219027
H    1.0       18.4080050108       19.8074893438       19.9818452188
H    1.0       18.5356381631       18.0349297113       19.9310931003
 $end
$$$$
! Edit this basic GAMESS input file as needed.
! Conformer was generated by a VeraChem VCPack run 
! and contains     20 atoms.
!
 $contrl scftyp=rhf runtyp=optimize nzvar=0
  maxit=200 icharg=0 $end
 $system mwords=50 $end
 $basis gbasis=pm3 $end
 $statpt nstep=200 $end
 $guess guess=huckel $end
 $data
VM2 Rank=4      G=3.365             E=-19.711           -TS=23.075              
C1
N    7.0       20.0485286756       20.2198122060       23.9724840381
H    1.0       19.7980601586       20.8827964046       23.2345207196
H    1.0       21.0585182260       20.2892647738       24.1191766200
H    1.0       19.5920757765       20.5335503941       24.8331585574
C    6.0       19.6393018639       18.8179119752       23.6100105101
H    1.0       18.5536337269       18.8319833057       23.4748933300
C    6.0       19.9662045901       17.8438817631       24.7536487172
H    1.0       19.4768429676       18.1584992311       25.6835826670
H    1.0       21.0468661726       17.7934537977       24.9363569360
H    1.0       19.6121867323       16.8326809863       24.5174993809
C    6.0       20.2855311738       18.3357956517       22.2913246371
H    1.0       21.3763310070       18.2990697244       22.4123242390
H    1.0       19.9644187796       17.3046826498       22.0922737718
C    6.0       19.9414841591       19.2099475078       21.0586912514
H    1.0       20.4477419873       18.7915620345       20.1774650238
H    1.0       20.3463892867       20.2230337661       21.1862602324
C    6.0       18.4239495375       19.2866508962       20.7748408460
H    1.0       17.8842112576       19.7855845357       21.5894854104
H    1.0       17.9960631260       18.2842430797       20.6434183021
H    1.0       18.2330547032       19.8548551940       19.8551829655
 $end
$$$$
! Edit this basic GAMESS input file as needed.
! Conformer was generated by a VeraChem VCPack run 
! and contains     20 atoms.
!
 $contrl scftyp=rhf runtyp=optimize nzvar=0
  maxit=200 icharg=0 $end
 $system mwords=50 $end
 $basis gbasis=pm3 $end
 $statpt nstep=200 $end
 $guess guess=huckel $end
 $data
VM2 Rank=5      G=3.525             E=-19.636           -TS=23.161              
C1
N    7.0       20.3129334190       20.0923693220       24.6251024225
H    1.0       21.2798002446       19.8326768726       24.8358443004
H    1.0       19.7915305370       20.0632049719       25.5054013634
H    1.0       20.3189830800       21.0660911130       24.3094173911
C    6.0       19.7071604926       19.1784494125       23.5954549464
H    1.0       18.6822666773       19.5284647727       23.4399676046
C    6.0       19.6524298570       17.7346296901       24.1269527011
H    1.0       19.1505657556       17.7001037116       25.1016704234
H    1.0       20.6598375534       17.3175030245       24.2478793910
H    1.0       19.0894721902       17.0824502528       23.4492559202
C    6.0       20.4628007649       19.2735156038       22.2484588323
H    1.0       20.5390469792       20.3307811358       21.9622735127
H    1.0       21.4934681349       18.9199401679       22.3842615158
C    6.0       19.8115470927       18.4967969010       21.0755643527
H    1.0       19.8398195471       17.4163768280       21.2709228483
H    1.0       20.4158008314       18.6538303642       20.1710988751
C    6.0       18.3581283738       18.9382390706       20.7894667450
H    1.0       18.3043019590       20.0170827604       20.5936201984
H    1.0       17.6936170944       18.7084232671       21.6318879222
H    1.0       17.9647884318       18.4176321076       19.9067042036
 $end
$$$$
! Edit this basic GAMESS input file as needed.
! Conformer was generated by a VeraChem VCPack run 
! and contains     20 atoms.
!
 $contrl scftyp=rhf runtyp=optimize nzvar=0
  maxit=200 icharg=0 $end
 $system mwords=50 $end
 $basis gbasis=pm3 $end
 $statpt nstep=200 $end
 $guess guess=huckel $end
 $data
VM2 Rank=6      G=5.473             E=-17.432           -TS=22.905              
C1
N    7.0       20.4416509811       20.1738280760       23.6449077918
H    1.0       20.2929513264       20.7282234401       24.4923632629
H    1.0       20.1632701816       20.7486979735       22.8467788128
H    1.0       21.4469642397       20.0032822982       23.5634495839
C    6.0       19.6680557577       18.8841962184       23.6853693714
H    1.0       18.6138948804       19.1449104981       23.8214234292
C    6.0       20.1157633300       18.0452582118       24.8942943131
H    1.0       21.1661569270       17.7424163175       24.8003754422
H    1.0       19.5056260952       17.1383502869       24.9886064794
H    1.0       20.0061789928       18.6152896813       25.8250957400
C    6.0       19.8012600607       18.0636285273       22.3803174384
H    1.0       20.8560451080       18.0045911765       22.0811238811
H    1.0       19.4891217252       17.0304354430       22.5832095169
C    6.0       18.9384855467       18.5777058536       21.1979656523
H    1.0       17.8790279684       18.5892356540       21.4902876894
H    1.0       19.0172974092       17.8521541397       20.3761449850
C    6.0       19.3397843239       19.9693831129       20.6581454331
H    1.0       18.8254118502       20.1703327662       19.7092898161
H    1.0       20.4196564675       20.0285812378       20.4692295898
H    1.0       19.0546129406       20.7694743254       21.3509409638
 $end
$$$$
! Edit this basic GAMESS input file as needed.
! Conformer was generated by a VeraChem VCPack run 
! and contains     20 atoms.
!
 $contrl scftyp=rhf runtyp=optimize nzvar=0
  maxit=200 icharg=0 $end
 $system mwords=50 $end
 $basis gbasis=pm3 $end
 $statpt nstep=200 $end
 $guess guess=huckel $end
 $data
VM2 Rank=7      G=5.931             E=-17.087           -TS=23.018              
C1
N    7.0       20.3127255348       19.9500625959       24.7197156543
H    1.0       20.2465332902       20.9492717277       24.5071193817
H    1.0       21.3009918133       19.7331748770       24.8719039534
H    1.0       19.8274782911       19.7973280880       25.6079399437
C    6.0       19.7250834850       19.1083849642       23.6193371892
H    1.0       18.6774991721       19.4121974318       23.5297583827
C    6.0       19.7756941399       17.6196450047       24.0105516219
H    1.0       19.2279759878       17.4470515718       24.9450809091
H    1.0       20.8100122101       17.2845496445       24.1573939340
H    1.0       19.3228843454       16.9851957918       23.2409857339
C    6.0       20.4197305588       19.3672330514       22.2596714578
H    1.0       20.9761518667       20.3122526998       22.3144966474
H    1.0       21.1721131247       18.5926859304       22.0596427649
C    6.0       19.4387767193       19.4784370306       21.0650427396
H    1.0       20.0115583555       19.7386703364       20.1638588418
H    1.0       18.7442884492       20.3129284343       21.2364764477
C    6.0       18.6329895622       18.1902373532       20.7866813373
H    1.0       18.0393182263       18.3000622403       19.8698747357
H    1.0       17.9352342968       17.9692677283       21.6039567507
H    1.0       19.2984916977       17.3275534372       20.6528442369
 $end
$$$$
! Edit this basic GAMESS input file as needed.
! Conformer was generated by a VeraChem VCPack run 
! and contains     20 atoms.
!
 $contrl scftyp=rhf runtyp=optimize nzvar=0
  maxit=200 icharg=0 $end
 $system mwords=50 $end
 $basis gbasis=pm3 $end
 $statpt nstep=200 $end
 $guess guess=huckel $end
 $data
VM2 Rank=8      G=5.948             E=-17.185           -TS=23.133              
C1
N    7.0       20.6494813761       19.8404599872       24.7412839973
H    1.0       21.6280529637       19.7186565462       24.4687964501
H    1.0       20.5502030213       19.4722687096       25.6911222772
H    1.0       20.4667092178       20.8466220385       24.7865196473
C    6.0       19.7192191149       19.1489334021       23.7825608387
H    1.0       18.7061573783       19.3280564634       24.1559464904
C    6.0       19.9722900939       17.6316911293       23.7961672992
H    1.0       19.9764932990       17.2487486401       24.8240198564
H    1.0       20.9372257604       17.3847525128       23.3364127364
H    1.0       19.1816578704       17.0969983153       23.2576415007
C    6.0       19.8242247093       19.7636660991       22.3653760184
H    1.0       19.6663060255       20.8458622933       22.4633827888
H    1.0       20.8436775698       19.6451898807       21.9749812081
C    6.0       18.7909425175       19.2269240975       21.3397633699
H    1.0       18.4774120165       20.0571305869       20.6912472814
H    1.0       17.8813373314       18.8880416373       21.8552672610
C    6.0       19.3488421882       18.1023252848       20.4358484765
H    1.0       18.5855643051       17.7709278734       19.7199116710
H    1.0       19.6644560182       17.2261684435       21.0131510300
H    1.0       20.2136007383       18.4556806447       19.8592650503
 $end
$$$$
! Edit this basic GAMESS input file as needed.
! Conformer was generated by a VeraChem VCPack run 
! and contains     20 atoms.
!
 $contrl scftyp=rhf runtyp=optimize nzvar=0
  maxit=200 icharg=0 $end
 $system mwords=50 $end
 $basis gbasis=pm3 $end
 $statpt nstep=200 $end
 $guess guess=huckel $end
 $data
VM2 Rank=9      G=6.004             E=-17.176           -TS=23.180              
C1
N    7.0       20.4119137892       20.1133991697       24.3249370599
H    1.0       21.0510557410       20.4133697709       23.5854857550
H    1.0       20.9743263184       19.9351897311       25.1613259680
H    1.0       19.7949825401       20.9022527385       24.5365169969
C    6.0       19.6308059030       18.8935133097       23.9167940230
H    1.0       18.9914909284       18.6481301136       24.7706245035
C    6.0       20.5664713465       17.6958637446       23.6846521597
H    1.0       21.3278002177       17.9216921133       22.9289479325
H    1.0       20.0002499999       16.8148186112       23.3583223074
H    1.0       21.0871040656       17.4313280947       24.6130555602
C    6.0       18.6925908113       19.1692272754       22.7148480352
H    1.0       18.0244784771       18.3101124541       22.5697804664
H    1.0       18.0342762911       20.0014017734       22.9969626383
C    6.0       19.3853349550       19.5306118838       21.3714449638
H    1.0       20.3325295806       20.0569081723       21.5481197052
H    1.0       18.7442366405       20.2419392149       20.8320110717
C    6.0       19.6178831950       18.3113846168       20.4483237584
H    1.0       20.2881936768       17.5721878074       20.9002626656
H    1.0       20.0688922581       18.6296664970       19.4995071338
H    1.0       18.6700314483       17.8100290449       20.2132441847
 $end
$$$$
! Edit this basic GAMESS input file as needed.
! Conformer was generated by a VeraChem VCPack run 
! and contains     20 atoms.
!
 $contrl scftyp=rhf runtyp=optimize nzvar=0
  maxit=200 icharg=0 $end
 $system mwords=50 $end
 $basis gbasis=pm3 $end
 $statpt nstep=200 $end
 $guess guess=huckel $end
 $data
VM2 Rank=10     G=6.029             E=-17.415           -TS=23.444              
C1
N    7.0       20.5526681529       20.2234645512       23.7203557789
H    1.0       21.0540799919       20.1987408128       22.8304288505
H    1.0       21.2492415451       20.2865580034       24.4676210742
H    1.0       20.0057026933       21.0883485786       23.7399817074
C    6.0       19.6750575066       19.0129760131       23.8845863821
H    1.0       19.1699671085       19.1502295440       24.8458209628
C    6.0       20.5096613579       17.7238952484       23.9856834567
H    1.0       21.1210753054       17.5660080869       23.0892798097
H    1.0       19.8603767409       16.8496523648       24.1181443706
H    1.0       21.1851878345       17.7701821636       24.8485217226
C    6.0       18.5662251805       18.9159451166       22.8055187039
H    1.0       17.8063268860       18.2133467705       23.1721952011
H    1.0       18.0551907287       19.8848554385       22.7328885057
C    6.0       18.9931881904       18.4539825638       21.3839371150
H    1.0       18.0898806354       18.3959728040       20.7606443226
H    1.0       19.3922471466       17.4311855237       21.4195756755
C    6.0       20.0081996117       19.3837365068       20.6809185634
H    1.0       19.6745689390       20.4292951929       20.7061844724
H    1.0       20.1203016065       19.0960295977       19.6274337787
H    1.0       21.0015365004       19.3170831256       21.1392948075
 $end
$$$$
! Edit this basic GAMESS input file as needed.
! Conformer was generated by a VeraChem VCPack run 
! and contains     20 atoms.
!
 $contrl scftyp=rhf runtyp=optimize nzvar=0
  maxit=200 icharg=0 $end
 $system mwords=50 $end
 $basis gbasis=pm3 $end
 $statpt nstep=200 $end
 $guess guess=huckel $end
 $data
VM2 Rank=11     G=6.693             E=-16.651           -TS=23.344              
C1
N    7.0       20.4702442262       20.1803574116       23.8702141327
H    1.0       19.8614928665       20.9959233070       23.9790420671
H    1.0       20.9774383056       20.2903859622       22.9891240096
H    1.0       21.1568589877       20.2083867004       24.6287253918
C    6.0       19.6816910706       18.8990482505       23.8852098284
H    1.0       19.1717225519       18.8760028392       24.8533816641
C    6.0       20.6026911318       17.6649911653       23.8519440240
H    1.0       21.2841949962       17.6746616392       24.7112747412
H    1.0       21.2134908518       17.6235382460       22.9453903898
H    1.0       20.0158984839       16.7400024207       23.9093798562
C    6.0       18.5739294192       18.8488138821       22.8004891284
H    1.0       18.2111449350       17.8179618665       22.6943773209
H    1.0       17.7168908472       19.4166936476       23.1855471026
C    6.0       18.9191149690       19.4265405855       21.3986922376
H    1.0       19.1567174927       20.4962472011       21.4756625360
H    1.0       18.0133065604       19.3712172896       20.7787224378
C    6.0       20.0573291832       18.6942487050       20.6544506488
H    1.0       19.8920569454       17.6090639378       20.6446587570
H    1.0       21.0334591678       18.8968916098       21.1096476051
H    1.0       20.1110143025       19.0331012601       19.6116809433
 $end
