$$$$
! Edit this basic GAMESS input file as needed.
! Conformer was generated by a VeraChem VCPack run 
! and contains     23 atoms.
!
 $contrl scftyp=rhf runtyp=optimize nzvar=0
  maxit=200 icharg=0 $end
 $system mwords=50 $end
 $basis gbasis=pm3 $end
 $statpt nstep=200 $end
 $guess guess=huckel $end
 $data
VM2 Rank=1      G=37.916            E=10.396            -TS=27.520              
C1
N    7.0       19.7413956139       18.6609931684       26.4278242257
H    1.0       20.7320789910       18.4174625616       26.5284369926
H    1.0       19.2107018348       17.7844830341       26.4590970553
H    1.0       19.4802548931       19.1972402276       27.2622934747
C    6.0       19.4763424712       19.4375948541       25.1540350885
H    1.0       20.0477300221       20.3686043457       25.2013105492
H    1.0       18.4124349201       19.6883106561       25.1268223226
C    6.0       19.8579193542       18.6596119761       23.8821380960
H    1.0       20.9232590826       18.3957862665       23.9214808271
H    1.0       19.2937314839       17.7180333569       23.8471822832
C    6.0       19.5728745259       19.4846748242       22.6076946393
H    1.0       20.1350097387       20.4281282780       22.6489500520
H    1.0       18.5071771623       19.7511444979       22.5747564861
C    6.0       19.9525269829       18.7125084492       21.3237051771
H    1.0       21.0181078793       18.4460919742       21.3564376464
H    1.0       19.3904992292       17.7691522865       21.2822827325
C    6.0       19.6672886121       19.5379193364       20.0493042864
H    1.0       20.2292708577       20.4817858813       20.0848474187
H    1.0       18.6018222633       19.8048652906       20.0106774344
C    6.0       20.0476524397       18.7636973916       18.7692984870
H    1.0       21.1162559376       18.5121531821       18.7629057221
H    1.0       19.8380025762       19.3655392029       17.8754973393
H    1.0       19.4761279974       17.8298815378       18.6882048358
 $end
$$$$
! Edit this basic GAMESS input file as needed.
! Conformer was generated by a VeraChem VCPack run 
! and contains     23 atoms.
!
 $contrl scftyp=rhf runtyp=optimize nzvar=0
  maxit=200 icharg=0 $end
 $system mwords=50 $end
 $basis gbasis=pm3 $end
 $statpt nstep=200 $end
 $guess guess=huckel $end
 $data
VM2 Rank=2      G=38.206            E=10.584            -TS=27.622              
C1
N    7.0       20.4491208096       19.4573199364       25.7939537954
H    1.0       20.8557537965       20.1751602329       25.1865889648
H    1.0       21.1372734773       18.7017766508       25.8732149235
H    1.0       20.3533918743       19.8732815064       26.7265862035
C    6.0       19.1203567828       18.9563670034       25.2622855125
H    1.0       18.4287028614       19.8023563222       25.2255895650
H    1.0       18.7300345546       18.2283402535       25.9786762343
C    6.0       19.2146390560       18.3026243180       23.8699499358
H    1.0       19.9142704304       17.4570465674       23.9086453319
H    1.0       18.2316451377       17.8842664358       23.6156214892
C    6.0       19.6475314862       19.2996388494       22.7689036400
H    1.0       20.6464378224       19.6957239923       22.9954881329
H    1.0       18.9591730159       20.1562436317       22.7599375494
C    6.0       19.6671382501       18.6390918778       21.3716888041
H    1.0       20.3532739055       17.7808108222       21.3806694262
H    1.0       18.6686155233       18.2449186397       21.1370345714
C    6.0       20.0997400273       19.6325574720       20.2704608442
H    1.0       21.0996289394       20.0276077646       20.4987256465
H    1.0       19.4150637425       20.4921998096       20.2563059773
C    6.0       20.1174735880       18.9694005430       18.8767574680
H    1.0       20.8196945256       18.1259639281       18.8497907674
H    1.0       20.4268511247       19.6899061749       18.1085133816
H    1.0       19.1220531740       18.5942969617       18.6053442392
 $end
$$$$
! Edit this basic GAMESS input file as needed.
! Conformer was generated by a VeraChem VCPack run 
! and contains     23 atoms.
!
 $contrl scftyp=rhf runtyp=optimize nzvar=0
  maxit=200 icharg=0 $end
 $system mwords=50 $end
 $basis gbasis=pm3 $end
 $statpt nstep=200 $end
 $guess guess=huckel $end
 $data
VM2 Rank=3      G=38.223            E=10.600            -TS=27.623              
C1
N    7.0       18.7298558757       18.7422095985       25.7155029289
H    1.0       17.9833899851       18.9804967848       25.0555436382
H    1.0       18.4301956110       19.0733214552       26.6388450685
H    1.0       18.7754276627       17.7194133535       25.7654088218
C    6.0       20.0586031510       19.3465422600       25.3050767003
H    1.0       20.7923821915       19.0859649378       26.0727074114
H    1.0       19.9481742511       20.4342616974       25.2949714185
C    6.0       20.5632434662       18.8635727763       23.9314158684
H    1.0       21.5692158969       19.2725030256       23.7677749907
H    1.0       20.6676980085       17.7704391360       23.9429239604
C    6.0       19.6389519383       19.2961402913       22.7685255301
H    1.0       19.5164851959       20.3881151669       22.7853791124
H    1.0       18.6397245293       18.8611447899       22.9040307535
C    6.0       20.2011815425       18.8613106998       21.3960320595
H    1.0       21.1993640938       19.2977367040       21.2523390396
H    1.0       20.3265013531       17.7697382753       21.3794744603
C    6.0       19.2795424993       19.2914062866       20.2330943245
H    1.0       19.1526965771       20.3830801677       20.2442753983
H    1.0       18.2802524459       18.8549018564       20.3703220369
C    6.0       19.8446215272       18.8558180875       18.8643525882
H    1.0       19.1769488357       19.1698936121       18.0515729391
H    1.0       19.9508072246       17.7644751828       18.8102990317
H    1.0       20.8300256547       19.3045642744       18.6831547385
 $end
$$$$
! Edit this basic GAMESS input file as needed.
! Conformer was generated by a VeraChem VCPack run 
! and contains     23 atoms.
!
 $contrl scftyp=rhf runtyp=optimize nzvar=0
  maxit=200 icharg=0 $end
 $system mwords=50 $end
 $basis gbasis=pm3 $end
 $statpt nstep=200 $end
 $guess guess=huckel $end
 $data
VM2 Rank=4      G=38.379            E=10.760            -TS=27.618              
C1
N    7.0       19.5096705931       18.2599178685       26.0548997554
H    1.0       20.4067196509       17.7706863183       26.1373230908
H    1.0       18.7900557779       17.6263844955       26.4193497165
H    1.0       19.5460292412       19.0649503839       26.6885033929
C    6.0       19.2219691369       18.6768336623       24.6268980242
H    1.0       18.2432617018       19.1638604409       24.6080826556
H    1.0       19.1674381686       17.7708858160       24.0178191703
C    6.0       20.2860491898       19.6298932427       24.0504686797
H    1.0       20.3621645911       20.5149902258       24.6960357078
H    1.0       21.2692035659       19.1410083312       24.0702784232
C    6.0       19.9615403087       20.0868111387       22.6086097355
H    1.0       20.7077333356       20.8316202430       22.2989228229
H    1.0       18.9889650270       20.5982809449       22.5965428493
C    6.0       19.9519355466       18.9221905197       21.5892826453
H    1.0       20.9139324141       18.3925638425       21.6276844722
H    1.0       19.1762375528       18.1931518218       21.8591976629
C    6.0       19.6977850562       19.4218852873       20.1496694800
H    1.0       20.4737268125       20.1465262175       19.8654673497
H    1.0       18.7366913631       19.9532419952       20.1056526886
C    6.0       19.6870501686       18.2594682808       19.1341716799
H    1.0       20.6482567659       17.7290913573       19.1310722757
H    1.0       19.5057600041       18.6338981586       18.1183077514
H    1.0       18.8974322245       17.5347388530       19.3718501248
 $end
$$$$
! Edit this basic GAMESS input file as needed.
! Conformer was generated by a VeraChem VCPack run 
! and contains     23 atoms.
!
 $contrl scftyp=rhf runtyp=optimize nzvar=0
  maxit=200 icharg=0 $end
 $system mwords=50 $end
 $basis gbasis=pm3 $end
 $statpt nstep=200 $end
 $guess guess=huckel $end
 $data
VM2 Rank=5      G=38.446            E=10.828            -TS=27.618              
C1
N    7.0       20.2168696117       18.5540206297       26.0870837016
H    1.0       21.1422834141       18.6046742176       26.5264888875
H    1.0       19.9270509670       17.5711463366       26.1153952676
H    1.0       19.5723145569       19.0758297844       26.6896739284
C    6.0       20.2344487368       19.0979487083       24.6730094946
H    1.0       20.9612979508       18.5170075401       24.0995198106
H    1.0       20.5782156655       20.1350229802       24.7144721491
C    6.0       18.8574517295       19.0357107474       23.9853605955
H    1.0       18.5118253510       17.9941371623       23.9445936157
H    1.0       18.1273687952       19.5854649518       24.5942084949
C    6.0       18.8736240911       19.6343560242       22.5590384022
H    1.0       19.1952230313       20.6841285580       22.6059599102
H    1.0       17.8465376759       19.6415814431       22.1685353173
C    6.0       19.7839188667       18.8523534898       21.5816486136
H    1.0       20.8236401664       18.8784642553       21.9342896318
H    1.0       19.4805840661       17.7964010504       21.5624255399
C    6.0       19.7202325168       19.4312150711       20.1506946447
H    1.0       20.0221674967       20.4879231488       20.1641875186
H    1.0       18.6845616899       19.4023050421       19.7839390186
C    6.0       20.6294544473       18.6513953294       19.1771645477
H    1.0       20.5704603408       19.0766408475       18.1668530285
H    1.0       20.3303868905       17.5968210209       19.1166771600
H    1.0       21.6783926600       18.6914030978       19.4986435032
 $end
$$$$
! Edit this basic GAMESS input file as needed.
! Conformer was generated by a VeraChem VCPack run 
! and contains     23 atoms.
!
 $contrl scftyp=rhf runtyp=optimize nzvar=0
  maxit=200 icharg=0 $end
 $system mwords=50 $end
 $basis gbasis=pm3 $end
 $statpt nstep=200 $end
 $guess guess=huckel $end
 $data
VM2 Rank=6      G=38.523            E=10.892            -TS=27.630              
C1
N    7.0       19.5473613902       18.7522099087       26.3216473198
H    1.0       18.8411085111       18.9694488182       27.0330488931
H    1.0       20.4083120013       19.2340453729       26.5999859192
H    1.0       19.7318222881       17.7456823199       26.3828560349
C    6.0       19.0935979856       19.1607838884       24.9349070111
H    1.0       18.8875330825       20.2344721204       24.9499100221
H    1.0       18.1602952614       18.6347084534       24.7165483011
C    6.0       20.1322833775       18.8478956373       23.8432012755
H    1.0       21.0728074256       19.3649667451       24.0758137354
H    1.0       20.3479907091       17.7710638037       23.8423107444
C    6.0       19.6322152905       19.2790310564       22.4466348217
H    1.0       19.4159556806       20.3564046422       22.4517388443
H    1.0       18.6865377469       18.7647749170       22.2298951326
C    6.0       20.6694761242       18.9644991838       21.3417769467
H    1.0       21.6298337700       19.4268395925       21.6089116999
H    1.0       20.8493967772       17.8813680036       21.2994719464
C    6.0       20.2523682877       19.4738873504       19.9408417444
H    1.0       21.0844859325       19.3063643737       19.2427220892
H    1.0       20.0924903785       20.5607252056       19.9728236019
C    6.0       18.9886975442       18.7786929750       19.3849908809
H    1.0       18.7903189154       19.1076771940       18.3567110607
H    1.0       18.1009005076       19.0166886571       19.9838189174
H    1.0       19.1120895851       17.6880156635       19.3702791504
 $end
$$$$
! Edit this basic GAMESS input file as needed.
! Conformer was generated by a VeraChem VCPack run 
! and contains     23 atoms.
!
 $contrl scftyp=rhf runtyp=optimize nzvar=0
  maxit=200 icharg=0 $end
 $system mwords=50 $end
 $basis gbasis=pm3 $end
 $statpt nstep=200 $end
 $guess guess=huckel $end
 $data
VM2 Rank=7      G=38.555            E=10.925            -TS=27.630              
C1
N    7.0       19.8213307356       18.8659589612       26.3341291124
H    1.0       20.3998069616       18.0233526853       26.4131823931
H    1.0       18.8543029929       18.5872395506       26.5291843357
H    1.0       20.1080767750       19.4962444639       27.0908298681
C    6.0       19.9580021743       19.5203467141       24.9743549104
H    1.0       21.0024951925       19.8171207394       24.8460922488
H    1.0       19.3412507531       20.4231750649       24.9707729577
C    6.0       19.5350862318       18.5995290971       23.8159818652
H    1.0       20.1461328979       17.6871537932       23.8330398001
H    1.0       18.4907674594       18.2909081004       23.9581425686
C    6.0       19.6891635017       19.3028692085       22.4492588203
H    1.0       20.7338950560       19.6165291778       22.3231862656
H    1.0       19.0778619313       20.2159279573       22.4364417780
C    6.0       19.2693004233       18.3823392028       21.2779784380
H    1.0       19.9129412366       17.4920515960       21.2568450086
H    1.0       18.2470414370       18.0201889757       21.4547239185
C    6.0       19.3103168067       19.0821809477       19.8978998948
H    1.0       18.6509199345       19.9613339584       19.9070961567
H    1.0       18.8986870664       18.3975263257       19.1431396422
C    6.0       20.7328001265       19.5037758686       19.4643969590
H    1.0       21.4191971260       18.6471802639       19.4754062103
H    1.0       21.1413447819       20.2808034514       20.1222254191
H    1.0       20.7190220516       19.9094220568       18.4444914795
 $end
$$$$
! Edit this basic GAMESS input file as needed.
! Conformer was generated by a VeraChem VCPack run 
! and contains     23 atoms.
!
 $contrl scftyp=rhf runtyp=optimize nzvar=0
  maxit=200 icharg=0 $end
 $system mwords=50 $end
 $basis gbasis=pm3 $end
 $statpt nstep=200 $end
 $guess guess=huckel $end
 $data
VM2 Rank=8      G=38.644            E=11.025            -TS=27.619              
C1
N    7.0       19.3992484709       18.2117969138       26.0666534592
H    1.0       19.1879009989       18.5586871182       27.0085032168
H    1.0       20.2614524632       17.6619711289       26.1384881119
H    1.0       18.6476305613       17.5625487856       25.8129343907
C    6.0       19.5313976226       19.3428561276       25.0670381502
H    1.0       20.3259789100       20.0088156629       25.4143385239
H    1.0       18.5916489739       19.9017414314       25.0635023676
C    6.0       19.8495973234       18.8557375722       23.6422299641
H    1.0       20.7856474823       18.2816520602       23.6537870339
H    1.0       19.0553947061       18.1742923654       23.3124361078
C    6.0       19.9779129983       20.0416874712       22.6573261616
H    1.0       20.7195378249       20.7517451013       23.0491746866
H    1.0       19.0253107294       20.5873303351       22.6081800680
C    6.0       20.4085159763       19.6196564191       21.2308376752
H    1.0       20.5871753286       20.5277168065       20.6384428765
H    1.0       21.3695163693       19.0890040448       21.2778355836
C    6.0       19.3632378248       18.7422233235       20.5019983471
H    1.0       18.3885733624       19.2499499295       20.5004393712
H    1.0       19.2268541152       17.7921992346       21.0354485953
C    6.0       19.7860897838       18.4430421726       19.0479162426
H    1.0       19.0357567866       17.8177684998       18.5468457802
H    1.0       20.7445246536       17.9085084215       19.0178248169
H    1.0       19.8929928755       19.3695262666       18.4687645247
 $end
$$$$
! Edit this basic GAMESS input file as needed.
! Conformer was generated by a VeraChem VCPack run 
! and contains     23 atoms.
!
 $contrl scftyp=rhf runtyp=optimize nzvar=0
  maxit=200 icharg=0 $end
 $system mwords=50 $end
 $basis gbasis=pm3 $end
 $statpt nstep=200 $end
 $guess guess=huckel $end
 $data
VM2 Rank=9      G=38.652            E=11.032            -TS=27.619              
C1
N    7.0       20.3274629762       18.5978718615       26.1089944501
H    1.0       21.3344179915       18.6801438032       25.9354997212
H    1.0       20.1059111068       17.5972334008       26.1313761991
H    1.0       20.1571020031       18.9617920163       27.0527213301
C    6.0       19.5115451935       19.3345764142       25.0661469878
H    1.0       19.7757588883       20.3943104872       25.1175915020
H    1.0       18.4553344571       19.2305882559       25.3289900530
C    6.0       19.7437175153       18.8117309601       23.6373915176
H    1.0       20.8092417063       18.9040740036       23.3923956305
H    1.0       19.4923591540       17.7436023281       23.5947577575
C    6.0       18.8903191727       19.5892694667       22.6077697881
H    1.0       19.1764414907       20.6502465515       22.6150411959
H    1.0       17.8366446996       19.5524463308       22.9178466165
C    6.0       18.9974568249       19.0326499239       21.1665587258
H    1.0       18.6951092761       17.9763355029       21.1560601490
H    1.0       18.2749515758       19.5657440819       20.5331372750
C    6.0       20.4088539990       19.1774107106       20.5495507493
H    1.0       21.1360230633       18.5868792972       21.1224504035
H    1.0       20.7333915111       20.2258133767       20.6069103621
C    6.0       20.4366443183       18.7134906629       19.0775877813
H    1.0       21.4448200349       18.8199695058       18.6565399316
H    1.0       19.7503308591       19.3097191152       18.4621979840
H    1.0       20.1449826968       17.6586741745       18.9908303359
 $end
$$$$
! Edit this basic GAMESS input file as needed.
! Conformer was generated by a VeraChem VCPack run 
! and contains     23 atoms.
!
 $contrl scftyp=rhf runtyp=optimize nzvar=0
  maxit=200 icharg=0 $end
 $system mwords=50 $end
 $basis gbasis=pm3 $end
 $statpt nstep=200 $end
 $guess guess=huckel $end
 $data
VM2 Rank=10     G=38.795            E=11.061            -TS=27.734              
C1
N    7.0       19.8904786990       19.9725747330       25.5967598280
H    1.0       18.9052361985       20.1709846724       25.7982569335
H    1.0       20.2016161600       20.6577537885       24.9015966971
H    1.0       20.4151997155       20.1599899749       26.4578734806
C    6.0       20.0916240844       18.5493804221       25.1137978362
H    1.0       19.7775167338       17.8788255996       25.9183334629
H    1.0       21.1605579206       18.3972146555       24.9416036024
C    6.0       19.3063762182       18.2115367807       23.8315756562
H    1.0       19.4341682651       17.1420135097       23.6176252502
H    1.0       18.2338818012       18.3700020455       24.0064859809
C    6.0       19.7730506924       19.0373188139       22.6092265600
H    1.0       20.8532725148       18.8956264161       22.4724714671
H    1.0       19.6112612343       20.1069859043       22.7973693452
C    6.0       19.0207284623       18.6273174171       21.3203221522
H    1.0       19.2234822287       17.5717855364       21.0921684245
H    1.0       17.9388422002       18.7027967243       21.4970480691
C    6.0       19.3796910913       19.4989813843       20.0925321064
H    1.0       19.1560846808       20.5534091555       20.3069154861
H    1.0       18.7297464000       19.2116448506       19.2541673956
C    6.0       20.8540507524       19.3598904490       19.6497858610
H    1.0       21.0321126830       19.9236992880       18.7249349959
H    1.0       21.1113046511       18.3101946224       19.4574985303
H    1.0       21.5420974123       19.7492086021       20.4103418944
 $end
$$$$
! Edit this basic GAMESS input file as needed.
! Conformer was generated by a VeraChem VCPack run 
! and contains     23 atoms.
!
 $contrl scftyp=rhf runtyp=optimize nzvar=0
  maxit=200 icharg=0 $end
 $system mwords=50 $end
 $basis gbasis=pm3 $end
 $statpt nstep=200 $end
 $guess guess=huckel $end
 $data
VM2 Rank=11     G=38.835            E=11.107            -TS=27.728              
C1
N    7.0       19.1467027356       17.8993305206       25.3646970465
H    1.0       19.9693927753       17.2932666638       25.4456169401
H    1.0       18.5889828307       17.5503355309       24.5794431177
H    1.0       18.5884613341       17.7601984191       26.2138162118
C    6.0       19.5339020535       19.3534954505       25.1781825995
H    1.0       20.0873356512       19.6656313801       26.0680509351
H    1.0       18.6159653809       19.9449453403       25.1233801016
C    6.0       20.3934662036       19.6125366753       23.9255729925
H    1.0       20.7076079273       20.6647721443       23.9323729167
H    1.0       21.3109559228       19.0114866550       23.9796853121
C    6.0       19.6388832300       19.3109822779       22.6088753552
H    1.0       18.7095518332       19.8964587762       22.5776230111
H    1.0       19.3514468592       18.2523938888       22.5860157170
C    6.0       20.5001110229       19.6423455137       21.3663092285
H    1.0       20.8381019159       20.6858481533       21.4313389754
H    1.0       21.4077815037       19.0231084828       21.3685988731
C    6.0       19.7488657163       19.4529497578       20.0261781089
H    1.0       20.3911162000       19.8097832248       19.2088457497
H    1.0       18.8512188296       20.0868047135       20.0103152168
C    6.0       19.3540690380       17.9853598043       19.7441846690
H    1.0       20.2304799389       17.3256507515       19.7854871369
H    1.0       18.9111454408       17.8923372707       18.7441310389
H    1.0       18.6139805222       17.6205242610       20.4670266951
 $end
$$$$
! Edit this basic GAMESS input file as needed.
! Conformer was generated by a VeraChem VCPack run 
! and contains     23 atoms.
!
 $contrl scftyp=rhf runtyp=optimize nzvar=0
  maxit=200 icharg=0 $end
 $system mwords=50 $end
 $basis gbasis=pm3 $end
 $statpt nstep=200 $end
 $guess guess=huckel $end
 $data
VM2 Rank=12     G=38.859            E=11.126            -TS=27.732              
C1
N    7.0       20.4906603889       18.7126326128       25.6757783583
H    1.0       20.5045696128       18.8053202160       26.6971364644
H    1.0       21.1578177417       19.3955674801       25.3042069790
H    1.0       20.8561432777       17.7807308426       25.4553780938
C    6.0       19.0990412833       18.9208046762       25.1108278212
H    1.0       18.7604264592       19.9187682300       25.4020756194
H    1.0       18.4375117133       18.1866634421       25.5787943462
C    6.0       19.0233016274       18.7739644386       23.5787686874
H    1.0       19.3623213844       17.7688987182       23.2978012600
H    1.0       17.9709236505       18.8484104910       23.2742232674
C    6.0       19.8505556518       19.8530433227       22.8361962897
H    1.0       20.9182388397       19.7319120654       23.0630819612
H    1.0       19.5641335348       20.8444607088       23.2139100932
C    6.0       19.6496032877       19.8361317433       21.3008404242
H    1.0       18.5857959968       19.9801956374       21.0666114586
H    1.0       20.1787117693       20.6978058597       20.8707606315
C    6.0       20.1621820122       18.5426499680       20.6242697349
H    1.0       19.5934327505       17.6751224846       20.9844115346
H    1.0       21.2125504349       18.3714144407       20.8983912437
C    6.0       20.0406557489       18.6177732384       19.0873186842
H    1.0       18.9960356649       18.7589889466       18.7806344966
H    1.0       20.4056054413       17.6919920067       18.6238822802
H    1.0       20.6309161355       19.4511266347       18.6844217638
 $end
$$$$
! Edit this basic GAMESS input file as needed.
! Conformer was generated by a VeraChem VCPack run 
! and contains     23 atoms.
!
 $contrl scftyp=rhf runtyp=optimize nzvar=0
  maxit=200 icharg=0 $end
 $system mwords=50 $end
 $basis gbasis=pm3 $end
 $statpt nstep=200 $end
 $guess guess=huckel $end
 $data
VM2 Rank=13     G=38.866            E=11.063            -TS=27.803              
C1
N    7.0       18.9992489226       18.0354743388       25.1602798297
H    1.0       18.4309891512       17.8523207479       24.3277341617
H    1.0       18.4353192371       18.6135887750       25.7914244727
H    1.0       19.1451597759       17.1352024550       25.6293933645
C    6.0       20.3122096897       18.7052762123       24.8054811351
H    1.0       20.8750939431       18.0271779540       24.1589508190
H    1.0       20.8785816058       18.8384159754       25.7312394452
C    6.0       20.1430042151       20.0709128823       24.1087952121
H    1.0       19.6169144118       20.7567838521       24.7860108597
H    1.0       21.1370619968       20.5072874143       23.9435722829
C    6.0       19.3850183751       20.0020283132       22.7591462822
H    1.0       19.2951699362       21.0206517936       22.3570136437
H    1.0       18.3585137181       19.6484633741       22.9245943571
C    6.0       20.0859290734       19.1037369231       21.7117333883
H    1.0       21.1199296711       19.4464489530       21.5676522100
H    1.0       20.1417194462       18.0704711781       22.0793440973
C    6.0       19.3458992752       19.1188318840       20.3557281541
H    1.0       19.2926755410       20.1477311003       19.9729962223
H    1.0       18.3101286059       18.7783795132       20.4942437503
C    6.0       20.0446904488       18.2207394463       19.3128359985
H    1.0       21.0731349973       18.5573468131       19.1278525741
H    1.0       19.5053926339       18.2448406023       18.3570072529
H    1.0       20.0822758735       17.1773279541       19.6520945050
 $end
$$$$
! Edit this basic GAMESS input file as needed.
! Conformer was generated by a VeraChem VCPack run 
! and contains     23 atoms.
!
 $contrl scftyp=rhf runtyp=optimize nzvar=0
  maxit=200 icharg=0 $end
 $system mwords=50 $end
 $basis gbasis=pm3 $end
 $statpt nstep=200 $end
 $guess guess=huckel $end
 $data
VM2 Rank=14     G=38.870            E=11.136            -TS=27.734              
C1
N    7.0       18.7756412532       19.5125222345       25.5460993650
H    1.0       18.1276068686       19.8020023806       24.8073302627
H    1.0       19.3159769414       20.3403530519       25.8170270523
H    1.0       18.2064246490       19.2485443890       26.3574456008
C    6.0       19.6728771266       18.3765529925       25.0947263270
H    1.0       19.0386243119       17.5216954595       24.8449929590
H    1.0       20.3042047109       18.0960144698       25.9422555412
C    6.0       20.5646376335       18.7306853862       23.8888237083
H    1.0       21.1967753223       19.5924160357       24.1413523412
H    1.0       21.2438241226       17.8886630707       23.6999030188
C    6.0       19.7487754061       19.0274074409       22.6081340534
H    1.0       19.0954625965       19.8942648363       22.7739702964
H    1.0       19.0964422163       18.1708980025       22.3924767154
C    6.0       20.6686220116       19.3074133822       21.3953495353
H    1.0       21.3655211085       20.1169421344       21.6530369715
H    1.0       21.2862891735       18.4230952218       21.1861139021
C    6.0       19.8969379721       19.7124519524       20.1160649454
H    1.0       20.6231692254       19.9930561612       19.3403748361
H    1.0       19.2957751069       20.6110632392       20.3132422835
C    6.0       18.9885085970       18.5899666112       19.5648020656
H    1.0       18.1696130914       18.3573922299       20.2567134902
H    1.0       19.5608705999       17.6703096910       19.3869008745
H    1.0       18.5377543963       18.8942303717       18.6112931713
 $end
$$$$
! Edit this basic GAMESS input file as needed.
! Conformer was generated by a VeraChem VCPack run 
! and contains     23 atoms.
!
 $contrl scftyp=rhf runtyp=optimize nzvar=0
  maxit=200 icharg=0 $end
 $system mwords=50 $end
 $basis gbasis=pm3 $end
 $statpt nstep=200 $end
 $guess guess=huckel $end
 $data
VM2 Rank=15     G=38.874            E=11.071            -TS=27.803              
C1
N    7.0       20.8033775893       18.7861591991       25.2427864127
H    1.0       20.7407139205       19.5728426000       25.8968335399
H    1.0       21.3966115457       19.0862955287       24.4633075540
H    1.0       21.3019902803       18.0326418007       25.7280107710
C    6.0       19.4352138904       18.3403827057       24.7655066535
H    1.0       18.8714844760       18.0032952818       25.6396423018
H    1.0       19.5705855353       17.4844130098       24.0994375159
C    6.0       18.6411219031       19.4460333296       24.0403073978
H    1.0       17.6472420706       19.0553757941       23.7844523648
H    1.0       18.4722201856       20.2805154622       24.7337928881
C    6.0       19.3266539433       19.9776636207       22.7564652862
H    1.0       20.2847015375       20.4496258652       23.0123730212
H    1.0       18.6997460015       20.7728925594       22.3298814283
C    6.0       19.5518604900       18.8815276356       21.6873321303
H    1.0       20.2157077821       18.1011804633       22.0826242123
H    1.0       18.5945734492       18.3959253803       21.4524721503
C    6.0       20.1658293775       19.4599180117       20.3930652702
H    1.0       21.1232201345       19.9484930581       20.6224355068
H    1.0       19.5044746531       20.2359038764       19.9826923563
C    6.0       20.3919428065       18.3653154977       19.3285368493
H    1.0       21.0779379015       17.5915766870       19.6972545015
H    1.0       20.8275709944       18.7950297740       18.4171607265
H    1.0       19.4460194108       17.8807094485       19.0535682953
 $end
$$$$
! Edit this basic GAMESS input file as needed.
! Conformer was generated by a VeraChem VCPack run 
! and contains     23 atoms.
!
 $contrl scftyp=rhf runtyp=optimize nzvar=0