$$$$
! Edit this basic GAMESS input file as needed.
! Conformer was generated by a VeraChem VCPack run 
! and contains     26 atoms.
!
 $contrl scftyp=rhf runtyp=optimize nzvar=0
  maxit=200 icharg=0 $end
 $system mwords=50 $end
 $basis gbasis=pm3 $end
 $statpt nstep=200 $end
 $guess guess=huckel $end
 $data
VM2 Rank=1      G=48.261            E=15.909            -TS=32.352              
C1
C    6.0       19.9052420576       19.3106543774       18.8162318403
H    1.0       20.2945394039       20.3369141828       18.7942564233
H    1.0       20.2786888902       18.7894590458       17.9251977069
H    1.0       18.8107838950       19.3584959947       18.7447011602
C    6.0       20.3457234401       18.5775995448       20.1010414976
H    1.0       21.4427189633       18.5157423358       20.1275437707
H    1.0       19.9704312751       17.5448508669       20.0783555286
C    6.0       19.8326675654       19.2912455397       21.3713904494
H    1.0       20.2083395884       20.3237315782       21.3883447436
H    1.0       18.7360161267       19.3526283447       21.3392440089
C    6.0       20.2719018430       18.5601574857       22.6601694521
H    1.0       21.3686241819       18.4989311121       22.6913083380
H    1.0       19.8961935415       17.5276669430       22.6421645690
C    6.0       19.7582874866       19.2745040098       23.9307797218
H    1.0       20.1339547717       20.3071341205       23.9492281085
H    1.0       18.6614430202       19.3359449087       23.9000079581
C    6.0       20.1968081810       18.5443018077       25.2192687556
H    1.0       21.2928323849       18.4854849884       25.2564167655
H    1.0       19.8187531846       17.5132652526       25.2071230883
C    6.0       19.6802385839       19.2637137151       26.4777028914
H    1.0       20.0676220309       20.2858648982       26.5026029008
H    1.0       18.5881247145       19.3101805812       26.4530588851
N    7.0       20.0901308425       18.5768235197       27.7644153917
H    1.0       19.7359452080       19.0719964838       28.5901411342
H    1.0       21.1094563375       18.5250166835       27.8621583725
H    1.0       19.7327987503       17.6171843555       27.8160694752
 $end
$$$$
! Edit this basic GAMESS input file as needed.
! Conformer was generated by a VeraChem VCPack run 
! and contains     26 atoms.
!
 $contrl scftyp=rhf runtyp=optimize nzvar=0
  maxit=200 icharg=0 $end
 $system mwords=50 $end
 $basis gbasis=pm3 $end
 $statpt nstep=200 $end
 $guess guess=huckel $end
 $data
VM2 Rank=2      G=48.509            E=16.054            -TS=32.455              
C1
C    6.0       20.1408036704       19.6498920139       19.0008440369
H    1.0       19.1347359084       20.0853363938       18.9420319598
H    1.0       20.8620850980       20.4696395913       19.1148962728
H    1.0       20.3477000423       19.1494308438       18.0459714160
C    6.0       20.2455606034       18.6516022472       20.1732662722
H    1.0       21.2510114495       18.2079322590       20.1855464268
H    1.0       19.5369812525       17.8266845507       20.0140402967
C    6.0       19.9586346883       19.3310140730       21.5306030390
H    1.0       20.6678350868       20.1561761552       21.6841061278
H    1.0       18.9536249856       19.7749435647       21.5126617172
C    6.0       20.0624807591       18.3343305576       22.7071507753
H    1.0       21.0677701082       17.8909295098       22.7245410964
H    1.0       19.3536378348       17.5091421958       22.5519326532
C    6.0       19.7748026815       19.0142351493       24.0648724102
H    1.0       20.4826415914       19.8408145479       24.2124211956
H    1.0       18.7683022836       19.4550980347       24.0483761332
C    6.0       19.8800795360       18.0150757979       25.2412752461
H    1.0       20.8922480962       17.5914034719       25.2861044083
H    1.0       19.1958737944       17.1740749098       25.0664599615
C    6.0       19.5295085807       18.6544345147       26.5987332440
H    1.0       18.5244210940       19.0826092593       26.5553798435
H    1.0       19.5389668790       17.8847573148       27.3753119560
N    7.0       20.4891294806       19.7484156464       27.0242549763
H    1.0       20.2355040748       20.1436980822       27.9362702575
H    1.0       20.5021272361       20.5238216617       26.3545440910
H    1.0       21.4503976275       19.4013946427       27.1053537596
 $end
$$$$
! Edit this basic GAMESS input file as needed.
! Conformer was generated by a VeraChem VCPack run 
! and contains     26 atoms.
!
 $contrl scftyp=rhf runtyp=optimize nzvar=0
  maxit=200 icharg=0 $end
 $system mwords=50 $end
 $basis gbasis=pm3 $end
 $statpt nstep=200 $end
 $guess guess=huckel $end
 $data
VM2 Rank=3      G=48.526            E=16.070            -TS=32.455              
C1
C    6.0       19.4925602491       19.2223345842       18.9791885522
H    1.0       19.4899605876       20.3198786573       18.9540272502
H    1.0       19.9156027720       18.8645662182       18.0315149071
H    1.0       18.4512220660       18.8790839937       19.0342708607
C    6.0       20.3139610571       18.6967986806       20.1755339852
H    1.0       21.3571803984       19.0276912153       20.0748859966
H    1.0       20.3264846788       17.5980138525       20.1545578370
C    6.0       19.7392248716       19.1862503636       21.5232734632
H    1.0       19.7266589549       20.2849076506       21.5385943594
H    1.0       18.6957696427       18.8551563993       21.6181340696
C    6.0       20.5592244838       18.6619467886       22.7237450358
H    1.0       21.6026794993       18.9926210950       22.6270871286
H    1.0       20.5710860784       17.5632558882       22.7079271303
C    6.0       19.9844375671       19.1524499543       24.0718757721
H    1.0       19.9753418044       20.2512264515       24.0887193329
H    1.0       18.9404566529       18.8234807992       24.1608861421
C    6.0       20.8061597848       18.6258658827       25.2722110386
H    1.0       21.8554000841       18.9281849319       25.1552610383
H    1.0       20.7958302419       17.5277887725       25.2829315926
C    6.0       20.2934158389       19.1583077772       26.6242343625
H    1.0       20.9605603198       18.8224506608       27.4227860415
H    1.0       20.2967587404       20.2516091923       26.6145108377
N    7.0       18.8920161477       18.6950459689       26.9709377903
H    1.0       18.5861000751       19.0558939980       27.8811843318
H    1.0       18.8295929699       17.6728265313       27.0179133104
H    1.0       18.2058246541       19.0092418683       26.2778575810
 $end
$$$$
! Edit this basic GAMESS input file as needed.
! Conformer was generated by a VeraChem VCPack run 
! and contains     26 atoms.
!
 $contrl scftyp=rhf runtyp=optimize nzvar=0
  maxit=200 icharg=0 $end
 $system mwords=50 $end
 $basis gbasis=pm3 $end
 $statpt nstep=200 $end
 $guess guess=huckel $end
 $data
VM2 Rank=4      G=48.731            E=16.280            -TS=32.451              
C1
C    6.0       19.7686361871       18.8534098502       18.9896778102
H    1.0       20.5472580567       19.5751886926       18.7103416567
H    1.0       19.7777971550       18.0440352106       18.2481429102
H    1.0       18.7957626310       19.3580563919       18.9257161410
C    6.0       20.0121758283       18.2958082732       20.4080858189
H    1.0       20.9760216028       17.7682057877       20.4318313223
H    1.0       19.2380292628       17.5526496044       20.6454266035
C    6.0       20.0041805910       19.4156250877       21.4721871331
H    1.0       20.7776471077       20.1571896149       21.2287443444
H    1.0       19.0396753246       19.9413176043       21.4434022548
C    6.0       20.2481260436       18.8612643593       22.8939996406
H    1.0       21.2140380824       18.3381530820       22.9220567890
H    1.0       19.4755197376       18.1166404614       23.1278399303
C    6.0       20.2382418932       19.9852232808       23.9577834424
H    1.0       20.9814753605       20.7472362091       23.6850686979
H    1.0       19.2616906747       20.4891880673       23.9558462710
C    6.0       20.5521238843       19.4745879703       25.3837251381
H    1.0       20.6146833365       20.3341860661       26.0642594893
H    1.0       21.5388780026       18.9927084143       25.3943318649
C    6.0       19.4900432652       18.4916508300       25.9111495546
H    1.0       18.5077251177       18.9716052425       25.9017810003
H    1.0       19.4489215293       17.6098621917       25.2666103635
N    7.0       19.7674723073       18.0214303484       27.3243914621
H    1.0       19.0494134408       17.3684359458       27.6566398276
H    1.0       19.7913483567       18.8017936465       27.9889852164
H    1.0       20.6679855170       17.5364953861       27.3959669101
 $end
$$$$
! Edit this basic GAMESS input file as needed.
! Conformer was generated by a VeraChem VCPack run 
! and contains     26 atoms.
!
 $contrl scftyp=rhf runtyp=optimize nzvar=0
  maxit=200 icharg=0 $end
 $system mwords=50 $end
 $basis gbasis=pm3 $end
 $statpt nstep=200 $end
 $guess guess=huckel $end
 $data
VM2 Rank=5      G=48.734            E=16.283            -TS=32.451              
C1
C    6.0       20.3709858303       19.2509806766       19.0098841755
H    1.0       19.4150923396       18.8294945652       18.6724515966
H    1.0       20.2929979541       20.3455215225       18.9761135237
H    1.0       21.1451768396       18.9460734437       18.2938499091
C    6.0       20.7212310084       18.7633684074       20.4317397272
H    1.0       21.6969360689       19.1736453625       20.7276984683
H    1.0       20.8257621506       17.6693059797       20.4264832841
C    6.0       19.6464405511       19.1797000664       21.4602635108
H    1.0       19.5440371662       20.2737593432       21.4604630900
H    1.0       18.6727832775       18.7694712611       21.1583781364
C    6.0       19.9935105371       18.6930994274       22.8854428665
H    1.0       20.9700534938       19.1016979840       23.1778057820
H    1.0       20.0931029076       17.5987970306       22.8843761599
C    6.0       18.9156215737       19.1127204400       23.9135918301
H    1.0       18.8363030637       20.2084214602       23.9415710442
H    1.0       17.9365270764       18.7388279758       23.5834224891
C    6.0       19.1951413228       18.5794493839       25.3383966157
H    1.0       19.2499580006       17.4828285193       25.3179039175
H    1.0       18.3493390066       18.8398747706       25.9885869074
C    6.0       20.4903954535       19.1515318707       25.9445342165
H    1.0       21.3465018363       18.8615313228       25.3299993338
H    1.0       20.4355583915       20.2432839529       25.9660567092
N    7.0       20.7476737230       18.6681497275       27.3571470578
H    1.0       21.6138839450       19.0602489682       27.7422940128
H    1.0       20.8363233806       17.6476771117       27.4016933532
H    1.0       19.9905634937       18.9334004026       27.9956204060
 $end
$$$$
! Edit this basic GAMESS input file as needed.
! Conformer was generated by a VeraChem VCPack run 
! and contains     26 atoms.
!
 $contrl scftyp=rhf runtyp=optimize nzvar=0
  maxit=200 icharg=0 $end
 $system mwords=50 $end
 $basis gbasis=pm3 $end
 $statpt nstep=200 $end
 $guess guess=huckel $end
 $data
VM2 Rank=6      G=48.849            E=16.386            -TS=32.463              
C1
C    6.0       19.4447773184       18.1621813989       19.5242329375
H    1.0       18.4488655238       18.6237810102       19.5137071541
H    1.0       19.6602228828       17.8057111146       18.5086287728
H    1.0       19.4104407003       17.2842589389       20.1811296342
C    6.0       20.5209046411       19.1726019083       19.9822461110
H    1.0       20.6012730312       19.9694816046       19.2296995394
H    1.0       21.5022544719       18.6788807079       20.0130294041
C    6.0       20.2154274517       19.8163863267       21.3562686548
H    1.0       20.9650777058       20.5959634753       21.5502084657
H    1.0       19.2430728328       20.3263157511       21.3142567043
C    6.0       20.2242066764       18.8044479467       22.5271085324
H    1.0       21.1784778165       18.2598770757       22.5339138097
H    1.0       19.4317579902       18.0584915748       22.3821785351
C    6.0       20.0185732686       19.5030001879       23.8903708634
H    1.0       20.8118437118       20.2475069420       24.0458503829
H    1.0       19.0658117550       20.0506901166       23.8823256573
C    6.0       20.0230476200       18.4950028881       25.0607060265
H    1.0       20.9757774114       17.9489210037       25.0748987400
H    1.0       19.2277895653       17.7522630185       24.9123728860
C    6.0       19.8178525678       19.2009697159       26.4125697499
H    1.0       20.6168209118       19.9301183968       26.5721556053
H    1.0       18.8624814682       19.7326931505       26.4089648538
N    7.0       19.8162104558       18.2444096275       27.5874971245
H    1.0       19.6781802897       18.7349415792       28.4778835351
H    1.0       20.7004873976       17.7310909675       27.6637283476
H    1.0       19.0681029468       17.5473660180       27.5118830288
 $end
$$$$
! Edit this basic GAMESS input file as needed.
! Conformer was generated by a VeraChem VCPack run 
! and contains     26 atoms.
!
 $contrl scftyp=rhf runtyp=optimize nzvar=0
  maxit=200 icharg=0 $end
 $system mwords=50 $end
 $basis gbasis=pm3 $end
 $statpt nstep=200 $end
 $guess guess=huckel $end
 $data
VM2 Rank=7      G=48.890            E=16.427            -TS=32.463              
C1
C    6.0       21.1080849913       19.2587998158       19.5798433280
H    1.0       21.0760100124       20.3558529074       19.6015545704
H    1.0       21.8972631389       18.9237977444       20.2642492615
H    1.0       21.3980772356       18.9515000875       18.5667242790
C    6.0       19.7359416396       18.6550652754       19.9560193889
H    1.0       19.8023140437       17.5580923055       19.9561962752
H    1.0       19.0075572706       18.9187457675       19.1764486574
C    6.0       19.2007575066       19.1473645608       21.3223779426
H    1.0       19.1162976091       20.2427994427       21.3100189196
H    1.0       18.1812784556       18.7603203977       21.4572498523
C    6.0       20.0722836876       18.7043480860       22.5220197121
H    1.0       21.0753962264       19.1424971707       22.4370571122
H    1.0       20.1973396348       17.6129439592       22.5011170279
C    6.0       19.4480524347       19.1268310838       23.8713088498
H    1.0       19.3195990115       20.2181163121       23.8908082805
H    1.0       18.4454534043       18.6870382975       23.9668136370
C    6.0       20.3176734646       18.6893430675       25.0705253894
H    1.0       21.3190588811       19.1315425788       24.9822710896
H    1.0       20.4444835765       17.5985459320       25.0570449636
C    6.0       19.6868681143       19.1145357784       26.4081809621
H    1.0       19.5738458160       20.2017771766       26.4328224448
H    1.0       18.6959580628       18.6632730938       26.5078549432
N    7.0       20.5113381614       18.7027123322       27.6107244271
H    1.0       20.0734980471       18.9954676610       28.4910952406
H    1.0       21.4488722316       19.1173353319       27.5915492682
H    1.0       20.6319893296       17.6857870420       27.6613358160
 $end
$$$$
! Edit this basic GAMESS input file as needed.
! Conformer was generated by a VeraChem VCPack run 
! and contains     26 atoms.
!
 $contrl scftyp=rhf runtyp=optimize nzvar=0
  maxit=200 icharg=0 $end
 $system mwords=50 $end
 $basis gbasis=pm3 $end
 $statpt nstep=200 $end
 $guess guess=huckel $end
 $data
VM2 Rank=8      G=48.924            E=16.474            -TS=32.451              
C1
C    6.0       20.1862677189       19.7827838803       19.1892263267
H    1.0       20.2154869878       18.9014358837       18.5353147398
H    1.0       19.1866199188       20.2305279126       19.1152520616
H    1.0       20.9113639138       20.5116194897       18.8044207436
C    6.0       20.5170864761       19.4031758767       20.6482486218
H    1.0       20.5184460694       20.3141173898       21.2612981266
H    1.0       21.5326519863       18.9858139152       20.6945453359
C    6.0       19.5049924487       18.3791533569       21.2142487353
H    1.0       18.4972015385       18.8168831368       21.2168125251
H    1.0       19.4619740758       17.5113151140       20.5416739021
C    6.0       19.8577430052       17.8796057922       22.6369001034
H    1.0       20.8594725947       17.4281341112       22.6300043836
H    1.0       19.1590040348       17.0752423544       22.9055169911
C    6.0       19.7904844749       18.9867706526       23.7163229041
H    1.0       20.5372990199       19.7634005630       23.5050661459
H    1.0       18.8055232055       19.4729276108       23.6835366278
C    6.0       20.0384102521       18.4224417190       25.1326375847
H    1.0       21.0226726871       17.9366881456       25.1698748472
H    1.0       19.2896985509       17.6520889168       25.3608243976
C    6.0       19.9735822417       19.5297746237       26.1992677300
H    1.0       20.7286189775       20.2912478504       25.9858510673
H    1.0       18.9893174607       20.0053768537       26.1768347946
N    7.0       20.2124333825       19.0152940986       27.6041479941
H    1.0       20.1649007839       19.7685939651       28.2989381059
H    1.0       21.1354089659       18.5791431794       27.6997294482
H    1.0       19.5170509284       18.3131503800       27.8774391398
 $end
$$$$
! Edit this basic GAMESS input file as needed.
! Conformer was generated by a VeraChem VCPack run 
! and contains     26 atoms.
!
 $contrl scftyp=rhf runtyp=optimize nzvar=0
  maxit=200 icharg=0 $end
 $system mwords=50 $end
 $basis gbasis=pm3 $end
 $statpt nstep=200 $end
 $guess guess=huckel $end
 $data
VM2 Rank=9      G=48.926            E=16.473            -TS=32.453              
C1
C    6.0       20.8451586195       19.8695875862       19.4335528387
H    1.0       21.8101872629       20.1733624409       19.8597757688
H    1.0       21.0194531256       19.5524670499       18.3971646740
H    1.0       20.1891200607       20.7495525116       19.4108853272
C    6.0       20.2113750184       18.7261729964       20.2540008887
H    1.0       20.8742505268       17.8498221351       20.2307831991
H    1.0       19.2660501118       18.4211963493       19.7836215582
C    6.0       19.9544667083       19.1466936132       21.7181197936
H    1.0       20.9042150450       19.4572148436       22.1727556673
H    1.0       19.2900213376       20.0215756808       21.7360923673
C    6.0       19.3225268583       17.9994078002       22.5425892121
H    1.0       20.0091320922       17.1420582390       22.5719052783
H    1.0       18.4148794433       17.6499132869       22.0312803005
C    6.0       18.9435306143       18.4100532288       23.9868014159
H    1.0       18.2433030998       19.2564551220       23.9573909306
H    1.0       18.4003544540       17.5770381423       24.4545223697
C    6.0       20.1622179301       18.7718487224       24.8679856158
H    1.0       20.6724229469       19.6551818412       24.4638601869
H    1.0       20.8854022668       17.9455512652       24.8563234812
C    6.0       19.7380877473       19.0591821955       26.3190628692
H    1.0       19.0300518111       19.8921382934       26.3374962822
H    1.0       19.2445886101       18.1787952728       26.7395831040
N    7.0       20.9036365038       19.4160538573       27.2188873661
H    1.0       20.5989978361       19.6030425469       28.1804900849
H    1.0       21.3952020674       20.2548384597       26.8933132304
H    1.0       21.5948967401       18.6603365706       27.2666926439
 $end
$$$$
! Edit this basic GAMESS input file as needed.
! Conformer was generated by a VeraChem VCPack run 
! and contains     26 atoms.
!
 $contrl scftyp=rhf runtyp=optimize nzvar=0
  maxit=200 icharg=0 $end
 $system mwords=50 $end
 $basis gbasis=pm3 $end
 $statpt nstep=200 $end
 $guess guess=huckel $end
 $data
VM2 Rank=10     G=48.931            E=16.480            -TS=32.451              
C1
C    6.0       19.3438594024       19.2271650717       19.1611071698
H    1.0       20.1724358689       18.8732547740       18.5338617775
H    1.0       18.4077119032       18.8600723276       18.7207560624
H    1.0       19.3282600922       20.3241252944       19.1201371149
C    6.0       19.4948819972       18.7287799274       20.6140672887
H    1.0       19.4775805724       17.6300200867       20.6257440596
H    1.0       18.6290365563       19.0675547303       21.1981799873
C    6.0       20.8064046421       19.2376119594       21.2577374738
H    1.0       21.6517794201       18.9558208026       20.6148627151
H    1.0       20.7997194510       20.3357524182       21.2937503702
C    6.0       21.0606178003       18.6730917956       22.6771065904
H    1.0       22.0612258996       18.9897633379       23.0025176766
H    1.0       21.0825048919       17.5752348651       22.6374878261
C    6.0       20.0197527990       19.1380185690       23.7239762592
H    1.0       19.9612957516       20.2353564950       23.7221405576
H    1.0       19.0230725232       18.7645235867       23.4544487750
C    6.0       20.3749083818       18.6444400774       25.1438794597
H    1.0       21.3657801729       19.0216352631       25.4301991871
H    1.0       20.4330677336       17.5477667117       25.1501717278
C    6.0       19.3335490817       19.1075853629       26.1778798194
H    1.0       19.2840394830       20.1998082099       26.1866968342
H    1.0       18.3476595315       18.7206401059       25.9062853097
N    7.0       19.6470258957       18.6423072366       27.5852459391
H    1.0       18.9414031269       18.9614838981       28.2580577771
H    1.0       20.5522267783       18.9959800297       27.9120162446
H    1.0       19.6809368690       17.6196833234       27.6511070086
 $end
$$$$
! Edit this basic GAMESS input file as needed.
! Conformer was generated by a VeraChem VCPack run 
! and contains     26 atoms.
!
 $contrl scftyp=rhf runtyp=optimize nzvar=0
  maxit=200 icharg=0 $end
 $system mwords=50 $end
 $basis gbasis=pm3 $end
 $statpt nstep=200 $end
 $guess guess=huckel $end
 $data
VM2 Rank=11     G=48.946            E=16.493            -TS=32.453              
C1
C    6.0       18.9940021281       18.6486856150       19.3717876281
H    1.0       18.3164529977       17.8687583940       19.7430905870
H    1.0       18.4441564727       19.5987118405       19.3528258773
H    1.0       19.2650394586       18.3955691557       18.3385805318
C    6.0       20.2549742608       18.7551115385       20.2554415173
H    1.0       20.9279478369       19.5178166458       19.8391558326
H    1.0       20.8009370592       17.8016369835       20.2281553012
C    6.0       19.9015324570       19.1116882339       21.7164074683
H    1.0       19.3578724486       20.0662405708       21.7385819019
H    1.0       19.2223782961       18.3476451299       22.1165664747
C    6.0       21.1651416149       19.2146172319       22.6041430434
H    1.0       21.8662770509       19.9262671067       22.1465723540
H    1.0       21.6817166766       18.2451177066       22.6277217697
C    6.0       20.8696351190       19.6802328675       24.0511748440
H    1.0       21.8263026044       19.8362568594       24.5690197077
H    1.0       20.3686528594       20.6580268057       24.0284698803
C    6.0       20.0176507581       18.6765186418       24.8631245069
H    1.0       20.4930402899       17.6868185438       24.8431323907
H    1.0       19.0247558655       18.5686923184       24.4087734640
C    6.0       19.8528104837       19.1347609024       26.3228897193
H    1.0       20.8356680025       19.2278298674       26.7927721999
H    1.0       19.3651061469       20.1129977816       26.3487352940
N    7.0       19.0252531784       18.1773849691       27.1560312728
H    1.0       18.0769224303       18.0668189836       26.7823479447
H    1.0       18.9284734427       18.5013121191       28.1246145711
H    1.0       19.4454895208       17.2429640859       27.1946713253
 $end
$$$$
! Edit this basic GAMESS input file as needed.
! Conformer was generated by a VeraChem VCPack run 
! and contains     26 atoms.
!
 $contrl scftyp=rhf runtyp=optimize nzvar=0
  maxit=200 icharg=0 $end
 $system mwords=50 $end
 $basis gbasis=pm3 $end
 $statpt nstep=200 $end
 $guess guess=huckel $end
 $data
VM2 Rank=12     G=49.089            E=16.523            -TS=32.566              
C1
C    6.0       20.4624306197       19.6713887116       19.5222693286
H    1.0       19.6843040414       20.4456400350       19.5133675309
H    1.0       21.3148931528       20.0466214256       20.1018783091
H    1.0       20.8041995715       19.5271412992       18.4891561298
C    6.0       19.9205131533       18.3453805285       20.1026243831
H    1.0       20.7250205247       17.5971539938       20.1286658633
H    1.0       19.1537211473       17.9486416670       19.4226058763
C    6.0       19.3019215611       18.4982639127       21.5131865145
H    1.0       18.4848331243       19.2319984146       21.4777186756
H    1.0       18.8451777856       17.5406456942       21.7989392415
C    6.0       20.3282537031       18.9116170034       22.5952301608
H    1.0       20.7423773374       19.9005188550       22.3586672672
H    1.0       21.1688651162       18.2040861415       22.5927347461
C    6.0       19.6922907908       18.9524213614       24.0032559533
H    1.0       18.8511979629       19.6596900510       24.0050352183
H    1.0       19.2782648520       17.9637611448       24.2422437889
C    6.0       20.7174067231       19.3683769979       25.0847013134
H    1.0       21.1528013200       20.3407219709       24.8183432121
H    1.0       21.5478051703       18.6502834351       25.1123756623
C    6.0       20.0897611194       19.4833633708       26.4872670650
H    1.0       20.8382892336       19.8599233470       27.1897434138
H    1.0       19.2587120592       20.1933692731       26.4615899364
N    7.0       19.5684223294       18.1681881136       27.0324652814
H    1.0       19.1693946836       18.2766964184       27.9712619183
H    1.0       20.3102716894       17.4640314949       27.1021036719
H    1.0       18.8324772019       17.7755014750       26.4373877413
 $end
$$$$
! Edit this basic GAMESS input file as needed.
! Conformer was generated by a VeraChem VCPack run 
! and contains     26 atoms.
!
 $contrl scftyp=rhf runtyp=optimize nzvar=0
  maxit=200 icharg=0 $end
 $system mwords=50 $end
 $basis gbasis=pm3 $end
 $statpt nstep=200 $end
 $guess guess=huckel $end
 $data
VM2 Rank=13     G=49.103            E=16.466            -TS=32.638              
C1
C    6.0       20.5613079044       19.3878394926       19.2124285948
H    1.0       19.5326651131       19.4828784848       18.8408052348
H    1.0       20.9774854348       20.3970514083       19.3287179587
H    1.0       21.1497105914       18.8669454553       18.4459468558
C    6.0       20.5995413686       18.6147274788       20.5476972466
H    1.0       21.6426853061       18.5063448961       20.8763576127
H    1.0       20.2089918935       17.5992293639       20.3922756793
C    6.0       19.7780990494       19.3271378898       21.6449710940
H    1.0       20.1707504758       20.3423320825       21.7952757866
H    1.0       18.7370592202       19.4354147032       21.3104060571
C    6.0       19.8136799780       18.5556460284       22.9835345852
H    1.0       20.8570352577       18.4448695855       23.3076329465
H    1.0       19.4176547970       17.5418904011       22.8324370913
C    6.0       18.9915554465       19.2725121837       24.0812756974
H    1.0       19.3987434005       20.2777895099       24.2536391670
H    1.0       17.9628623369       19.4176695477       23.7233990701
C    6.0       18.9420023857       18.4876784000       25.4162163137
H    1.0       18.4533256689       17.5187255964       25.2483100190
H    1.0       18.3096140670       19.0291203877       26.1322725154
C    6.0       20.3253490343       18.2402590949       26.0515414261
H    1.0       20.2039662145       17.6608783022       26.9708286023
H    1.0       20.9493183615       17.6612431590       25.3659452987
N    7.0       21.0694648332       19.5131994317       26.4033350421
H    1.0       20.5443879621       20.0888666517       27.0695337204
H    1.0       21.2429707649       20.0901570327       25.5744740231
H    1.0       21.9810722303       19.3163090881       26.8304056438
 $end
$$$$
! Edit this basic GAMESS input file as needed.
! Conformer was generated by a VeraChem VCPack run 
! and contains     26 atoms.
!
 $contrl scftyp=rhf runtyp=optimize nzvar=0
  maxit=200 icharg=0 $end
 $system mwords=50 $end
 $basis gbasis=pm3 $end
 $statpt nstep=200 $end
 $guess guess=huckel $end
 $data
VM2 Rank=14     G=49.116            E=16.550            -TS=32.566              
C1
C    6.0       19.4649740894       18.1894712934       19.6037089400
H    1.0       19.7245668410       17.2824139904       20.1634438653
H    1.0       18.3892112959       18.3722214227       19.7235254693
H    1.0       19.6547943328       17.9870640555       18.5416665505
C    6.0       20.2917003460       19.4059871260       20.0784595994
H    1.0       20.0868823845       20.2551343820       19.4115291212
H    1.0       21.3637630911       19.1867779420       19.9765436065
C    6.0       19.9804119836       19.8313956352       21.5337358835
H    1.0       20.5242233664       20.7616431677       21.7487550642
H    1.0       18.9117776664       20.0698569181       21.6253954326
C    6.0       20.3694387546       18.7641946910       22.5848050391
H    1.0       21.4255199113       18.4901592312       22.4551692297
H    1.0       19.7806865978       17.8511919314       22.4259611655
C    6.0       20.1399807221       19.2694280642       24.0272682888
H    1.0       20.7334490969       20.1786600868       24.1967456999