$$$$
! Edit this basic GAMESS input file as needed.
! Conformer was generated by a VeraChem VCPack run 
! and contains     26 atoms.
!
 $contrl scftyp=rhf runtyp=optimize nzvar=0
  maxit=200 icharg=0 $end
 $system mwords=50 $end
 $basis gbasis=pm3 $end
 $statpt nstep=200 $end
 $guess guess=huckel $end
 $data
VM2 Rank=1      G=75.466            E=43.303            -TS=32.163              
C1
N    7.0       19.9837473480       18.6238236219       26.4860900028
H    1.0       20.8629308313       18.0856019725       26.5333387133
H    1.0       19.2304950871       17.9185800555       26.4752221800
C    6.0       19.9443337770       19.4506906700       25.2166121401
H    1.0       20.7598678468       20.1767511071       25.2639661657
H    1.0       18.9976664251       19.9966678839       25.2013948690
C    6.0       20.0760500502       18.6065566124       23.9359323037
H    1.0       21.0206873782       18.0470921533       23.9630365580
H    1.0       19.2643899630       17.8676091870       23.9007358759
C    6.0       20.0306804182       19.4900390609       22.6695015920
H    1.0       20.8409033333       20.2314204618       22.7110446830
H    1.0       19.0866599695       20.0523887967       22.6490082515
C    6.0       20.1618226178       18.6528389517       21.3767219696
H    1.0       21.1057467594       18.0905836122       21.3969555681
H    1.0       19.3517076870       17.9115541819       21.3349774028
C    6.0       20.1163457243       19.5367320564       20.1102813226
H    1.0       20.9265803037       20.2785150310       20.1459829427
H    1.0       19.1726999147       20.0996220720       20.0840980606
C    6.0       20.2474305391       18.6973483082       18.8214276354
H    1.0       21.1981338797       18.1487103861       18.8023786396
H    1.0       20.2130465634       19.3421064219       17.9336584387
H    1.0       19.4305098886       17.9685085952       18.7399626251
C    6.0       19.8475895253       19.5319707184       27.7004330336
H    1.0       18.8960983998       20.0654233121       27.6451039378
H    1.0       19.8774502230       18.9240973729       28.6074873068
H    1.0       20.6730362648       20.2471922798       27.7084148624
 $end
$$$$
! Edit this basic GAMESS input file as needed.
! Conformer was generated by a VeraChem VCPack run 
! and contains     26 atoms.
!
 $contrl scftyp=rhf runtyp=optimize nzvar=0
  maxit=200 icharg=0 $end
 $system mwords=50 $end
 $basis gbasis=pm3 $end
 $statpt nstep=200 $end
 $guess guess=huckel $end
 $data
VM2 Rank=2      G=75.757            E=43.423            -TS=32.334              
C1
N    7.0       20.3922788362       19.0035263078       26.6222552246
H    1.0       20.8628837917       19.5627258147       27.3515185401
H    1.0       20.8761661442       18.0923474834       26.6321898303
C    6.0       20.5689295497       19.6776019135       25.2718395255
H    1.0       21.6303097484       19.9154652244       25.1643014584
H    1.0       20.0110511301       20.6172140660       25.2890835620
C    6.0       20.1224030718       18.8244832406       24.0670803076
H    1.0       20.6514948966       17.8624943515       24.0861139091
H    1.0       19.0499843922       18.6039202055       24.1454578649
C    6.0       20.4033757510       19.5462173095       22.7304686391
H    1.0       21.4768162952       19.7686996495       22.6529351167
H    1.0       19.8774502049       20.5111278595       22.7181187203
C    6.0       19.9614870937       18.7009341106       21.5140698183
H    1.0       20.4871488283       17.7360247439       21.5264573448
H    1.0       18.8881132138       18.4785979797       21.5912783844
C    6.0       20.2426084250       19.4230755953       20.1774079756
H    1.0       21.3157198478       19.6455650878       20.0941837986
H    1.0       19.7168476625       20.3880806217       20.1590684660
C    6.0       19.8000681664       18.5760786400       18.9651205076
H    1.0       20.0076622906       19.1051807368       18.0259808648
H    1.0       18.7231922326       18.3659124668       19.0021412587
H    1.0       20.3345975795       17.6176032353       18.9367415674
C    6.0       18.9168491063       18.8380828826       26.9687580016
H    1.0       18.4413732736       18.1919913742       26.2281239685
H    1.0       18.8312038356       18.3855997065       27.9592220616
H    1.0       18.4361779887       19.8187978240       26.9687586703
 $end
$$$$
! Edit this basic GAMESS input file as needed.
! Conformer was generated by a VeraChem VCPack run 
! and contains     26 atoms.
!
 $contrl scftyp=rhf runtyp=optimize nzvar=0
  maxit=200 icharg=0 $end
 $system mwords=50 $end
 $basis gbasis=pm3 $end
 $statpt nstep=200 $end
 $guess guess=huckel $end
 $data
VM2 Rank=3      G=75.762            E=43.429            -TS=32.333              
C1
N    7.0       19.4983225261       18.9125059440       26.5905897279
H    1.0       19.2083349528       17.9225071435       26.5731546041
H    1.0       18.8748831771       19.3603070603       27.2810941000
C    6.0       19.2845401073       19.5467720027       25.2263276674
H    1.0       19.6392068885       20.5793219609       25.2758422166
H    1.0       18.2071889943       19.5668171296       25.0430641574
C    6.0       19.9768957561       18.8095980748       24.0619147956
H    1.0       21.0635839305       18.8088354691       24.2167749465
H    1.0       19.6522428870       17.7606938251       24.0506898827
C    6.0       19.6507238637       19.4695403313       22.7038064132
H    1.0       19.9711771914       20.5206352199       22.7214709578
H    1.0       18.5625971947       19.4719173010       22.5496676693
C    6.0       20.3378611594       18.7392572544       21.5274093359
H    1.0       21.4259212512       18.7371047841       21.6811817177
H    1.0       20.0177451867       17.6881909085       21.5098448213
C    6.0       20.0113699206       19.3994881883       20.1692234725
H    1.0       20.3318278248       20.4507565605       20.1809034595
H    1.0       18.9239661646       19.4017359633       20.0094004861
C    6.0       20.6993975114       18.6677557457       18.9970179965
H    1.0       21.7912366561       18.6787670321       19.1108952162
H    1.0       20.4557054943       19.1508084103       18.0418734058
H    1.0       20.3724191883       17.6214185828       18.9381463596
C    6.0       20.9488891554       19.0450824589       27.0407105909
H    1.0       21.2210369713       20.1024707874       27.0673639648
H    1.0       21.0543283681       18.6120776670       28.0379484628
H    1.0       21.5953895224       18.5132498779       26.3398227028
 $end
$$$$
! Edit this basic GAMESS input file as needed.
! Conformer was generated by a VeraChem VCPack run 
! and contains     26 atoms.
!
 $contrl scftyp=rhf runtyp=optimize nzvar=0
  maxit=200 icharg=0 $end
 $system mwords=50 $end
 $basis gbasis=pm3 $end
 $statpt nstep=200 $end
 $guess guess=huckel $end
 $data
VM2 Rank=4      G=75.941            E=43.686            -TS=32.255              
C1
N    7.0       20.5559031905       19.2936699264       25.9474159848
H    1.0       20.9607234406       20.0234700777       25.3418792675
H    1.0       21.2649755364       18.5452867841       25.9905182203
C    6.0       19.2732283556       18.7625118153       25.3370372873
H    1.0       18.5524876628       19.5832064641       25.2990543242
H    1.0       18.8814339525       17.9952859972       26.0097094464
C    6.0       19.4518504417       18.1634211729       23.9280382568
H    1.0       20.1816815875       17.3438262630       23.9677785699
H    1.0       18.4975266322       17.7176306339       23.6174267139
C    6.0       19.8904854511       19.2154261813       22.8816235458
H    1.0       20.8629010402       19.6407995217       23.1634534728
H    1.0       19.1699009287       20.0451771612       22.8729553364
C    6.0       19.9934401574       18.6072540331       21.4643198339
H    1.0       20.7114432862       17.7754229741       21.4726164994
H    1.0       19.0215743786       18.1846690112       21.1737692312
C    6.0       20.4320943258       19.6554742232       20.4173757850
H    1.0       21.4055548686       20.0793134571       20.7014656649
H    1.0       19.7156905755       20.4888878038       20.4037796309
C    6.0       20.5331931844       19.0444852707       19.0033948605
H    1.0       21.2682752158       18.2295277864       18.9769285059
H    1.0       20.8457068486       19.8034741963       18.2744944332
H    1.0       19.5652738941       18.6424571670       18.6767319838
C    6.0       20.2778048935       19.8477573771       27.3377944458
H    1.0       21.2087641677       20.2268530488       27.7652596106
H    1.0       19.5495208348       20.6582242654       27.2623676926
H    1.0       19.8799497419       19.0502312348       27.9691436296
 $end
$$$$
! Edit this basic GAMESS input file as needed.
! Conformer was generated by a VeraChem VCPack run 
! and contains     26 atoms.
!
 $contrl scftyp=rhf runtyp=optimize nzvar=0
  maxit=200 icharg=0 $end
 $system mwords=50 $end
 $basis gbasis=pm3 $end
 $statpt nstep=200 $end
 $guess guess=huckel $end
 $data
VM2 Rank=5      G=75.942            E=43.687            -TS=32.255              
C1
N    7.0       19.3272356298       19.1676904204       25.9039523123
H    1.0       18.7833643294       18.2908103444       25.9026502303
H    1.0       18.8262433577       19.8046365297       25.2664013823
C    6.0       20.7304494145       18.9120255800       25.3886191484
H    1.0       21.2216354877       18.2353898773       26.0925561626
H    1.0       21.2706661574       19.8620630847       25.3952394480
C    6.0       20.7760243150       18.2992507313       23.9749259339
H    1.0       21.8202530955       18.0584287844       23.7350648193
H    1.0       20.2265600040       17.3484472478       23.9694122724
C    6.0       20.2075341287       19.2479331907       22.8928335863
H    1.0       20.7437129460       20.2065950905       22.9286510756
H    1.0       19.1517778633       19.4652722105       23.1028464772
C    6.0       20.3294947087       18.6416990848       21.4762061734
H    1.0       21.3847530088       18.4269900580       21.2574595992
H    1.0       19.7962400609       17.6815525503       21.4401811610
C    6.0       19.7618795871       19.5867229951       20.3936083412
H    1.0       20.2935782095       20.5481564831       20.4242676812
H    1.0       18.7052390680       19.8023292594       20.6057357710
C    6.0       19.8861113509       18.9781203510       18.9804423761
H    1.0       20.9359026798       18.7830437463       18.7253215740
H    1.0       19.4780801973       19.6632097129       18.2259968722
H    1.0       19.3352292248       18.0312644455       18.9083753406
C    6.0       19.3892708653       19.7565576468       27.3064121285
H    1.0       19.9416499199       20.6983226328       27.2763928125
H    1.0       18.3732181413       19.9360178245       27.6649589702
H    1.0       19.8953168611       19.0516540897       27.9697121943
 $end
$$$$
! Edit this basic GAMESS input file as needed.
! Conformer was generated by a VeraChem VCPack run 
! and contains     26 atoms.
!
 $contrl scftyp=rhf runtyp=optimize nzvar=0
  maxit=200 icharg=0 $end
 $system mwords=50 $end
 $basis gbasis=pm3 $end
 $statpt nstep=200 $end
 $guess guess=huckel $end
 $data
VM2 Rank=6      G=76.026            E=43.766            -TS=32.260              
C1
N    7.0       19.9281407683       18.8063458588       26.2895486815
H    1.0       20.7993605650       19.0417983594       26.7899275232
H    1.0       19.8671019053       17.7765581991       26.3144898626
C    6.0       20.0011326553       19.2913979653       24.8557315013
H    1.0       20.0753384448       20.3816231083       24.8738522917
H    1.0       19.0647520823       19.0175586012       24.3639425864
C    6.0       21.1920916518       18.7039247744       24.0742062076
H    1.0       22.1234579340       18.9486492986       24.6020267679
H    1.0       21.1186054185       17.6083442429       24.0576374069
C    6.0       21.2798678734       19.2409719386       22.6260644735
H    1.0       22.1973003154       18.8533845871       22.1617589286
H    1.0       21.3809672284       20.3350637567       22.6466041875
C    6.0       20.0626304269       18.8451141969       21.7557079574
H    1.0       19.9445000771       17.7526822245       21.7645491406
H    1.0       19.1428789385       19.2680389195       22.1814694005
C    6.0       20.2162637568       19.3333130580       20.2978910279
H    1.0       21.1299030033       18.9090738896       19.8582645732
H    1.0       20.3355494750       20.4258129157       20.2830738631
C    6.0       19.0011322442       18.9392826405       19.4312093500
H    1.0       18.8758996513       17.8491079018       19.3989991354
H    1.0       19.1289511091       19.2939925386       18.4002535420
H    1.0       18.0754684952       19.3781746732       19.8258165847
C    6.0       18.7267406233       19.4296495675       26.9866408008
H    1.0       17.8151878129       19.1396023021       26.4594796243
H    1.0       18.6859214175       19.0723156611       28.0180430853
H    1.0       18.8300314922       20.5169382410       26.9768355021
 $end
$$$$
! Edit this basic GAMESS input file as needed.
! Conformer was generated by a VeraChem VCPack run 
! and contains     26 atoms.
!
 $contrl scftyp=rhf runtyp=optimize nzvar=0
  maxit=200 icharg=0 $end
 $system mwords=50 $end
 $basis gbasis=pm3 $end
 $statpt nstep=200 $end
 $guess guess=huckel $end
 $data
VM2 Rank=7      G=76.057            E=43.796            -TS=32.260              
C1
N    7.0       20.0150596430       18.8152972855       26.2926824805
H    1.0       20.2814839154       17.8190606238       26.3293154486
H    1.0       19.0813216529       18.8658676815       26.7290502875
C    6.0       19.9460384293       19.2856878660       24.8537929358
H    1.0       20.9505914871       19.2106718129       24.4308267217
H    1.0       19.6514876166       20.3381330174       24.8587629910
C    6.0       18.9564994578       18.4747697314       23.9950086105
H    1.0       19.2513924962       17.4169426975       23.9914353099
H    1.0       17.9602485275       18.5219172106       24.4545615972
C    6.0       18.8633465201       18.9933694300       22.5404952393
H    1.0       18.5416774714       20.0441674550       22.5461440662
H    1.0       18.0781445490       18.4314589314       22.0158993520
C    6.0       20.1933592261       18.8584166525       21.7602737720
H    1.0       20.9763886649       19.4556124713       22.2463848312
H    1.0       20.5292323059       17.8124639035       21.7850399554
C    6.0       20.0464706157       19.3160515087       20.2918851817
H    1.0       19.7099150720       20.3618941816       20.2610815621
H    1.0       19.2706141566       18.7189401408       19.7923941076
C    6.0       21.3737787977       19.1823775173       19.5151433517
H    1.0       21.7189333588       18.1403495059       19.4993962631
H    1.0       22.1615790584       19.7965640560       19.9704882706
H    1.0       21.2492690368       19.5114424654       18.4753160822
C    6.0       21.0134473103       19.6640300086       27.0677184285
H    1.0       21.9995122461       19.5683707126       26.6078493878
H    1.0       20.6930383000       20.7079078819       27.0428227392
H    1.0       21.0533944006       19.3150364373       28.1020068276
 $end
$$$$
! Edit this basic GAMESS input file as needed.
! Conformer was generated by a VeraChem VCPack run 
! and contains     26 atoms.
!
 $contrl scftyp=rhf runtyp=optimize nzvar=0
  maxit=200 icharg=0 $end
 $system mwords=50 $end
 $basis gbasis=pm3 $end
 $statpt nstep=200 $end
 $guess guess=huckel $end
 $data
VM2 Rank=8      G=76.060            E=43.581            -TS=32.479              
C1
N    7.0       19.5898195241       19.7658581833       26.0203330796
H    1.0       18.9698828575       19.9958381150       26.8132255514
H    1.0       19.4484217600       20.5277565258       25.3404462121
C    6.0       19.1668791214       18.4374401405       25.4125137054
H    1.0       18.0906928303       18.4906048898       25.2291595754
H    1.0       19.3418678159       17.6608426578       26.1613657619
C    6.0       19.8813948503       18.0563993082       24.0973357773
H    1.0       20.9579564648       17.9415834519       24.2781759741
H    1.0       19.5152926570       17.0713111736       23.7791049941
C    6.0       19.6408678041       19.0827826599       22.9649335901
H    1.0       20.0423800182       20.0618941115       23.2586214711
H    1.0       18.5604661092       19.2128649230       22.8117716611
C    6.0       20.3006647699       18.6403401825       21.6390444161
H    1.0       21.3805261413       18.5069095507       21.7927235471
H    1.0       19.8998811498       17.6628218363       21.3368516450
C    6.0       20.0645455432       19.6653012341       20.5072748951
H    1.0       20.4664109614       20.6445113104       20.8032881482
H    1.0       18.9854857929       19.8007711284       20.3483214624
C    6.0       20.7246847619       19.2199085505       19.1848884827
H    1.0       20.3179612730       18.2586789366       18.8445728892
H    1.0       21.8104444896       19.1089418498       19.3032553897
H    1.0       20.5461868087       19.9598927949       18.3939497541
C    6.0       21.0391436251       19.7219697411       26.4906760537
H    1.0       21.1549223876       18.9185405245       27.2213505614
H    1.0       21.6913997389       19.5411555656       25.6339125433
H    1.0       21.2945492881       20.6789259178       26.9511622803
 $end
$$$$
! Edit this basic GAMESS input file as needed.
! Conformer was generated by a VeraChem VCPack run 
! and contains     26 atoms.
!
 $contrl scftyp=rhf runtyp=optimize nzvar=0
  maxit=200 icharg=0 $end
 $system mwords=50 $end
 $basis gbasis=pm3 $end
 $statpt nstep=200 $end
 $guess guess=huckel $end
 $data
VM2 Rank=9      G=76.098            E=43.619            -TS=32.479              
C1
N    7.0       20.1694425551       19.8255697970       26.0408541744
H    1.0       20.1998262523       20.6051510689       25.3670149465
H    1.0       20.6726634716       20.1712827170       26.8734045032
C    6.0       20.8954090822       18.6155077451       25.4736414890
H    1.0       20.8303050273       17.8141688337       26.2139940572
H    1.0       21.9483562365       18.8879868298       25.3655711031
C    6.0       20.3671305360       18.1064829248       24.1145143116
H    1.0       20.9474184769       17.2188582281       23.8297546633
H    1.0       19.3265267783       17.7736362359       24.2204739288
C    6.0       20.4722661333       19.1684682287       22.9943419552
H    1.0       21.5115623940       19.5169050833       22.9162200033
H    1.0       19.8602580306       20.0431751495       23.2521409523
C    6.0       20.0108229834       18.6105122972       21.6287587369
H    1.0       20.6223546882       17.7372433547       21.3624494709
H    1.0       18.9726792242       18.2589542228       21.7074220708
C    6.0       20.1120205761       19.6701769070       20.5089053132
H    1.0       21.1493306464       20.0236266576       20.4249487763
H    1.0       19.4994915486       20.5449179534       20.7689237230
C    6.0       19.6506975799       19.1092079117       19.1467925015
H    1.0       19.7298280454       19.8756693491       18.3649381310
H    1.0       18.6046870197       18.7787120863       19.1895893633
H    1.0       20.2673925453       18.2533508725       18.8428251932
C    6.0       18.7302105540       19.4840741885       26.4091915182
H    1.0       18.7297652791       18.6686497550       27.1357387733
H    1.0       18.2537798013       20.3656194360       26.8438600568
H    1.0       18.1898657626       19.1804117578       25.5103078937
 $end
$$$$
! Edit this basic GAMESS input file as needed.
! Conformer was generated by a VeraChem VCPack run 
! and contains     26 atoms.
!
 $contrl scftyp=rhf runtyp=optimize nzvar=0
  maxit=200 icharg=0 $end
 $system mwords=50 $end
 $basis gbasis=pm3 $end
 $statpt nstep=200 $end
 $guess guess=huckel $end
 $data
VM2 Rank=10     G=76.141            E=43.869            -TS=32.272              
C1
N    7.0       19.9281313414       18.7435363800       26.4134778721
H    1.0       20.5508331085       17.9223245272       26.4655768369
H    1.0       18.9719224838       18.3699460598       26.5181693659
C    6.0       20.0776343857       19.4287948147       25.0700220496
H    1.0       21.1023839595       19.8014864102       24.9959690550
H    1.0       19.3979006627       20.2844574201       25.0526158115
C    6.0       19.7756675062       18.5031230197       23.8775439457
H    1.0       20.4497102108       17.6366282225       23.9080179332
H    1.0       18.7509360418       18.1180477920       23.9651562374
C    6.0       19.9409283023       19.2431465451       22.5315696261
H    1.0       20.9649079231       19.6332055984       22.4602458619
H    1.0       19.2665305294       20.1103637571       22.5054084854
C    6.0       19.6427999997       18.3189690830       21.3262050451
H    1.0       20.3493062764       17.4774417851       21.3203094946
H    1.0       18.6423778115       17.8811470409       21.4482644129
C    6.0       19.6963550098       19.0478030960       19.9615127441
H    1.0       18.9747804289       19.8767180306       19.9540808519
H    1.0       19.3708873618       18.3507089824       19.1766441940
C    6.0       21.1027921157       19.5796203065       19.6029130603
H    1.0       21.1063620020       20.0036825594       18.5904448872
H    1.0       21.8487632918       18.7748300664       19.6318685661
H    1.0       21.4229920181       20.3707639136       20.2920786809
C    6.0       20.2436913391       19.7250067550       27.5337556570
H    1.0       19.5514505122       20.5680325406       27.4782821134
H    1.0       20.1322895525       19.2189158688       28.4953214678
H    1.0       21.2701549289       20.0808452883       27.4209825045
 $end
$$$$
! Edit this basic GAMESS input file as needed.
! Conformer was generated by a VeraChem VCPack run 
! and contains     26 atoms.
!
 $contrl scftyp=rhf runtyp=optimize nzvar=0
  maxit=200 icharg=0 $end
 $system mwords=50 $end
 $basis gbasis=pm3 $end
 $statpt nstep=200 $end
 $guess guess=huckel $end
 $data
VM2 Rank=11     G=76.151            E=43.878            -TS=32.272              
C1
N    7.0       20.0193240690       18.7529605369       26.4167205986
H    1.0       21.0217249274       18.5804224034       26.5907589257
H    1.0       19.5741097533       17.8221330094       26.4310623680
C    6.0       19.8282836199       19.4031990920       25.0611764382
H    1.0       20.3198138107       20.3790688892       25.0851808161
H    1.0       18.7569808425       19.5607669074       24.9129278687
C    6.0       20.3944266524       18.5665546676       23.8994664777
H    1.0       21.4672358029       18.3965893362       24.0614116116
H    1.0       19.9095922534       17.5812134186       23.8888865429
C    6.0       20.1772884269       19.2673427782       22.5399279557
H    1.0       20.6621620503       20.2533661442       22.5547743350
H    1.0       19.1030766451       19.4423652853       22.3943132036
C    6.0       20.7400570384       18.4313469454       21.3650683067
H    1.0       21.7973613313       18.2043319751       21.5600139363
H    1.0       20.2207935900       17.4642429993       21.3157712885
C    6.0       20.6356978580       19.1439775356       19.9947677995
H    1.0       21.1496414593       18.5328211332       19.2396263553
H    1.0       21.1732579536       20.1018274529       20.0318830202
C    6.0       19.1793368598       19.3826427595       19.5348279844
H    1.0       19.1608553199       19.8044053275       18.5215619572
H    1.0       18.6582096151       20.0876686625       20.1941846255
H    1.0       18.6115445096       18.4433328157       19.5173198442
C    6.0       19.4335854756       19.6419756849       27.5050444392
H    1.0       19.5778804671       19.1622281025       28.4756985874
H    1.0       19.9424519466       20.6083345431       27.4919673817
H    1.0       18.3667143565       19.7828512244       27.3182160137
 $end
$$$$
! Edit this basic GAMESS input file as needed.
! Conformer was generated by a VeraChem VCPack run 
! and contains     26 atoms.
!
 $contrl scftyp=rhf runtyp=optimize nzvar=0
  maxit=200 icharg=0 $end
 $system mwords=50 $end
 $basis gbasis=pm3 $end
 $statpt nstep=200 $end
 $guess guess=huckel $end
 $data
VM2 Rank=12     G=76.205            E=43.779            -TS=32.426              
C1
N    7.0       19.4921133536       18.7748507567       26.3215712361
H    1.0       18.8899327441       18.0249535915       26.6970108921
H    1.0       19.1478090621       19.6400577149       26.7657846402
C    6.0       19.3239444367       18.8555249319       24.8136474065
H    1.0       18.2509128333       18.8751613819       24.6067219117
H    1.0       19.7364138371       17.9404586970       24.3821598002
C    6.0       19.9826163830       20.0899169461       24.1616168653
H    1.0       19.6091914094       20.9972258518       24.6544895675
H    1.0       21.0676766240       20.0671687770       24.3258227028
C    6.0       19.6940764999       20.1870156544       22.6449671372
H    1.0       20.1112715939       21.1305591433       22.2666426711
H    1.0       18.6087404063       20.2397734218       22.4809616206
C    6.0       20.2880123062       19.0076573216       21.8374215179
H    1.0       21.3677095218       18.9380457952       22.0293901794
H    1.0       19.8437155823       18.0611036699       22.1731740609
C    6.0       20.0454163203       19.1707167955       20.3202881624
H    1.0       20.4937037344       20.1115833717       19.9713030657
H    1.0       18.9665818239       19.2415455632       20.1225538969
C    6.0       20.6369782172       17.9932417922       19.5162085703
H    1.0       20.4552029091       18.1272749817       18.4419561108
H    1.0       20.1823877476       17.0407001426       19.8182090982
H    1.0       21.7217168031       17.9173708771       19.6671582041
C    6.0       20.9448424831       18.5110758016       26.7012791043
H    1.0       21.2748904930       17.5812051154       26.2330489513
H    1.0       21.5653187488       19.3405909773       26.3563577111
H    1.0       21.0198336620       18.4237403069       27.7874815814
 $end
$$$$
! Edit this basic GAMESS input file as needed.
! Conformer was generated by a VeraChem VCPack run 
! and contains     26 atoms.
!
 $contrl scftyp=rhf runtyp=optimize nzvar=0
  maxit=200 icharg=0 $end
 $system mwords=50 $end
 $basis gbasis=pm3 $end
 $statpt nstep=200 $end
 $guess guess=huckel $end
 $data
VM2 Rank=13     G=76.208            E=43.782            -TS=32.426              
C1
N    7.0       20.4430444733       18.8683349023       26.3553083015
H    1.0       20.5803660762       19.7808941086       26.8166471028
H    1.0       21.1517040413       18.2473304320       26.7772992733
C    6.0       20.6978530906       18.9906216205       24.8624135597
H    1.0       20.5025228899       18.0158397082       24.4093085821
H    1.0       21.7584272591       19.2199357492       24.7312736165
C    6.0       19.8592447970       20.0778946349       24.1572297791
H    1.0       18.7904984247       19.8435673022       24.2450331915
H    1.0       20.0136793989       21.0370774780       24.6687948804
C    6.0       20.2291503091       20.2396102566       22.6639362292
H    1.0       21.2923327098       20.5033743728       22.5761506248
H    1.0       19.6641761435       21.0866759853       22.2507305653
C    6.0       19.9338720644       18.9728849107       21.8248910233
H    1.0       20.5289265829       18.1284196088       22.1975590104
H    1.0       18.8775158005       18.6935020549       21.9410764369
C    6.0       20.2460591586       19.1903599332       20.3274348776
H    1.0       21.3017542385       19.4707554932       20.2054231565
H    1.0       19.6491716535       20.0285933540       19.9413373855
C    6.0       19.9524082451       17.9259433288       19.4919969626
H    1.0       20.5609940082       17.0777886450       19.8317761649
H    1.0       20.1796673952       18.1000803993       18.4322540127
H    1.0       18.8951904520       17.6398052617       19.5669347829
C    6.0       19.0463678617       18.3243504130       26.6337892670
H    1.0       18.3021668434       19.0196777372       26.2404174303
H    1.0       18.9372647109       17.3513072487       26.1499347810
H    1.0       18.9136664397       18.2165562868       27.7126113527
 $end
$$$$
! Edit this basic GAMESS input file as needed.
! Conformer was generated by a VeraChem VCPack run 
! and contains     26 atoms.
!
 $contrl scftyp=rhf runtyp=optimize nzvar=0
  maxit=200 icharg=0 $end
 $system mwords=50 $end
 $basis gbasis=pm3 $end
 $statpt nstep=200 $end
 $guess guess=huckel $end
 $data
VM2 Rank=14     G=76.225            E=43.964            -TS=32.261              
C1
N    7.0       19.5534356309       18.5508872152       26.1836527012
H    1.0       20.0705724351       17.6582006481       26.2067992335
H    1.0       18.5855608855       18.3009856147       25.9275821894
C    6.0       20.1493459644       19.4734887875       25.1393263640
H    1.0       21.1730170396       19.7065494372       25.4430816597
H    1.0       19.5701992449       20.4003567101       25.1410442513
C    6.0       20.1541212403       18.8685144962       23.7236805345
H    1.0       20.7232648787       17.9294145842       23.7304706646
H    1.0       19.1240242320       18.6215665581       23.4377234053
C    6.0       20.7732548746       19.8454729373       22.6963381566
H    1.0       21.7720970410       20.1432911063       23.0447506506
H    1.0       20.1751806301       20.7663954539       22.6535202752
C    6.0       20.9078010293       19.2473128213       21.2740865937
H    1.0       21.4592354916       19.9616096680       20.6470684981
H    1.0       21.5207389816       18.3362327035       21.3139023246