$$$$
! Edit this basic GAMESS input file as needed.
! Conformer was generated by a VeraChem VCPack run 
! and contains     26 atoms.
!
 $contrl scftyp=rhf runtyp=optimize nzvar=0
  maxit=200 icharg=0 $end
 $system mwords=50 $end
 $basis gbasis=pm3 $end
 $statpt nstep=200 $end
 $guess guess=huckel $end
 $data
VM2 Rank=1      G=23.710            E=-8.843            -TS=32.552              
C1
C    6.0       20.2414652279       18.6563533305       18.8059593269
H    1.0       19.6044540451       19.4971264612       18.5017231684
H    1.0       21.0557776663       18.5688769185       18.0750076790
H    1.0       19.6426204496       17.7376522969       18.7548324338
C    6.0       20.8050656589       18.8729035270       20.2263782405
H    1.0       21.4263131757       19.7794679629       20.2376928856
H    1.0       21.4642774826       18.0335327196       20.4887055995
C    6.0       19.6784473261       18.9994148594       21.2756973280
H    1.0       19.0206803665       19.8375407902       21.0067154510
H    1.0       19.0592834568       18.0917421169       21.2594053841
C    6.0       20.2388859997       19.2172413481       22.6994371457
H    1.0       20.8549504522       20.1271530776       22.7150536778
H    1.0       20.8998956133       18.3792076279       22.9575778044
C    6.0       19.1075600648       19.3422228862       23.7488122771
H    1.0       18.4279091307       20.1489847357       23.4433275532
H    1.0       18.5118408351       18.4197978279       23.7646210161
C    6.0       19.6331275959       19.6455948117       25.1687499047
H    1.0       20.2418269287       20.5539079192       25.1221704873
C    6.0       18.4605379192       19.8996084552       26.1295944838
H    1.0       17.8446051073       20.7376453793       25.7802340005
H    1.0       18.8275784842       20.1521397322       27.1320344951
H    1.0       17.8173081082       19.0146985276       26.2138711488
N    7.0       20.5229102074       18.5546607820       25.6993712932
H    1.0       21.3337370894       18.4049966471       25.0931117996
H    1.0       20.8769592235       18.7815690395       26.6329587348
H    1.0       20.0217789640       17.6651559813       25.7697290608
 $end
$$$$
! Edit this basic GAMESS input file as needed.
! Conformer was generated by a VeraChem VCPack run 
! and contains     26 atoms.
!
 $contrl scftyp=rhf runtyp=optimize nzvar=0
  maxit=200 icharg=0 $end
 $system mwords=50 $end
 $basis gbasis=pm3 $end
 $statpt nstep=200 $end
 $guess guess=huckel $end
 $data
VM2 Rank=2      G=24.184            E=-8.383            -TS=32.567              
C1
C    6.0       20.2648265717       18.6437367121       18.8025515766
H    1.0       20.3175223740       19.2783108186       17.9083549121
H    1.0       21.1735185841       18.0284441422       18.8331121847
H    1.0       19.4021041235       17.9741615585       18.6902093434
C    6.0       20.1356497366       19.5061608009       20.0759960031
H    1.0       19.2370352801       20.1344769413       20.0009211176
H    1.0       20.9947751665       20.1883345409       20.1429101642
C    6.0       20.0595184318       18.6366016162       21.3505420583
H    1.0       19.2004683117       17.9552049310       21.2782097559
H    1.0       20.9585139641       18.0084031734       21.4186018475
C    6.0       19.9304474039       19.4968407614       22.6281513743
H    1.0       19.0345503157       20.1260255477       22.5455366209
H    1.0       20.7922712670       20.1745590380       22.7022397142
C    6.0       19.8498892109       18.6222061372       23.9035852933
H    1.0       18.9531501236       17.9896389171       23.8629580449
H    1.0       20.7108885439       17.9408249886       23.9147826673
C    6.0       19.8534679702       19.4354768068       25.2183120980
H    1.0       20.7325755014       20.0872903725       25.2160862354
C    6.0       18.5968317730       20.3129483310       25.3617508177
H    1.0       17.6825344540       19.7091542885       25.3053930030
H    1.0       18.5527306283       21.0781303502       24.5782459576
H    1.0       18.5994518487       20.8366397136       26.3256332988
N    7.0       19.9973689019       18.5340288343       26.4131107786
H    1.0       19.2077254191       17.8876799148       26.4919191187
H    1.0       20.8513488994       17.9713335956       26.3607676519
H    1.0       20.0403034804       19.0709816311       27.2839208393
 $end
$$$$
! Edit this basic GAMESS input file as needed.
! Conformer was generated by a VeraChem VCPack run 
! and contains     26 atoms.
!
 $contrl scftyp=rhf runtyp=optimize nzvar=0
  maxit=200 icharg=0 $end
 $system mwords=50 $end
 $basis gbasis=pm3 $end
 $statpt nstep=200 $end
 $guess guess=huckel $end
 $data
VM2 Rank=3      G=24.223            E=-8.474            -TS=32.697              
C1
C    6.0       20.3612928927       18.7664260443       18.8988711379
H    1.0       20.3290276240       17.9289049013       18.1899587726
H    1.0       19.6207918483       19.5098625569       18.5760744857
H    1.0       21.3567424666       19.2247825932       18.8338621142
C    6.0       20.0680700833       18.2779211965       20.3332667713
H    1.0       20.8039391568       17.5116831270       20.6148432692
H    1.0       19.0813515119       17.7945568305       20.3590276211
C    6.0       20.1073833986       19.4385016884       21.3520575635
H    1.0       21.0947094884       19.9197761897       21.3202441726
H    1.0       19.3719784505       20.2027414844       21.0646973561
C    6.0       19.8140924584       18.9534906562       22.7898913599
H    1.0       20.5512017567       18.1892018094       23.0693839127
H    1.0       18.8283599900       18.4703965000       22.8096725458
C    6.0       19.8521926829       20.1238713838       23.8069575319
H    1.0       20.8254243633       20.6277161439       23.7404707023
H    1.0       19.1034245818       20.8754008663       23.5235265044
C    6.0       19.6133245828       19.7156721152       25.2800206563
H    1.0       19.6966305736       20.6232229987       25.8860368394
C    6.0       18.2040117587       19.1382632065       25.4994504080
H    1.0       17.4375722709       19.8255456215       25.1202836954
H    1.0       18.0142883118       18.9864637292       26.5690949455
H    1.0       18.0784854948       18.1717997584       24.9971030371
N    7.0       20.6676321426       18.7738537091       25.7934845713
H    1.0       21.6065426539       19.1695322106       25.6917288409
H    1.0       20.5304483224       18.5640728847       26.7862542118
H    1.0       20.6509069245       17.8852543826       25.2871625665
 $end
$$$$
! Edit this basic GAMESS input file as needed.
! Conformer was generated by a VeraChem VCPack run 
! and contains     26 atoms.
!
 $contrl scftyp=rhf runtyp=optimize nzvar=0
  maxit=200 icharg=0 $end
 $system mwords=50 $end
 $basis gbasis=pm3 $end
 $statpt nstep=200 $end
 $guess guess=huckel $end
 $data
VM2 Rank=4      G=24.304            E=-8.361            -TS=32.665              
C1
C    6.0       21.0477196491       19.5376219149       19.5907685709
H    1.0       21.7403974732       19.8916960632       20.3642440107
H    1.0       21.6435931448       19.2916687355       18.7022999371
H    1.0       20.3755105693       20.3640273728       19.3257861580
C    6.0       20.2494760960       18.3021779345       20.0653791837
H    1.0       20.9446838711       17.5009911945       20.3526689905
H    1.0       19.6643340475       17.9128568662       19.2204880623
C    6.0       19.2862592640       18.6054107228       21.2383864116
H    1.0       18.5785647459       19.3902693809       20.9376246603
H    1.0       18.6854094232       17.7071565746       21.4371511343
C    6.0       20.0118208888       19.0259835107       22.5390406839
H    1.0       20.5565947602       19.9651711969       22.3752089954
H    1.0       20.7575571398       18.2626470145       22.7974836078
C    6.0       19.0190802075       19.2152960879       23.7118097902
H    1.0       18.2492103379       19.9384752058       23.4110946640
H    1.0       18.4987652520       18.2698283781       23.9150972125
C    6.0       19.6999901768       19.7209303501       25.0021978862
H    1.0       20.2299105969       20.6496174452       24.7688840589
C    6.0       18.6458840186       20.0245877049       26.0789199485
H    1.0       19.1198722730       20.4193484043       26.9860420155
H    1.0       18.0850292233       19.1217512749       26.3513852917
H    1.0       17.9306739914       20.7767387103       25.7232886022
N    7.0       20.7277696993       18.7559917742       25.5274975251
H    1.0       20.3057462178       17.8551253369       25.7675632584
H    1.0       21.4618952021       18.5786369643       24.8368420422
H    1.0       21.1822498585       19.1161029227       26.3714064288
 $end
$$$$
! Edit this basic GAMESS input file as needed.
! Conformer was generated by a VeraChem VCPack run 
! and contains     26 atoms.
!
 $contrl scftyp=rhf runtyp=optimize nzvar=0
  maxit=200 icharg=0 $end
 $system mwords=50 $end
 $basis gbasis=pm3 $end
 $statpt nstep=200 $end
 $guess guess=huckel $end
 $data
VM2 Rank=5      G=24.328            E=-8.331            -TS=32.658              
C1
C    6.0       21.0696647776       18.0175824765       19.8285090699
H    1.0       21.7713855110       17.9118529558       20.6650190054
H    1.0       20.4114777433       17.1391182007       19.8175580193
H    1.0       21.6580032515       18.0075863324       18.9018499164
C    6.0       20.2510733004       19.3242890986       19.9348976438
H    1.0       19.6583079496       19.4459656594       19.0174932253
H    1.0       20.9328292485       20.1852390721       19.9765640728
C    6.0       19.2943564160       19.3545459143       21.1512735003
H    1.0       18.6764653280       20.2607392934       21.0852882524
H    1.0       18.6016728273       18.5035151013       21.0942635051
C    6.0       20.0281866269       19.3400784989       22.5138015355
H    1.0       20.7543287707       20.1641209668       22.5471974637
H    1.0       20.5965029000       18.4070244281       22.6136368431
C    6.0       19.0395220098       19.4754923854       23.6975432831
H    1.0       18.4432577327       20.3873761772       23.5597465633
H    1.0       18.3329856298       18.6348228000       23.6891590913
C    6.0       19.7462752039       19.5467189844       25.0687004319
H    1.0       20.4615533378       20.3746277414       25.0430413322
C    6.0       18.7245372937       19.8265406221       26.1824669161
H    1.0       18.1919211673       20.7673761121       25.9957088005
H    1.0       19.2245007701       19.9150364742       27.1548746284
H    1.0       17.9821273393       19.0215893796       26.2516992136
N    7.0       20.5343843717       18.3027520198       25.3768076195
H    1.0       21.0103650402       18.3757771926       26.2804350602
H    1.0       19.9300048989       17.4777710633       25.4147964810
H    1.0       21.2508271823       18.1282991599       24.6671448917
 $end
$$$$
! Edit this basic GAMESS input file as needed.
! Conformer was generated by a VeraChem VCPack run 
! and contains     26 atoms.
!
 $contrl scftyp=rhf runtyp=optimize nzvar=0
  maxit=200 icharg=0 $end
 $system mwords=50 $end
 $basis gbasis=pm3 $end
 $statpt nstep=200 $end
 $guess guess=huckel $end
 $data
VM2 Rank=6      G=24.407            E=-8.262            -TS=32.669              
C1
C    6.0       19.9268010952       18.4374311113       19.0849233560
H    1.0       20.9095855827       18.6604186945       18.6494557303
H    1.0       19.5853240582       17.4792471348       18.6722334642
H    1.0       19.2237202018       19.2147961673       18.7583968692
C    6.0       20.0037807132       18.3710233928       20.6250206745
H    1.0       20.6909245668       17.5660050642       20.9207947669
H    1.0       19.0138993669       18.1064079794       21.0198423079
C    6.0       20.4793629824       19.7128841603       21.2303234958
H    1.0       21.4334835880       19.9963996601       20.7648496783
H    1.0       19.7647465821       20.5078075758       20.9759573676
C    6.0       20.6774445273       19.6635111688       22.7652442988
H    1.0       21.1155458631       20.6175443890       23.0900763566
H    1.0       21.4128770831       18.8851405927       23.0086993685
C    6.0       19.3622256694       19.4202528613       23.5488754517
H    1.0       18.6077970276       20.1426815557       23.2099824751
H    1.0       18.9663549568       18.4218322799       23.3240603592
C    6.0       19.5397043016       19.5652101613       25.0757738851
H    1.0       19.9495716295       20.5591090979       25.2804051393
C    6.0       18.1813832989       19.4481162479       25.7856544221
H    1.0       17.4847462403       20.2143346552       25.4232532692
H    1.0       18.2954651653       19.5876110702       26.8677336523
H    1.0       17.7268458717       18.4643674649       25.6138031649
N    7.0       20.5172974121       18.5695708964       25.6381844160
H    1.0       20.2019420008       17.6083660366       25.4837061210
H    1.0       21.4394517793       18.6653060035       25.2047096740
H    1.0       20.6391849443       18.6938144361       26.6472004478
 $end
$$$$
! Edit this basic GAMESS input file as needed.
! Conformer was generated by a VeraChem VCPack run 
! and contains     26 atoms.
!
 $contrl scftyp=rhf runtyp=optimize nzvar=0
  maxit=200 icharg=0 $end
 $system mwords=50 $end
 $basis gbasis=pm3 $end
 $statpt nstep=200 $end
 $guess guess=huckel $end
 $data
VM2 Rank=7      G=24.408            E=-8.337            -TS=32.745              
C1
C    6.0       20.8972741798       19.5641548266       19.3398292234
H    1.0       21.3064563658       19.0767334483       18.4453843487
H    1.0       20.0620096687       20.2024654599       19.0233928227
H    1.0       21.6801743295       20.2088500374       19.7601457614
C    6.0       20.4325569218       18.5122395718       20.3692149716
H    1.0       21.2809524597       17.8685701397       20.6408947953
H    1.0       19.6758034350       17.8616507575       19.9087929839
C    6.0       19.8508460635       19.1724841250       21.6387436297
H    1.0       20.6117801825       19.8276241890       22.0831459026
H    1.0       19.0021251288       19.8128425093       21.3611963189
C    6.0       19.3866986600       18.1185885429       22.6726475778
H    1.0       20.2364962530       17.4902175391       22.9709451383
H    1.0       18.6629907636       17.4429471788       22.1960595888
C    6.0       18.7224853562       18.7436064608       23.9262689279
H    1.0       17.8184403317       19.2834921411       23.6144887735
H    1.0       18.3839453629       17.9378888302       24.5911661596
C    6.0       19.6369491763       19.7072197464       24.7157221457
H    1.0       19.9486365968       20.5136774382       24.0454472637
C    6.0       18.8678500720       20.3322004132       25.8904742381
H    1.0       18.5348342498       19.5648764653       26.6005436423
H    1.0       17.9832381360       20.8737911871       25.5328979528
H    1.0       19.4996008065       21.0473751026       26.4315582812
N    7.0       20.8933395704       19.0375063133       25.2010992857
H    1.0       21.4331480653       18.6509829994       24.4220950565
H    1.0       21.4999478603       19.6946655545       25.6996276168
H    1.0       20.6821830771       18.2683004424       25.8421826683
 $end
$$$$
! Edit this basic GAMESS input file as needed.
! Conformer was generated by a VeraChem VCPack run 
! and contains     26 atoms.
!
 $contrl scftyp=rhf runtyp=optimize nzvar=0
  maxit=200 icharg=0 $end
 $system mwords=50 $end
 $basis gbasis=pm3 $end
 $statpt nstep=200 $end
 $guess guess=huckel $end
 $data
VM2 Rank=8      G=24.518            E=-8.104            -TS=32.622              
C1
C    6.0       19.8814575586       18.9330835639       18.9777532858
H    1.0       20.8781121276       18.6656048449       18.6031039368
H    1.0       19.2375373948       18.0473918012       18.8992472568
H    1.0       19.4706070017       19.7080586291       18.3177085804
C    6.0       19.9527724613       19.4393081683       20.4341131260
H    1.0       18.9458790072       19.7351792867       20.7566447844
H    1.0       20.5793121893       20.3412188345       20.4755285770
C    6.0       20.5250982280       18.3609992326       21.3846050396
H    1.0       19.8672484924       17.4809268469       21.3858370613
H    1.0       21.4936034328       18.0203141683       20.9930008346
C    6.0       20.7323043020       18.8570816006       22.8370390755
H    1.0       21.3920438603       19.7358473724       22.8342039186
H    1.0       21.2651340732       18.0724848502       23.3900308290
C    6.0       19.4089921631       19.1992878032       23.5692333191
H    1.0       18.8911967810       20.0002362356       23.0273658336
H    1.0       18.7410537235       18.3278100438       23.5567250703
C    6.0       19.6293527833       19.6629618323       25.0258807550
H    1.0       20.3251859050       20.5076020599       25.0152304388
C    6.0       18.3034502925       20.1384373738       25.6414656671
H    1.0       17.8752154755       20.9624228591       25.0571774939
H    1.0       18.4587155445       20.5024067687       26.6645984985
H    1.0       17.5674782036       19.3253661778       25.6758185609
N    7.0       20.2545722112       18.5968404251       25.8839097318
H    1.0       21.1620618498       18.3023326423       25.5137525775
H    1.0       20.4079085708       18.9286615311       26.8403511304
H    1.0       19.6597494886       17.7659630254       25.9397313724
 $end
$$$$
! Edit this basic GAMESS input file as needed.
! Conformer was generated by a VeraChem VCPack run 
! and contains     26 atoms.
!
 $contrl scftyp=rhf runtyp=optimize nzvar=0
  maxit=200 icharg=0 $end
 $system mwords=50 $end
 $basis gbasis=pm3 $end
 $statpt nstep=200 $end
 $guess guess=huckel $end
 $data
VM2 Rank=9      G=24.617            E=-8.225            -TS=32.842              
C1
C    6.0       20.9635853371       19.5127292616       19.3553140814
H    1.0       21.3655145435       20.4758277646       19.6960801474
H    1.0       21.7723475552       18.7713939823       19.3948484983
H    1.0       20.6614257094       19.6260623027       18.3060779441
C    6.0       19.7652501629       19.0731769035       20.2230129148
H    1.0       19.3639037141       18.1257565494       19.8367027071
H    1.0       18.9606548931       19.8169171539       20.1369693136
C    6.0       20.1638695951       18.9054651654       21.7058943021
H    1.0       20.9669692807       18.1598854192       21.7866512005
H    1.0       20.5715280022       19.8551151115       22.0772448542
C    6.0       18.9622440150       18.4683053309       22.5775418789
H    1.0       18.5326245953       17.5468923065       22.1607379416
H    1.0       18.1669086340       19.2233106996       22.5214628075
C    6.0       19.3438220572       18.2052057723       24.0573168070
H    1.0       18.4478691152       17.8851768125       24.6056091722
H    1.0       20.0395603962       17.3563857360       24.0897732099
C    6.0       19.9903756934       19.4036964905       24.7916028172
H    1.0       20.8837914351       19.7068550105       24.2377992334
C    6.0       19.0389253490       20.6103486945       24.8789751186
H    1.0       18.1005138517       20.3402889389       25.3790391688
H    1.0       18.7981272325       20.9999136750       23.8830068980
H    1.0       19.5026562563       21.4282382436       25.4440094930
N    7.0       20.4599277904       19.0090723813       26.1643420799
H    1.0       19.6792801941       18.7128752507       26.7562463521
H    1.0       21.1282337636       18.2341160861       26.1264531223
H    1.0       20.9243917021       19.7881586460       26.6394596373
 $end
$$$$
! Edit this basic GAMESS input file as needed.
! Conformer was generated by a VeraChem VCPack run 
! and contains     26 atoms.
!
 $contrl scftyp=rhf runtyp=optimize nzvar=0
  maxit=200 icharg=0 $end
 $system mwords=50 $end
 $basis gbasis=pm3 $end
 $statpt nstep=200 $end
 $guess guess=huckel $end
 $data
VM2 Rank=10     G=24.751            E=-7.930            -TS=32.680              
C1
C    6.0       20.8064371946       19.7427985493       19.5401520747
H    1.0       21.7813507713       19.2445051983       19.6193422707
H    1.0       20.6856577185       20.0809508840       18.5028466239
H    1.0       20.8231285033       20.6353513444       20.1777416657
C    6.0       19.6590571360       18.7849679783       19.9336446567
H    1.0       19.6070022418       17.9727015866       19.1951883205
H    1.0       18.6983632940       19.3154338878       19.8750820985
C    6.0       19.8303055102       18.1655383058       21.3417321748
H    1.0       19.0358418162       17.4219815766       21.4945273504
H    1.0       20.7807478579       17.6160675997       21.3868176839
C    6.0       19.7736097816       19.2074838958       22.4847554463
H    1.0       18.8478232116       19.7899183286       22.3910425783
H    1.0       20.6091747454       19.9132251975       22.3884866298
C    6.0       19.8383704751       18.5328278032       23.8771828522
H    1.0       18.9670014013       17.8784874104       24.0130216481
H    1.0       20.7232366785       17.8834379045       23.9094376218
C    6.0       19.9241583275       19.5345149757       25.0515489021
H    1.0       20.7748207087       20.1996473536       24.8736107955
C    6.0       18.6525246082       20.3929773731       25.1764947096
H    1.0       18.5129238006       21.0299937051       24.2955391676
H    1.0       18.7181321205       21.0558724174       26.0480369003
H    1.0       17.7599845744       19.7656742283       25.2928653830
N    7.0       20.2035369668       18.8268911187       26.3484891837
H    1.0       21.0702628721       18.2834369695       26.3028751236
H    1.0       20.3008964735       19.4896403980       27.1229201493
H    1.0       19.4482211713       18.1809356606       26.5929183612
 $end
$$$$
! Edit this basic GAMESS input file as needed.
! Conformer was generated by a VeraChem VCPack run 
! and contains     26 atoms.
!
 $contrl scftyp=rhf runtyp=optimize nzvar=0
  maxit=200 icharg=0 $end
 $system mwords=50 $end
 $basis gbasis=pm3 $end
 $statpt nstep=200 $end
 $guess guess=huckel $end
 $data
VM2 Rank=11     G=24.850            E=-7.824            -TS=32.674              
C1
C    6.0       19.3590477588       19.5423730412       19.4492645514
H    1.0       19.5230321555       19.9146650321       18.4297306926
H    1.0       18.5543653505       18.7968009831       19.4088417844
H    1.0       19.0147375187       20.3881717107       20.0571040750
C    6.0       20.6589512691       18.9272228786       20.0156365022
H    1.0       21.4379573539       19.7000614937       20.0758793996
H    1.0       21.0298073157       18.1717037851       19.3089078150
C    6.0       20.4732072385       18.2618508180       21.4007989167
H    1.0       19.7078473508       17.4765876208       21.3308171793
H    1.0       21.4104269449       17.7565209397       21.6720482453
C    6.0       20.0942838436       19.2618174070       22.5197834712
H    1.0       19.1275063266       19.7226502592       22.2833061675
H    1.0       20.8368527023       20.0708882039       22.5550880729
C    6.0       20.0173886871       18.5704593566       23.9034830198
H    1.0       19.2325798171       17.8024584416       23.8903495937
H    1.0       20.9641130016       18.0446874115       24.0849525457
C    6.0       19.7697013111       19.5474372902       25.0757711491
H    1.0       20.5382536437       20.3258104672       25.0418235108
C    6.0       18.3888229524       20.2221915172       24.9882347987
H    1.0       18.2176356379       20.8659632280       25.8597729477
H    1.0       17.5844088227       19.4769768173       24.9528169068
H    1.0       18.3100022170       20.8562856764       24.0977153467
N    7.0       19.9265969396       18.8546476911       26.4010275910
H    1.0       20.8555197650       18.4351950672       26.5000264018
H    1.0       19.8029153548       19.5064799502       27.1809477139
H    1.0       19.2376704257       18.1066095843       26.5164488183
 $end
$$$$
! Edit this basic GAMESS input file as needed.
! Conformer was generated by a VeraChem VCPack run 
! and contains     26 atoms.
!
 $contrl scftyp=rhf runtyp=optimize nzvar=0
  maxit=200 icharg=0 $end
 $system mwords=50 $end
 $basis gbasis=pm3 $end
 $statpt nstep=200 $end
 $guess guess=huckel $end
 $data
VM2 Rank=12     G=24.877            E=-7.930            -TS=32.807              
C1
C    6.0       20.5936103093       17.7670066825       19.9359318097
H    1.0       20.3893357815       17.2484413720       18.9902608784
H    1.0       21.6696465992       17.9804726059       19.9759616893
H    1.0       20.3493089233       17.0742778231       20.7506747664
C    6.0       19.7649028713       19.0683425207       20.0287493152
H    1.0       18.6931458747       18.8254712639       20.0190223701
H    1.0       19.9513596332       19.6714924372       19.1291728434
C    6.0       20.0971035448       19.9223009586       21.2762415644
H    1.0       21.1647046551       20.1820081576       21.2686579195
H    1.0       19.5477144457       20.8712177961       21.2050500800
C    6.0       19.7374270059       19.2288044604       22.6122006771
H    1.0       20.3344905920       18.3153479326       22.7236205200
H    1.0       18.6833782825       18.9232540991       22.5834914597
C    6.0       19.9861146090       20.1639869102       23.8243980546
H    1.0       21.0296365607       20.5049644455       23.8082063029
H    1.0       19.3716195527       21.0677439246       23.7178209826
C    6.0       19.7004862489       19.5301493807       25.2065552191
H    1.0       19.9399104477       20.2825585511       25.9644429320
C    6.0       18.2178026537       19.1552202282       25.3761361931
H    1.0       17.9283810543       18.3330497531       24.7109550091
H    1.0       17.5711543245       20.0152126180       25.1621021796
H    1.0       18.0181693481       18.8377641230       26.4069318268
N    7.0       20.5905527572       18.3521888586       25.4937871668
H    1.0       20.4209440568       17.5885791735       24.8347421117
H    1.0       21.5806678794       18.6043489653       25.4262107440
H    1.0       20.4324287186       17.9850224250       26.4364511935
 $end
$$$$
! Edit this basic GAMESS input file as needed.
! Conformer was generated by a VeraChem VCPack run 
! and contains     26 atoms.
!
 $contrl scftyp=rhf runtyp=optimize nzvar=0
  maxit=200 icharg=0 $end
 $system mwords=50 $end
 $basis gbasis=pm3 $end
 $statpt nstep=200 $end
 $guess guess=huckel $end
 $data
VM2 Rank=13     G=24.881            E=-7.928            -TS=32.808              
C1
C    6.0       19.3884808271       18.1239237140       19.7278856908
H    1.0       19.5633944038       17.4956177864       18.8449540656
H    1.0       18.9714633025       17.4804943280       20.5124204799
H    1.0       18.6338763474       18.8751629350       19.4609905475
C    6.0       20.7042914250       18.7950731455       20.1829743234
H    1.0       21.1454502897       19.3250391702       19.3272236685
H    1.0       21.4309943068       18.0239224171       20.4744660467
C    6.0       20.5133734098       19.8005197916       21.3442358084
H    1.0       21.4709429838       20.3077274183       21.5262251944
H    1.0       19.8029923062       20.5815066688       21.0397783002
C    6.0       20.0322431239       19.1406500157       22.6588710801
H    1.0       20.7186837955       18.3262489075       22.9250496787
H    1.0       19.0447897344       18.6903983233       22.4997326592
C    6.0       19.9548030205       20.1689591799       23.8175196217
H    1.0       20.9353071340       20.6469788398       23.9420722961
H    1.0       19.2596981724       20.9732982773       23.5424761992
C    6.0       19.5215080053       19.5825005365       25.1820765809
H    1.0       19.5398159294       20.4014859479       25.9078628042
C    6.0       18.0869560059       19.0270761421       25.1447732590
H    1.0       18.0125470698       18.1367483388       24.5092165108
H    1.0       17.3865690436       19.7810621973       24.7646179289
H    1.0       17.7582722097       18.7466868710       26.1529994048
N    7.0       20.4863441825       18.5492974747       25.6956636356
H    1.0       21.4363362690       18.9248053838       25.7661769900
H    1.0       20.2189154717       18.2177541523       26.6267745988
H    1.0       20.5218500457       17.7344779365       25.0783611661
 $end
$$$$
! Edit this basic GAMESS input file as needed.
! Conformer was generated by a VeraChem VCPack run 
! and contains     26 atoms.
!
 $contrl scftyp=rhf runtyp=optimize nzvar=0
  maxit=200 icharg=0 $end
 $system mwords=50 $end
 $basis gbasis=pm3 $end
 $statpt nstep=200 $end
 $guess guess=huckel $end
 $data
VM2 Rank=14     G=24.891            E=-7.809            -TS=32.700              
C1
C    6.0       20.2614044714       18.3069811122       19.1273993069
H    1.0       21.3551564645       18.2152830457       19.1042658904
H    1.0       19.8372566593       17.3930147257       18.6917404441
H    1.0       19.9752561802       19.1501997778       18.4852738565
C    6.0       19.7524889594       18.5099109105       20.5703236376
H    1.0       20.0218219194       17.6303551417       21.1700671271
H    1.0       18.6550889516       18.5682110294       20.5645534400
C    6.0       20.3405135243       19.7911452003       21.2073262006
H    1.0       21.4351840512       19.7108220473       21.2576148901
H    1.0       20.1245703141       20.6470877978       20.5530207761
C    6.0       19.7760624908       20.0955237086       22.6167856137
H    1.0       18.6855424466       20.2045880580       22.5496218755
H    1.0       20.1665054370       21.0684675718       22.9459945651
C    6.0       20.1430190948       19.0207555275       23.6725050739
H    1.0       19.6462605762       18.0719868539       23.4331834452