$$$$
! Edit this basic GAMESS input file as needed.
! Conformer was generated by a VeraChem VCPack run 
! and contains     17 atoms.
!
 $contrl scftyp=rhf runtyp=optimize nzvar=0
  maxit=200 icharg=0 $end
 $system mwords=50 $end
 $basis gbasis=pm3 $end
 $statpt nstep=200 $end
 $guess guess=huckel $end
 $data
VM2 Rank=1      G=15.404            E=-2.454            -TS=17.858              
C1
N    7.0       19.6262204792       18.8413708990       24.1383348394
H    1.0       18.6402004046       19.1180861540       24.1681567025
H    1.0       20.0581095809       19.1907194715       24.9999245865
H    1.0       19.6530618545       17.8183533439       24.1874394954
C    6.0       20.3271170845       19.3692383486       22.9024305413
H    1.0       21.3758161529       19.0639124396       22.9527406917
H    1.0       20.2866155489       20.4614883171       22.9319710585
C    6.0       19.7034678263       18.8636740291       21.5887593020
H    1.0       19.7320436222       17.7660395115       21.5694896089
H    1.0       18.6464345843       19.1587682522       21.5488787698
C    6.0       20.4461251563       19.4243323889       20.3560196018
H    1.0       21.5050050318       19.1320766760       20.3970656404
H    1.0       20.4206446878       20.5230864249       20.3764520189
C    6.0       19.8260694537       18.9213843344       19.0344557155
H    1.0       20.3673942274       19.3306273182       18.1715903839
H    1.0       18.7755093959       19.2282534293       18.9486594961
H    1.0       19.8684528443       17.8263139772       18.9694106295
 $end
$$$$
! Edit this basic GAMESS input file as needed.
! Conformer was generated by a VeraChem VCPack run 
! and contains     17 atoms.
!
 $contrl scftyp=rhf runtyp=optimize nzvar=0
  maxit=200 icharg=0 $end
 $system mwords=50 $end
 $basis gbasis=pm3 $end
 $statpt nstep=200 $end
 $guess guess=huckel $end
 $data
VM2 Rank=2      G=15.753            E=-2.202            -TS=17.955              
C1
N    7.0       19.2948444451       19.3739656858       23.6868738516
H    1.0       19.4571393498       19.6751855623       24.6531952765
H    1.0       18.6077693947       18.6149655864       23.7241333402
H    1.0       18.8519189548       20.1590875984       23.2013345040
C    6.0       20.5806318327       18.9410082846       23.0085861131
H    1.0       21.0148847770       18.1343890686       23.6055891552
H    1.0       21.2744004857       19.7859264671       23.0245072692
C    6.0       20.3889034397       18.4550382524       21.5582330734
H    1.0       21.3496764485       18.0703043115       21.1910568537
H    1.0       19.6881126979       17.6097189935       21.5441542568
C    6.0       19.8905582546       19.5726689192       20.6120020150
H    1.0       20.5811287103       20.4268861952       20.6525092140
H    1.0       18.9108493296       19.9407731712       20.9455470865
C    6.0       19.7740620278       19.0773188581       19.1543049468
H    1.0       19.4188490031       19.8825504708       18.4982108460
H    1.0       19.0653980638       18.2425236300       19.0761220960
H    1.0       20.7458023610       18.7373124908       18.7731208198
 $end
$$$$
! Edit this basic GAMESS input file as needed.
! Conformer was generated by a VeraChem VCPack run 
! and contains     17 atoms.
!
 $contrl scftyp=rhf runtyp=optimize nzvar=0
  maxit=200 icharg=0 $end
 $system mwords=50 $end
 $basis gbasis=pm3 $end
 $statpt nstep=200 $end
 $guess guess=huckel $end
 $data
VM2 Rank=3      G=15.775            E=-2.180            -TS=17.955              
C1
N    7.0       20.0681636472       18.3817276555       23.7016218055
H    1.0       20.3859916503       18.4834254171       24.6708955580
H    1.0       20.7281525514       17.7516741013       23.2370846176
H    1.0       19.1638307385       17.9014915414       23.7347749730
C    6.0       19.9722988429       19.7215437631       22.9970075623
H    1.0       20.9608040157       20.1882890597       23.0185287104
H    1.0       19.2877350919       20.3504812291       23.5727099270
C    6.0       19.4751157812       19.6274801956       21.5408437193
H    1.0       18.4845017550       19.1540131743       21.5212520434
H    1.0       19.3420703474       20.6461515484       21.1528616374
C    6.0       20.4506211559       18.8541162163       20.6226392180
H    1.0       20.5634260077       17.8205288928       20.9769745993
H    1.0       21.4469775237       19.3160094365       20.6689401962
C    6.0       19.9628005727       18.8351321695       19.1578876949
H    1.0       18.9813791067       18.3502963404       19.0745410371
H    1.0       20.6661826854       18.2821020698       18.5219263681
H    1.0       19.8760106318       19.8532590818       18.7565531352
 $end
$$$$
! Edit this basic GAMESS input file as needed.
! Conformer was generated by a VeraChem VCPack run 
! and contains     17 atoms.
!
 $contrl scftyp=rhf runtyp=optimize nzvar=0
  maxit=200 icharg=0 $end
 $system mwords=50 $end
 $basis gbasis=pm3 $end
 $statpt nstep=200 $end
 $guess guess=huckel $end
 $data
VM2 Rank=4      G=15.778            E=-2.177            -TS=17.955              
C1
N    7.0       19.5539181265       18.9865339143       24.0025779184
H    1.0       19.0937650883       19.6814702408       24.5993746611
H    1.0       20.4351173379       18.7383417358       24.4625098051
H    1.0       18.9631898781       18.1495262227       24.0129199831
C    6.0       19.7744690783       19.5083118428       22.5967102182
H    1.0       20.3838672343       20.4135859734       22.6639545085
H    1.0       18.8001097034       19.7807560838       22.1829029101
C    6.0       20.4648128267       18.4873964571       21.6719836412
H    1.0       21.4239828144       18.1903291872       22.1165294161
H    1.0       19.8535650617       17.5775145847       21.6058134536
C    6.0       20.7195342268       19.0454126121       20.2522156647
H    1.0       21.2829852974       18.3012094481       19.6719864430
H    1.0       21.3589707746       19.9373080763       20.3140604099
C    6.0       19.4162657416       19.3923451737       19.4965125575
H    1.0       18.7558464807       18.5182796055       19.4259423199
H    1.0       19.6407515431       19.7255428454       18.4749489886
H    1.0       18.8642818213       20.1998490310       19.9938459122
 $end
$$$$
! Edit this basic GAMESS input file as needed.
! Conformer was generated by a VeraChem VCPack run 
! and contains     17 atoms.
!
 $contrl scftyp=rhf runtyp=optimize nzvar=0
  maxit=200 icharg=0 $end
 $system mwords=50 $end
 $basis gbasis=pm3 $end
 $statpt nstep=200 $end
 $guess guess=huckel $end
 $data
VM2 Rank=5      G=15.814            E=-2.140            -TS=17.955              
C1
N    7.0       19.7513483604       18.7333100080       24.0063415166
H    1.0       18.7953015162       18.3650574578       24.0098027024
H    1.0       19.7194648553       19.6567751015       24.4488845476
H    1.0       20.3041554027       18.1285477283       24.6223862290
C    6.0       20.3312695238       18.7938229339       22.6072736792
H    1.0       20.3632328733       17.7749648265       22.2126271086
H    1.0       21.3569612869       19.1649371023       22.6823657924
C    6.0       19.5233576640       19.6952940039       21.6540747091
H    1.0       18.4927526036       19.3234804034       21.5799384781
H    1.0       19.4632954538       20.7059865563       22.0792460912
C    6.0       20.1470229944       19.7799162024       20.2413156396
H    1.0       21.1670891084       20.1834971844       20.3103773019
H    1.0       19.5713718299       20.4970676939       19.6394021845
C    6.0       20.1760014574       18.4176568518       19.5109944555
H    1.0       20.8171426642       17.6947009522       20.0309591103
H    1.0       20.5684397754       18.5351963930       18.4925724783
H    1.0       19.1682478944       17.9891443222       19.4339645128
 $end
$$$$
! Edit this basic GAMESS input file as needed.
! Conformer was generated by a VeraChem VCPack run 
! and contains     17 atoms.
!
 $contrl scftyp=rhf runtyp=optimize nzvar=0
  maxit=200 icharg=0 $end
 $system mwords=50 $end
 $basis gbasis=pm3 $end
 $statpt nstep=200 $end
 $guess guess=huckel $end
 $data
VM2 Rank=6      G=16.316            E=-1.815            -TS=18.131              
C1
N    7.0       19.6053202082       18.3342912098       23.4320148148
H    1.0       18.8595678609       18.2946333349       24.1341177520
H    1.0       20.4850586953       18.1450772289       23.9215412688
H    1.0       19.4467858858       17.5580008044       22.7834097483
C    6.0       19.6333493352       19.6696754770       22.7138093877
H    1.0       19.7676635932       20.4503441767       23.4675030624
H    1.0       18.6597536524       19.8210847384       22.2405339224
C    6.0       20.7497819201       19.7841916117       21.6553275914
H    1.0       20.7340106124       20.7991928510       21.2366067726
H    1.0       21.7252549522       19.6714559076       22.1467454214
C    6.0       20.6330000263       18.7559330268       20.5026749840
H    1.0       20.7393711194       17.7353832915       20.8948705875
H    1.0       21.4736106795       18.9037077666       19.8102586078
C    6.0       19.3075485102       18.8759086747       19.7161732221
H    1.0       18.4405615238       18.6461156098       20.3482159077
H    1.0       19.2963093992       18.1750257094       18.8714214809
H    1.0       19.1785097498       19.8885651475       19.3125117423
 $end
$$$$
! Edit this basic GAMESS input file as needed.
! Conformer was generated by a VeraChem VCPack run 
! and contains     17 atoms.
!
 $contrl scftyp=rhf runtyp=optimize nzvar=0
  maxit=200 icharg=0 $end
 $system mwords=50 $end
 $basis gbasis=pm3 $end
 $statpt nstep=200 $end
 $guess guess=huckel $end
 $data
VM2 Rank=7      G=16.364            E=-1.766            -TS=18.131              
C1
N    7.0       19.1396628595       18.9320898372       23.4232700410
H    1.0       18.3575137308       18.9561461781       22.7628849218
H    1.0       19.1645014398       19.8402842269       23.8964980279
H    1.0       18.9087188937       18.2317546202       24.1352130791
C    6.0       20.4514183996       18.6196004108       22.7293644194
H    1.0       20.3667120681       17.6299792405       22.2729904348
H    1.0       21.2303716794       18.5728723673       23.4952551020
C    6.0       20.8507732165       19.6544813862       21.6572363732
H    1.0       20.9730982908       20.6368138859       22.1324292698
H    1.0       21.8369591288       19.3834097871       21.2575368827
C    6.0       19.8418278500       19.7713127621       20.4876475513
H    1.0       20.2006101600       20.5375182562       19.7861431990
H    1.0       18.8727557782       20.1309305617       20.8594371516
C    6.0       19.6453176743       18.4425156037       19.7224816151
H    1.0       19.2014449346       17.6696620362       20.3624990655
H    1.0       20.6013657806       18.0626524020       19.3394098471
H    1.0       18.9751708920       18.5873303990       18.8652171330
 $end
$$$$
! Edit this basic GAMESS input file as needed.
! Conformer was generated by a VeraChem VCPack run 
! and contains     17 atoms.
!
 $contrl scftyp=rhf runtyp=optimize nzvar=0
  maxit=200 icharg=0 $end
 $system mwords=50 $end
 $basis gbasis=pm3 $end
 $statpt nstep=200 $end
 $guess guess=huckel $end
 $data
VM2 Rank=8      G=18.226            E=0.211             -TS=18.016              
C1
N    7.0       19.4441906809       18.2038793174       23.2130070940
H    1.0       19.3472659023       17.5463202890       22.4351468408
H    1.0       18.5072992706       18.5598327065       23.4251656109
H    1.0       19.7489308677       17.6639481096       24.0293589445
C    6.0       20.4117785825       19.3245775944       22.8846184664
H    1.0       21.4055002237       18.8938997647       22.7351656648
H    1.0       20.4547022059       19.9770488972       23.7609609733
C    6.0       20.0155004552       20.1640141472       21.6517669377
H    1.0       18.9414667497       20.3905544710       21.6810911384
H    1.0       20.5294804697       21.1315548517       21.7261715752
C    6.0       20.3950344413       19.5262204738       20.2909296600
H    1.0       21.4811141977       19.3627112192       20.2494902722
H    1.0       20.1659487002       20.2482112076       19.4945388560
C    6.0       19.6624958401       18.2013084671       19.9796778418
H    1.0       20.0157136071       17.3858600654       20.6215166135
H    1.0       19.8494175780       17.8980255153       18.9412965076
H    1.0       18.5770416029       18.3069054125       20.1053432212
 $end
$$$$
! Edit this basic GAMESS input file as needed.
! Conformer was generated by a VeraChem VCPack run 
! and contains     17 atoms.
!
 $contrl scftyp=rhf runtyp=optimize nzvar=0
  maxit=200 icharg=0 $end
 $system mwords=50 $end
 $basis gbasis=pm3 $end
 $statpt nstep=200 $end
 $guess guess=huckel $end
 $data
VM2 Rank=9      G=18.277            E=0.261             -TS=18.016              
C1
N    7.0       18.9769963143       18.8033125336       23.2041256139
H    1.0       18.5160856384       19.2457570197       24.0057664851
H    1.0       19.0902862220       17.8120314899       23.4365211666
H    1.0       18.3269924676       18.8551731454       22.4156782608
C    6.0       20.3046726678       19.4620079706       22.8825125778
H    1.0       20.9351907560       19.3607567185       23.7700551037
H    1.0       20.1319157267       20.5278127826       22.7107080208
C    6.0       21.0395497639       18.8500767503       21.6712705617
H    1.0       22.1021676194       19.1136825657       21.7561315039
H    1.0       20.9963720953       17.7539648507       21.7202988816
C    6.0       20.5334988355       19.3484982117       20.2935216539
H    1.0       21.1888997221       18.9352384308       19.5139985308
H    1.0       20.6411258197       20.4406570252       20.2332964376
C    6.0       19.0742824185       18.9561045337       19.9685695927
H    1.0       18.9094134467       17.8802770729       20.1119768843
H    1.0       18.8408427415       19.1920480845       18.9221506729
H    1.0       18.3608594375       19.5097262870       20.5900278653
 $end
