$$$$
! Edit this basic GAMESS input file as needed.
! Conformer was generated by a VeraChem VCPack run 
! and contains    155 atoms.
!
 $contrl scftyp=rhf runtyp=optimize nzvar=0
  maxit=200 icharg=0 $end
 $system mwords=50 $end
 $basis gbasis=pm3 $end
 $statpt nstep=200 $end
 $guess guess=huckel $end
 $data
VM2 Rank=1      G=550.682           E=340.875           -TS=209.807             
C1
C    6.0       16.3488264251       15.0988118593       21.1018610299
H    1.0       15.2973361900       14.9143884150       20.8489380747
O    8.0       16.6025707336       16.4924480451       21.3763710148
C    6.0       16.7569568671       14.2707620813       22.3469885077
H    1.0       16.6254013745       13.2109541391       22.0927645570
O    8.0       15.9311868246       14.5838514555       23.4786170693
H    1.0       15.7719411033       15.5619970682       23.4701478175
C    6.0       18.2496949032       14.4946820432       22.6836431470
H    1.0       18.3759621140       15.5407668085       22.9932682555
O    8.0       18.6343171940       13.6252804951       23.7531926840
H    1.0       17.8841599820       13.6612106227       24.3891925756
C    6.0       19.1426069931       14.2469071001       21.4412028370
H    1.0       19.2006843263       13.1701666270       21.2324521984
C    6.0       18.6149034126       14.9716032782       20.1748830426
H    1.0       18.7799782922       16.0475483729       20.2948965346
O    8.0       17.2023046232       14.6898875649       20.0139214186
C    6.0       19.3438846923       14.5015700954       18.8961994644
H    1.0       18.9493476392       13.5200260540       18.6011407938
H    1.0       20.4110624425       14.3722279794       19.1161059829
O    8.0       19.1876114261       15.4478373844       17.8334840612
H    1.0       19.5752719501       15.0383602554       17.0296042541
C    6.0       14.7081361834       20.2292753515       21.1823938187
H    1.0       13.9508632015       21.0127690622       21.0541353677
O    8.0       16.0252401407       20.7803813579       21.3762633028
C    6.0       14.3704388351       19.3576245058       22.4184493894
H    1.0       13.3761087063       18.9237188031       22.2506510713
O    8.0       14.3379875896       20.1489471245       23.6169079534
H    1.0       15.0225053478       20.8587122580       23.5239214007
C    6.0       15.3768148502       18.1906440708       22.5638346572
H    1.0       16.3639796177       18.6110985181       22.8004517951
O    8.0       14.9460790061       17.3323864657       23.6235255364
H    1.0       14.6940868276       17.9410298784       24.3540246926
C    6.0       15.4872957400       17.3943826172       21.2393451515
H    1.0       14.5438881517       16.8585144165       21.0707108034
C    6.0       15.7631586183       18.3386617112       20.0383536454
H    1.0       16.7582059011       18.7854539940       20.1572813512
O    8.0       14.7449054459       19.3704220380       20.0225217989
C    6.0       15.7148684721       17.6173213949       18.6750846449
H    1.0       14.7215548168       17.1711097644       18.5340220556
H    1.0       16.4522049219       16.8038789687       18.6666463854
O    8.0       16.0031006816       18.5439413353       17.6246704096
H    1.0       15.3742645848       19.2896721305       17.7417776840
C    6.0       18.3283426802       24.1813769379       21.1131535128
H    1.0       18.7624294131       25.1802494002       20.9756588590
O    8.0       19.3501310477       23.1670797773       21.2236464739
C    6.0       17.4061510008       24.1321538228       22.3591814544
H    1.0       16.5643553904       24.8094901799       22.1646995422
O    8.0       18.0785745266       24.5668278186       23.5495757600
H    1.0       18.8153321546       23.9264109981       23.7158144567
C    6.0       16.8367584757       22.7045175123       22.5359987178
H    1.0       17.6707858268       22.0276246239       22.7681125464
O    8.0       15.8936541349       22.6940183388       23.6116219589
H    1.0       16.3173285376       23.2135084934       24.3309969873
C    6.0       16.1530910015       22.2083641933       21.2358103862
H    1.0       15.1787303103       22.7061848702       21.1434532315
C    6.0       16.9929448838       22.4855204802       19.9565875768
H    1.0       17.8272397173       21.7767324150       19.9220627577
O    8.0       17.4983422739       23.8444324837       19.9823257725
C    6.0       16.1724525685       22.3223285878       18.6608809551
H    1.0       15.3565277557       23.0572019347       18.6515437625
H    1.0       15.7241117184       21.3219961961       18.6378452390
O    8.0       17.0186802546       22.4970979140       17.5234275189
H    1.0       17.4884985166       23.3484348442       17.6634707698
C    6.0       23.3699533808       22.5388606805       21.9680489801
H    1.0       24.4312571260       22.6249436551       22.2320829018
O    8.0       23.0891528793       21.3048240879       21.2755706801
C    6.0       22.4862326533       22.6059612264       23.2402239673
H    1.0       22.6753541789       23.5770027282       23.7161647148
O    8.0       22.8051859390       21.5550905071       24.1669602470
H    1.0       23.7262966297       21.2621456546       23.9660392617
C    6.0       20.9891984042       22.5321635912       22.8655827947
H    1.0       20.7971036188       21.5360675571       22.4535512793
O    8.0       20.2087549504       22.7188856332       24.0487226633
H    1.0       20.6538960280       22.1589642507       24.7246621392
C    6.0       20.6138406474       23.5748514817       21.7821722969
H    1.0       20.5581146259       24.5673402644       22.2489323877
C    6.0       21.6292517217       23.5948676360       20.6051704150
H    1.0       21.4873614295       22.6812184436       20.0125843232
O    8.0       22.9857252052       23.6361149976       21.1123157685
C    6.0       21.4411050429       24.7998452396       19.6567628650
H    1.0       20.4577873191       24.7244432187       19.1736778928
H    1.0       22.1992504851       24.7476860157       18.8639132753
O    8.0       21.5478162904       26.0377977360       20.3656832616
H    1.0       22.4332605783       26.0354455350       20.7929030836
C    6.0       24.9433933860       17.6311514008       20.6902458275
H    1.0       25.5979731569       16.8010242281       20.3945005764
O    8.0       23.6645973318       17.1615605514       21.1595817958
C    6.0       25.5960041141       18.4956137345       21.7983924331
H    1.0       26.5138147265       18.9233979358       21.3742484025
O    8.0       25.9414531167       17.7153184098       22.9530212334
H    1.0       25.1088971902       17.2922645439       23.2841160242
C    6.0       24.6635239168       19.6677550687       22.1914733140
H    1.0       23.7635790681       19.2468645099       22.6618281298
O    8.0       25.3568461186       20.5001474349       23.1282244644
H    1.0       25.8460769906       19.8731253369       23.7088817515
C    6.0       24.2212657474       20.4780709553       20.9368487987
H    1.0       25.0605880880       21.0873770840       20.5760080213
C    6.0       23.7405568367       19.5579283746       19.7817711415
H    1.0       22.7657086140       19.1314076920       20.0505626446
O    8.0       24.7074595706       18.5007621207       19.5635003373
C    6.0       23.5797710821       20.3274331546       18.4541672794
H    1.0       24.5615552887       20.6934254375       18.1254628960
H    1.0       22.9347952135       21.2008989204       18.6166416101
O    8.0       23.0034146461       19.4758134221       17.4624734736
H    1.0       23.5586702392       18.6660632232       17.4438769190
C    6.0       21.4506212219       13.8749307645       22.1573704844
H    1.0       21.0235533525       12.9029764871       22.4365258684
O    8.0       20.4343248051       14.8065914369       21.7359731065
C    6.0       22.2118289890       14.4880586312       23.3567452636
H    1.0       23.0437903591       13.8133338397       23.5970461670
O    8.0       21.3571763136       14.6104852348       24.5050103577
H    1.0       20.4444014537       14.3615811121       24.2169507183
C    6.0       22.8043283419       15.8645107534       22.9768211168
H    1.0       21.9706326951       16.5612720349       22.8395347520
O    8.0       23.6353373455       16.3291722615       24.0439091213
H    1.0       23.1070425221       16.1705409227       24.8583304518
C    6.0       23.6107012599       15.8100160918       21.6523956454
H    1.0       24.6100634061       15.4082912433       21.8668833436
C    6.0       22.9220420502       14.9677162038       20.5392373589
H    1.0       22.0976127689       15.5638827636       20.1259143226
O    8.0       22.3980167057       13.7283666586       21.0798201099
C    6.0       23.8631417083       14.6117153537       19.3671589791
H    1.0       24.1737926717       15.5365606523       18.8633416767
H    1.0       23.3044765298       14.0138187227       18.6346656858
O    8.0       25.0099657717       13.8902719235       19.8257197463
H    1.0       24.6677259344       13.0916665736       20.2858234893
C    6.0       19.5341183870       17.9848081707       24.4394680033
H    1.0       20.1959786187       17.1128953238       24.3723979416
H    1.0       19.6864255975       18.4476604025       25.4228234497
H    1.0       18.4958652803       17.6312248004       24.3905290640
C    6.0       19.8290152357       18.9957948111       23.3123231710
H    1.0       20.8572660617       19.3707066337       23.4158692145
H    1.0       19.1592586623       19.8606377951       23.4202859403
C    6.0       19.6441641859       18.3619168092       21.9177570618
H    1.0       20.3841242833       17.5673863618       21.7676023098
H    1.0       18.6579384811       17.8883496017       21.8672459180
C    6.0       19.7628233915       19.3971795796       20.7819456635
H    1.0       20.7112369770       19.9417804821       20.8687797652
H    1.0       18.9587242682       20.1357320092       20.8898583223
C    6.0       19.6878192904       18.7289005062       19.3920812850
H    1.0       20.5723015590       18.0934803250       19.2428663897
H    1.0       18.8116425341       18.0708775588       19.3484502029
C    6.0       19.5949371280       19.7734431890       18.2574656243
H    1.0       20.3968685444       20.5135450538       18.3778792864
H    1.0       18.6453400914       20.3170887790       18.3392934507
C    6.0       19.7035882968       19.1491876873       16.8512477636
H    1.0       20.6884988603       18.6808900002       16.7575153657
C    6.0       19.5865135056       20.2444020786       15.7805342271
H    1.0       20.3689935009       21.0014719296       15.9155471952
H    1.0       18.6111175909       20.7453266836       15.8327685610
H    1.0       19.7018809400       19.8197280481       14.7761564317
N    7.0       18.6858449853       18.0663520521       16.6179075522
H    1.0       18.6975730590       17.7351820578       15.6510121389
H    1.0       18.8569305625       17.2497845749       17.2248777061
H    1.0       17.7288975507       18.3920628007       16.8293020201
 $end
