$$$$
! Edit this basic GAMESS input file as needed.
! Conformer was generated by a VeraChem VCPack run 
! and contains    149 atoms.
!
 $contrl scftyp=rhf runtyp=optimize nzvar=0
  maxit=200 icharg=0 $end
 $system mwords=50 $end
 $basis gbasis=pm3 $end
 $statpt nstep=200 $end
 $guess guess=huckel $end
 $data
VM2 Rank=1      G=557.081           E=360.326           -TS=196.755             
C1
C    6.0       16.4274171287       15.4165661033       21.7530101253
H    1.0       15.3789256825       15.2735936613       22.0430520802
O    8.0       16.6324433906       16.6944872286       21.1178800550
C    6.0       17.3508959374       15.3173127302       22.9963091129
H    1.0       17.1935685458       14.3233266585       23.4350050400
O    8.0       17.0355516872       16.3194300674       23.9765218800
H    1.0       16.0965275364       16.5846744050       23.8273944339
C    6.0       18.8383052868       15.4362606481       22.5930460171
H    1.0       19.0084844403       16.4563573653       22.2299992634
O    8.0       19.6477125076       15.1922550782       23.7466840344
H    1.0       19.2247764405       15.7244213242       24.4581329672
C    6.0       19.2019941964       14.4540502551       21.4518241971
H    1.0       19.2514763847       13.4370071281       21.8628043383
C    6.0       18.1694557828       14.5019392050       20.2918280229
H    1.0       18.2797400919       15.4615737949       19.7693418085
O    8.0       16.8258262298       14.3868235482       20.8224683747
C    6.0       18.3641644428       13.3765325323       19.2512636962
H    1.0       19.3336342352       13.5133057609       18.7539110035
H    1.0       17.5865329794       13.4685480723       18.4812302588
O    8.0       18.3041897036       12.0863279944       19.8663240805
H    1.0       17.4290807531       12.0333661440       20.3112122488
C    6.0       14.6664216678       20.3288387561       20.7794567319
H    1.0       13.9874621095       21.1625072350       20.5578334609
O    8.0       15.9628972604       20.7895716251       21.2047128999
C    6.0       14.0914946533       19.4135757217       21.8887206859
H    1.0       13.1498714453       18.9957128712       21.5092677496
O    8.0       13.8237017193       20.1487762998       23.0932113004
H    1.0       14.6576263930       20.6193855362       23.3479087748
C    6.0       15.0549730070       18.2351450997       22.1766196847
H    1.0       15.9689841873       18.6464678839       22.6274019359
O    8.0       14.4186153640       17.3457039142       23.1009530764
H    1.0       13.9564661009       17.9346532889       23.7406339232
C    6.0       15.4546724893       17.4901037784       20.8682372091
H    1.0       14.6185528598       16.8654413667       20.5266210432
C    6.0       15.8465061466       18.4662534085       19.7266933876
H    1.0       16.8225513237       18.9063503402       19.9620606319
O    8.0       14.8497163407       19.5097287490       19.6057913469
C    6.0       15.9601114141       17.7547064387       18.3621785119
H    1.0       14.9616290537       17.4388195911       18.0315138656
H    1.0       16.5752643915       16.8520045143       18.4742865452
O    8.0       16.5583926893       18.6294522617       17.4031365662
H    1.0       16.0072032563       19.4422239620       17.3901766062
C    6.0       18.3238951416       24.0132528303       21.9585335576
H    1.0       18.8076817163       24.9744767882       22.1754088851
O    8.0       19.2766582853       23.0220801454       21.5177014960
C    6.0       17.5933839170       23.4886865415       23.2193808763
H    1.0       16.8112133818       24.2167504628       23.4709939089
O    8.0       18.4949239838       23.3606586104       24.3303747538
H    1.0       19.3961006869       23.6041764560       24.0037894706
C    6.0       16.9125828094       22.1326747779       22.9301599749
H    1.0       17.7073868982       21.3905105856       22.8063183433
O    8.0       16.0956092747       21.7601033032       24.0435316475
H    1.0       16.6585691919       21.9260298772       24.8329191838
C    6.0       16.0605230034       22.1589829506       21.6340590488
H    1.0       15.0781650233       22.5896718805       21.8698950073
C    6.0       16.7217426872       22.9363059766       20.4587883951
H    1.0       17.4948287623       22.2910220272       20.0221952307
O    8.0       17.3291756698       24.1667192028       20.9260635403
C    6.0       15.7328381446       23.2963969449       19.3280560937
H    1.0       15.3522712715       22.3709656435       18.8760075154
H    1.0       16.2755058199       23.8423989444       18.5447392092
O    8.0       14.6478130801       24.0862266749       19.8227415383
H    1.0       15.0514422329       24.8825812459       20.2345623238
C    6.0       23.3667128882       22.6125359657       20.8199108604
H    1.0       24.4102478570       22.7714988018       20.5191417728
O    8.0       23.1207758931       21.2313330083       21.1505758311
C    6.0       22.9888973169       23.5217569737       22.0226145663
H    1.0       23.1332347331       24.5595914390       21.6952066748
O    8.0       23.8215239751       23.2797759975       23.1667687847
H    1.0       23.6668203072       22.3415192392       23.4447119661
C    6.0       21.4980966160       23.3487568397       22.4002857468
H    1.0       21.3622250372       22.3308283882       22.7908617895
O    8.0       21.1536481521       24.3057360097       23.4073886878
H    1.0       21.9181680695       24.3106828812       24.0269993106
C    6.0       20.5811607357       23.5168348138       21.1606523522
H    1.0       20.5463109193       24.5736165643       20.8634244433
C    6.0       21.0769705507       22.6801613909       19.9526765010
H    1.0       20.9175669223       21.6171567937       20.1694181884
O    8.0       22.4836401530       22.9523037615       19.7303712072
C    6.0       20.3292134034       23.0256948980       18.6485269527
H    1.0       20.5588880141       24.0604597268       18.3612470355
H    1.0       19.2478036349       22.9601469191       18.8186168004
O    8.0       20.7135469179       22.1187368475       17.6133661211
H    1.0       21.6935951063       22.1594470225       17.5682700009
C    6.0       24.9657326309       17.6567352947       22.0545284901
H    1.0       25.6307875179       16.8328008674       22.3439763025
O    8.0       23.7580408719       17.1782208935       21.4291259442
C    6.0       24.5887750251       18.5123294917       23.2914339132
H    1.0       25.5175812994       18.9478736719       23.6823954425
O    8.0       23.9690562828       17.7262330520       24.3216070142
H    1.0       23.9447920790       16.7902034241       24.0051701534
C    6.0       23.6517252516       19.6687688983       22.8802076917
H    1.0       22.7031965490       19.2235069372       22.5567805564
O    8.0       23.4291605726       20.5189146233       24.0095897959
H    1.0       23.2550203883       19.8988591531       24.7533716498
C    6.0       24.2274464226       20.4880441969       21.6984114950
H    1.0       25.0174799569       21.1474941277       22.0812796401
C    6.0       24.7945342167       19.5899089987       20.5606803751
H    1.0       23.9484322254       19.1455067458       20.0201403952
O    8.0       25.6226538316       18.5362921541       21.1168610350
C    6.0       25.6454586033       20.3625587312       19.5284323357
H    1.0       25.0027153386       21.0767143548       18.9970645446
H    1.0       26.0275767132       19.6518851223       18.7833134846
O    8.0       26.7293179836       21.0497737486       20.1599036647
H    1.0       27.2558010162       20.3642245756       20.6282624704
C    6.0       21.4746542089       13.8583375017       20.7287156437
H    1.0       21.0233588753       12.8935614011       20.4630804390
O    8.0       20.4688299515       14.8798724247       20.9105942185
C    6.0       22.3530408888       13.7356523279       22.0023784867
H    1.0       23.1788443190       13.0549735916       21.7572993562
O    8.0       21.6256869551       13.1941129801       23.1144070736
H    1.0       20.9313248638       13.8592082395       23.3520190168
C    6.0       22.9634785785       15.1081032380       22.3720592804
H    1.0       22.1428200734       15.7709387157       22.6804785842
O    8.0       23.8802858528       14.9361019550       23.4573472004
H    1.0       23.4416944561       14.2970818701       24.0640021780
C    6.0       23.6831741542       15.7650153788       21.1631756761
H    1.0       24.6795638625       15.3204439752       21.0385575260
C    6.0       22.8993309935       15.6297528138       19.8282707850
H    1.0       22.0792774497       16.3559071093       19.8423414511
O    8.0       22.3546701387       14.2958278249       19.6736620718
C    6.0       23.7707981635       15.9335118652       18.5897468802
H    1.0       24.1732162595       16.9517922264       18.6755118034
H    1.0       23.1359779912       15.9025773746       17.6943797726
O    8.0       24.8393567769       14.9903756983       18.4704613980
H    1.0       24.4206357068       14.1007451102       18.4785340009
N    7.0       21.0729382763       18.5420698784       15.6114129137
H    1.0       20.6411609610       18.7204302515       14.6986802940
H    1.0       21.3829576823       17.5657299992       15.6108604756
H    1.0       21.9095788885       19.1312956941       15.6649080612
C    6.0       20.1122398641       18.8317184741       16.7463820892
H    1.0       19.2260892307       18.2041032810       16.6137567057
H    1.0       19.8042573018       19.8786393043       16.6680767615
C    6.0       20.7229973799       18.5815217447       18.1358587485
H    1.0       21.0499713426       17.5378313476       18.2104531677
H    1.0       21.6083478841       19.2184476055       18.2652447039
C    6.0       19.6953387995       18.8873557693       19.2431956302
H    1.0       18.8475096133       18.1962792620       19.1496730834
H    1.0       19.2974502602       19.9005677916       19.0884414854
C    6.0       20.2930846858       18.7809183943       20.6636986675
H    1.0       21.2072105278       19.3843730367       20.7256826438
H    1.0       20.5817790853       17.7433990125       20.8764891499
C    6.0       19.2816634199       19.2696372014       21.7211602510
H    1.0       18.3854253892       18.6371759933       21.6996778739
H    1.0       18.9567117662       20.2841077732       21.4602718220
C    6.0       19.8673472690       19.2708190259       23.1476905683
H    1.0       19.0914860204       19.5223501829       23.8824286133
H    1.0       20.6672404595       20.0149345835       23.2429189653
H    1.0       20.2756547597       18.2866878619       23.4128738547
 $end
