$$$$
! Edit this basic GAMESS input file as needed.
! Conformer was generated by a VeraChem VCPack run 
! and contains    148 atoms.
!
 $contrl scftyp=rhf runtyp=optimize nzvar=0
  maxit=200 icharg=0 $end
 $system mwords=50 $end
 $basis gbasis=pm3 $end
 $statpt nstep=200 $end
 $guess guess=huckel $end
 $data
VM2 Rank=1      G=563.011           E=367.740           -TS=195.271             
C1
C    6.0       16.2159316437       15.1045700112       21.1199801091
H    1.0       15.1370344932       14.9755577024       20.9643356854
O    8.0       16.5474894608       16.4659712642       21.4596820539
C    6.0       16.7186983525       14.1811969256       22.2589566047
H    1.0       16.4977155965       13.1456686883       21.9693342548
O    8.0       16.0643621393       14.4808567183       23.4999926743
H    1.0       16.5452580939       13.9451248738       24.1702993553
C    6.0       18.2482124641       14.3162304827       22.4360236991
H    1.0       18.4463166574       15.3262521299       22.8128341716
O    8.0       18.7196576555       13.3409987864       23.3742579888
H    1.0       19.7077826918       13.3916700317       23.3635237221
C    6.0       19.0025243843       14.1518741649       21.0949909380
H    1.0       19.0073593143       13.0878771029       20.8241991380
C    6.0       18.3647313115       14.9820707810       19.9473010210
H    1.0       18.5701239968       16.0456650866       20.1279507118
O    8.0       16.9342070259       14.7557939007       19.9177643992
C    6.0       18.9168710421       14.6242220839       18.5501518126
H    1.0       19.9863101599       14.8627115034       18.5159640679
H    1.0       18.4185840527       15.2548331336       17.8018512638
O    8.0       18.7088860173       13.2407592098       18.2507148735
H    1.0       17.7431501133       13.0831515657       18.3446355230
C    6.0       14.8956743190       20.2436080930       21.6389305518
H    1.0       14.2420916257       21.1217703920       21.7135689584
O    8.0       16.2432181119       20.6114158150       21.2771052398
C    6.0       14.9267046104       19.4878666594       22.9899568096
H    1.0       13.9014425820       19.1591355090       23.2042832823
O    8.0       15.3767338853       20.3408951616       24.0518835583
H    1.0       15.5430042685       19.7314255843       24.8054617453
C    6.0       15.8171419541       18.2269224789       22.8945678986
H    1.0       16.8580317945       18.5490072089       22.7710321197
O    8.0       15.6866828734       17.4530487799       24.0930103090
H    1.0       16.0076884986       16.5435874726       23.8783769598
C    6.0       15.4338299566       17.3522328190       21.6754290509
H    1.0       14.5152302143       16.8028795411       21.9218926676
C    6.0       15.2277121277       18.1772853609       20.3726369968
H    1.0       16.2119759142       18.5074488702       20.0161926162
O    8.0       14.3939914630       19.3311539479       20.6409827410
C    6.0       14.5589501587       17.3794824143       19.2306394437
H    1.0       15.2298830285       16.5705474145       18.9142156820
H    1.0       14.4248858028       18.0456127540       18.3677179635
O    8.0       13.2985160156       16.8429769021       19.6434850548
H    1.0       12.7524943713       17.6101552375       19.9260330199
C    6.0       18.5002212742       24.0529945188       20.6524195291
H    1.0       18.8842462921       25.0284669521       20.3278122770
O    8.0       19.5087799154       23.2786163446       21.3259242880
C    6.0       17.3090934303       24.2320127249       21.6292992085
H    1.0       16.5271536829       24.7911764340       21.0993557563
O    8.0       17.7095021759       24.9614396931       22.7990586592
H    1.0       16.9392939060       24.8999843940       23.4072376231
C    6.0       16.7210379215       22.8619461538       22.0478399826
H    1.0       17.4725127784       22.3526837291       22.6591912366
O    8.0       15.5401027080       23.0632194865       22.8337434893
H    1.0       15.4012623731       22.2197932265       23.3317785271
C    6.0       16.4226922428       21.9645971662       20.8146221681
H    1.0       15.5277735344       22.3325389440       20.2953541680
C    6.0       17.6073902364       21.9370094481       19.8117282061
H    1.0       18.4348864347       21.3707387340       20.2607735188
O    8.0       18.0323416937       23.2912339945       19.5201629776
C    6.0       17.2490884777       21.2633550571       18.4686205889
H    1.0       16.9400627837       20.2273929898       18.6569421518
H    1.0       18.1500852146       21.2288391461       17.8417968314
O    8.0       16.2053848233       21.9751083014       17.7971594663
H    1.0       16.5068049274       22.9093854808       17.7432716675
C    6.0       23.5809203169       22.8744449150       21.8419419677
H    1.0       24.6625187791       23.0334743107       21.9334799037
O    8.0       23.2381601801       21.4710628457       21.9203569559
C    6.0       22.8459375061       23.6357515257       22.9732516630
H    1.0       23.1023556334       24.6987757248       22.8772702078
O    8.0       23.2505703459       23.1631656650       24.2655536068
H    1.0       22.6235276380       23.5879176858       24.8927841488
C    6.0       21.3159024666       23.4982139603       22.8254755864
H    1.0       21.0609282729       22.4516438010       23.0166915107
O    8.0       20.6499470829       24.3442836241       23.7711156244
H    1.0       19.6992956941       24.3651301987       23.5031669404
C    6.0       20.8296118543       23.8424919409       21.3999420151
H    1.0       20.8187634985       24.9347241674       21.2877220761
C    6.0       21.7057043002       23.1937677154       20.2902345582
H    1.0       21.4915205633       22.1184566193       20.2570878219
O    8.0       23.1091737308       23.4005117532       20.5836030149
C    6.0       21.4436490836       23.7688261349       18.8805269233
H    1.0       20.4157041625       23.5334137308       18.5783342472
H    1.0       22.1132426483       23.2696268733       18.1675111616
O    8.0       21.6567235912       25.1833697676       18.8522778402
H    1.0       22.5780950665       25.3267840422       19.1638149851
C    6.0       25.0367184197       17.6957963817       21.7901166261
H    1.0       25.7654507283       16.8764755292       21.7514670464
O    8.0       23.6851996351       17.2116566607       21.6818183374
C    6.0       25.1881918361       18.4720748617       23.1234338513
H    1.0       26.2145046413       18.8598180079       23.1611439953
O    8.0       24.9670008144       17.6184607520       24.2543231230
H    1.0       24.9057135220       18.2349243496       25.0184718168
C    6.0       24.2242547278       19.6783388240       23.1800698906
H    1.0       23.2001658802       19.2892457535       23.2232274232
O    8.0       24.5075661508       20.4597889742       24.3473477956
H    1.0       23.9737217853       21.2899186242       24.2792460427
C    6.0       24.3577950040       20.5587615026       21.9148797015
H    1.0       25.3198074031       21.0857875211       21.9626746616
C    6.0       24.3063032402       19.7177742709       20.6100784949
H    1.0       23.2874348514       19.3266380991       20.4840860779
O    8.0       25.2540091407       18.6216340967       20.7037152170
C    6.0       24.6654397989       20.5288185664       19.3455055801
H    1.0       23.9339073875       21.3361470988       19.2145146447
H    1.0       24.5850460121       19.8703959966       18.4703105516
O    8.0       25.9871964628       21.0686800383       19.4395945025
H    1.0       26.5810456603       20.3053480491       19.6155860976
C    6.0       21.4249715156       13.8037363301       20.9532252019
H    1.0       21.0789380221       12.8042748531       20.6614862779
O    8.0       20.3291658603       14.6611235708       21.3292610235
C    6.0       22.3939942664       13.7017492030       22.1587754579
H    1.0       23.2326098314       13.0632671009       21.8520785835
O    8.0       21.7445677593       13.1169239625       23.2970661140
H    1.0       22.3844222309       13.2328408483       24.0348046685
C    6.0       22.9649758614       15.0890601070       22.5378064315
H    1.0       22.1467654370       15.6901610130       22.9523183583
O    8.0       23.9948145986       14.9306146064       23.5207257715
H    1.0       24.2749845638       15.8422302473       23.7861938049
C    6.0       23.5266213088       15.8329300903       21.3000042579
H    1.0       24.4783369139       15.3735681569       21.0014415320
C    6.0       22.5560060797       15.7962812516       20.0913577736
H    1.0       21.6889131965       16.4353978208       20.3045088016
O    8.0       22.1394713059       14.4272387819       19.8647480395
C    6.0       23.2270842252       16.2997808926       18.7962267893
H    1.0       24.0913999436       15.6633702327       18.5639655952
H    1.0       23.5976824392       17.3207075721       18.9543359926
O    8.0       22.2899896579       16.2839207770       17.7176178715
H    1.0       21.9457312545       15.3647278507       17.6728607411
C    6.0       20.8790503459       17.8212957516       25.1503357600
H    1.0       20.8133955863       17.1100985046       25.9846292208
H    1.0       21.9299277589       17.8116013573       24.8303073953
C    6.0       20.5087143790       19.2203752267       25.6855330204
H    1.0       19.5145351579       19.1812626954       26.1508946937
H    1.0       21.2104930589       19.4789436506       26.4898880944
C    6.0       20.5366253033       20.3457180747       24.6291598944
H    1.0       21.5172480334       20.3957294004       24.1445075835
H    1.0       20.4141360650       21.3004419822       25.1585700746
C    6.0       19.4041576647       20.2321633911       23.5802383268
H    1.0       18.4836470521       19.8875578142       24.0683015815
H    1.0       19.1760978178       21.2366035502       23.2129928275
C    6.0       19.6971786687       19.3431091352       22.3504510138
H    1.0       18.7395830984       19.1812969421       21.8371020558
C    6.0       20.3146065286       17.9556935388       22.6364471691
H    1.0       19.9738037569       17.2818187936       21.8418324276
H    1.0       21.4026742164       18.0074653129       22.5310805187
C    6.0       19.9762391993       17.3136319084       24.0035096757
H    1.0       18.9134421172       17.4430689883       24.2492213792
H    1.0       20.1402165432       16.2320158581       23.9203674008
O    8.0       20.5612751073       20.0452042438       21.4660718453
H    1.0       21.3321587310       20.3333266793       21.9952497218
 $end
$$$$
! Edit this basic GAMESS input file as needed.
! Conformer was generated by a VeraChem VCPack run 
! and contains    148 atoms.
!
 $contrl scftyp=rhf runtyp=optimize nzvar=0
  maxit=200 icharg=0 $end
 $system mwords=50 $end
 $basis gbasis=pm3 $end
 $statpt nstep=200 $end
 $guess guess=huckel $end
 $data
VM2 Rank=2      G=563.086           E=368.329           -TS=194.757             
C1
C    6.0       16.1018434628       14.9902785137       21.5167776248
H    1.0       15.0159028752       14.8347163076       21.5252465320
O    8.0       16.4488023819       16.3827198423       21.6682092398
C    6.0       16.7702383885       14.1906659277       22.6621840280
H    1.0       16.5554483066       13.1271595524       22.4949764893
O    8.0       16.2578147068       14.5851242843       23.9419617249
H    1.0       16.8448337282       14.1373532302       24.5922128318
C    6.0       18.3024723873       14.3821753172       22.6342520476
H    1.0       18.5070168074       15.4283912872       22.8881072205
O    8.0       18.9183647413       13.5126992739       23.5922930481
H    1.0       19.8876867981       13.5157387333       23.3958026491
C    6.0       18.8966972171       14.1094336157       21.2320145661
H    1.0       18.9415032089       13.0227408029       21.0806954333
C    6.0       18.0798043478       14.7726333230       20.0868808817
H    1.0       18.2671930587       15.8547330793       20.1073693275
O    8.0       16.6649771573       14.5186148440       20.2748418576
C    6.0       18.4605643062       14.2551237538       18.6818692505
H    1.0       19.5046211375       14.5190681455       18.4704309347
H    1.0       17.8379281968       14.7684210574       17.9368865874
O    8.0       18.2800781475       12.8388950644       18.5876952763
H    1.0       17.3411064463       12.6663270283       18.8222661327
C    6.0       14.8453387047       20.2062181221       21.6860448063
H    1.0       14.1796968084       21.0781339882       21.7162975047
O    8.0       16.2015125514       20.5838607148       21.3741786110
C    6.0       14.8218127335       19.4768042609       23.0516772753
H    1.0       13.7861947001       19.1614409604       23.2338931899
O    8.0       15.2387286190       20.3464774368       24.1134923551
H    1.0       15.3675150409       19.7506004913       24.8851692519
C    6.0       15.7021306038       18.2059758444       23.0183118917
H    1.0       16.7517928560       18.5151866968       22.9333257959
O    8.0       15.5079733539       17.4625082392       24.2271819825
H    1.0       15.9121113207       16.5711576095       24.0849051336
C    6.0       15.3583752649       17.3135211764       21.7990839423
H    1.0       14.4026675391       16.8080720005       21.9920958037
C    6.0       15.2620274868       18.1211802125       20.4756815296
H    1.0       16.2716794345       18.4392471284       20.1835570697
O    8.0       14.4039145982       19.2722438997       20.6794912653
C    6.0       14.6582153971       17.3012127963       19.3165411301
H    1.0       13.6436914117       16.9801263950       19.5879772688
H    1.0       15.2630687482       16.4008744563       19.1511372862
O    8.0       14.6326960165       18.0903328307       18.1255681308
H    1.0       14.1882961504       18.9328897131       18.3695123121
C    6.0       18.4271624431       24.0302529241       20.6864402949
H    1.0       18.8029681355       25.0034454462       20.3456833949
O    8.0       19.4439766352       23.2706954006       21.3641955115
C    6.0       17.2433617841       24.2140682241       21.6703242782
H    1.0       16.4535958410       24.7614709727       21.1397149540
O    8.0       17.6469192661       24.9599016688       22.8285831427
H    1.0       16.8804476849       24.9033713145       23.4418544851
C    6.0       16.6694441750       22.8443447468       22.1081811952
H    1.0       17.4254653408       22.3501356856       22.7270587239
O    8.0       15.4835474019       23.0454366899       22.8864661403
H    1.0       15.3360113850       22.1999545951       23.3789135469
C    6.0       16.3785698802       21.9279938335       20.8879412800
H    1.0       15.4835083709       22.2864821454       20.3620369165
C    6.0       17.5568963709       21.8909291144       19.8799431401
H    1.0       18.3943124190       21.3330797460       20.3216006059
O    8.0       17.9517591155       23.2502499865       19.5689198719
C    6.0       17.1611245194       21.2094916480       18.5527945696
H    1.0       16.3310845992       21.7635613243       18.0946293548
H    1.0       16.8088715258       20.1901226403       18.7574300493
O    8.0       18.2832391946       21.1706034586       17.6688857730
H    1.0       18.6323067562       22.0882039202       17.6394822794
C    6.0       23.5251803329       22.9115834915       21.8496176290
H    1.0       24.6058647950       23.0815443848       21.9325985016
O    8.0       23.1972339335       21.5061587637       21.9268587660
C    6.0       22.7895407912       23.6539118852       22.9927699857
H    1.0       23.0361290423       24.7201699501       22.9077731349
O    8.0       23.2072743593       23.1677048774       24.2765490342
H    1.0       22.5838768956       23.5816423247       24.9142944206
C    6.0       21.2590125552       23.5036630390       22.8527004660
H    1.0       21.0126822028       22.4545490078       23.0422427027
O    8.0       20.5914362215       24.3415122116       23.8043638061
H    1.0       19.6402418544       24.3589622173       23.5384707556
C    6.0       20.7597213576       23.8462081392       21.4309772204
H    1.0       20.7384548229       24.9383995511       21.3198473970
C    6.0       21.6335479122       23.2052568332       20.3157515739
H    1.0       21.4338103554       22.1263542154       20.2896311675
O    8.0       23.0352833424       23.4358649181       20.5976916027
C    6.0       21.3519826284       23.7698431909       18.9057418798
H    1.0       20.3267968391       23.5143650321       18.6122231924
H    1.0       22.0255049703       23.2798607778       18.1900326625
O    8.0       21.5379976098       25.1879119894       18.8699500653
H    1.0       22.4586010629       25.3503131433       19.1742757343
C    6.0       24.9392527662       17.7328380603       21.6647221075
H    1.0       25.6388698761       16.8896904818       21.6030731194
O    8.0       23.5735486213       17.3032577460       21.5041663954
C    6.0       25.0901322452       18.4452301263       23.0331177689
H    1.0       26.1241092831       18.8076850587       23.1008678385
O    8.0       24.8353548573       17.5482920012       24.1225181640
H    1.0       24.7736970896       18.1319375690       24.9118102865
C    6.0       24.1525527951       19.6697508122       23.1269342505
H    1.0       23.1198854111       19.3025484674       23.1384670051
O    8.0       24.4300994492       20.3987485775       24.3293378727
H    1.0       23.9180566782       21.2435260502       24.2806164991
C    6.0       24.3215009346       20.6021015118       21.9041016694
H    1.0       25.2791239061       21.1297465244       22.0045188114
C    6.0       24.3024946513       19.8254201522       20.5585452294
H    1.0       23.2797727074       19.4683087339       20.3773250235
O    8.0       25.2168460439       18.7009366507       20.6310048776
C    6.0       24.7291943331       20.6832826867       19.3469127011
H    1.0       24.0140705278       21.5046711781       19.2151763184
H    1.0       24.6819981480       20.0620691497       18.4425221891
O    8.0       26.0514855762       21.2008294750       19.5230206617
H    1.0       26.6296884235       20.4217410705       19.6814778491
C    6.0       21.2783149950       13.9213251226       20.6972234817
H    1.0       20.9244197977       12.9444996855       20.3438375332
O    8.0       20.2053958389       14.7102326730       21.2450728777
C    6.0       22.3587515371       13.7410203922       21.7956328359
H    1.0       23.1778113342       13.1560411170       21.3574922299
O    8.0       21.8320923752       13.0420699963       22.9326795918
H    1.0       22.5410857849       13.1040518724       23.6116378361
C    6.0       22.9345503449       15.1050565951       22.2458430250
H    1.0       22.1398108394       15.6517800639       22.7696583859
O    8.0       24.0382582859       14.8890532786       23.1333743164
H    1.0       24.2839693806       15.7764597511       23.4967470099
C    6.0       23.3846265974       15.9562848872       21.0314144507
H    1.0       24.3076476767       15.5361779360       20.6102014210
C    6.0       22.3049656952       16.0062980745       19.9185529582
H    1.0       21.4573695427       16.6056947510       20.2756965573
O    8.0       21.8662106615       14.6611075220       19.6063998827
C    6.0       22.8193166599       16.6427811545       18.6082015862
H    1.0       23.1550142087       17.6674773573       18.8128688508
H    1.0       21.9856916041       16.7054261432       17.8961792667
O    8.0       23.8904603315       15.8757961763       18.0503436039
H    1.0       23.5549550658       14.9543718968       17.9795153333
C    6.0       20.9741288154       17.8734197532       25.2431003379
H    1.0       20.9710724486       17.1690772268       26.0857395962
H    1.0       22.0065304348       17.8886769190       24.8689293090
C    6.0       20.5935597152       19.2666068845       25.7854414531
H    1.0       19.6206610608       19.2083864858       26.2919028056
H    1.0       21.3222412527       19.5470922304       26.5579221254
C    6.0       20.5530559911       20.3833023317       24.7211943522
H    1.0       21.5138168203       20.4518830959       24.2002275543
H    1.0       20.4273141629       21.3394089784       25.2473176908
C    6.0       19.3858085582       20.2330301795       23.7159313982
H    1.0       18.4918041776       19.8696883552       24.2386840990
H    1.0       19.1200268386       21.2290308901       23.3494169546
C    6.0       19.6572544862       19.3419015986       22.4828419353
H    1.0       18.6888033263       19.1782080302       21.9900659424
C    6.0       20.2812919173       17.9536319326       22.7559094634
H    1.0       19.8873625796       17.2711166188       21.9938026717
H    1.0       21.3607328899       17.9927148454       22.5826446150
C    6.0       20.0274895683       17.3297476659       24.1495538543
H    1.0       18.9754789603       17.4391748553       24.4461407981
H    1.0       20.2133960893       16.2507528959       24.0739930446
O    8.0       20.5024872866       20.0447838557       21.5802239586
H    1.0       21.2836577178       20.3342050021       22.0922180598
 $end
$$$$
! Edit this basic GAMESS input file as needed.
! Conformer was generated by a VeraChem VCPack run 
! and contains    148 atoms.
!
 $contrl scftyp=rhf runtyp=optimize nzvar=0
  maxit=200 icharg=0 $end
 $system mwords=50 $end
 $basis gbasis=pm3 $end
 $statpt nstep=200 $end
 $guess guess=huckel $end
 $data
VM2 Rank=3      G=563.103           E=368.255           -TS=194.848             
C1
C    6.0       16.2180808366       15.0430204903       21.2145930308
H    1.0       15.1374477166       14.9063602860       21.0789746980
O    8.0       16.5496518369       16.4091336883       21.5342182170
C    6.0       16.7451462195       14.1370153054       22.3553252197
H    1.0       16.5221857605       13.0970971819       22.0835223128
O    8.0       16.1125976758       14.4513975311       23.6041749590
H    1.0       16.6071019261       13.9263862524       24.2729111915
C    6.0       18.2774465902       14.2796054727       22.5013876544
H    1.0       18.4773435550       15.2909719792       22.8735919825
O    8.0       18.7685495250       13.3072612170       23.4321286655
H    1.0       19.7561360215       13.3670651874       23.4124046662
C    6.0       19.0102232109       14.1178691999       21.1468370426
H    1.0       19.0189449656       13.0538389880       20.8756978259
C    6.0       18.3468291735       14.9360941406       20.0060371807
H    1.0       18.5468766351       16.0042264281       20.1662124271
O    8.0       16.9207665243       14.6797336167       20.0077350082
C    6.0       18.8786078081       14.5441629190       18.6121239016
H    1.0       18.6846965307       13.4777377446       18.4357032400
H    1.0       19.9635479118       14.6978818399       18.5813355885
O    8.0       18.2490536609       15.3403295807       17.6067710694
H    1.0       17.2827884545       15.2610731470       17.7674477945
C    6.0       14.9032643640       20.1955263587       21.6231526446
H    1.0       14.2465474102       21.0729800074       21.6755022535
O    8.0       16.2541480930       20.5616760820       21.2729831857
C    6.0       14.9185937352       19.4620471421       22.9868276107
H    1.0       13.8908879921       19.1368548370       23.1947216148
O    8.0       15.3564733309       20.3327725715       24.0394773260
H    1.0       15.5140945707       19.7361747276       24.8051013813
C    6.0       15.8098833362       18.1997926583       22.9226223743
H    1.0       16.8522806863       18.5196496290       22.8043086859
O    8.0       15.6669032530       17.4449183680       24.1318286651
H    1.0       16.0058434979       16.5370132341       23.9391897795
C    6.0       15.4383862410       17.3054144026       21.7145669967
H    1.0       14.5127341213       16.7664422367       21.9573227408
C    6.0       15.2564216391       18.1094682752       20.3953855642
H    1.0       16.2470619559       18.4338247834       20.0512765131
O    8.0       14.4177297430       19.2666955259       20.6323401203
C    6.0       14.6069106750       17.2950591675       19.2542071447
H    1.0       15.2833280329       16.4825503920       18.9607840838
H    1.0       14.4869870270       17.9486475899       18.3796788508
O    8.0       13.3402093288       16.7632372387       19.6536063570
H    1.0       12.7888948563       17.5338458399       19.9156908890
C    6.0       18.5021724861       23.9988409198       20.5954525292
H    1.0       18.8847599770       24.9694409077       20.2548948575
O    8.0       19.5088240390       23.2415118819       21.2906054423
C    6.0       17.3041102023       24.1915765780       21.5611357131
H    1.0       16.5229895145       24.7367626458       21.0156542779
O    8.0       17.6939156821       24.9451278771       22.7191287745
H    1.0       16.9205719255       24.8910095601       23.3240047833
C    6.0       16.7200251637       22.8270014047       22.0022958227
H    1.0       17.4706379479       22.3326436248       22.6269596012
O    8.0       15.5336674159       23.0370292706       22.7777502532
H    1.0       15.3929827101       22.2005065741       23.2867962256
C    6.0       16.4326293037       21.9056542935       20.7844816292
H    1.0       15.5398933679       22.2607890634       20.2526751859
C    6.0       17.6235198666       21.8632107748       19.7895248558
H    1.0       18.4503766636       21.3089063400       20.2541876757
O    8.0       18.0448126261       23.2135181737       19.4749451199
C    6.0       17.2759507519       21.1627026476       18.4573344115
H    1.0       16.9694793224       20.1293135897       18.6632935488
H    1.0       18.1809558293       21.1193865532       17.8368522547
O    8.0       16.2340022953       21.8580136303       17.7661037238
H    1.0       16.5326834565       22.7920942292       17.6963212506
C    6.0       23.5810126264       22.8589452014       21.8230701745
H    1.0       24.6617128394       23.0230283715       21.9163511008
O    8.0       23.2432409091       21.4553448090       21.9144870543
C    6.0       22.8390097838       23.6280378335       22.9444957673
H    1.0       23.0915644965       24.6911148808       22.8393129712
O    8.0       23.2409278344       23.1692436907       24.2426453021
H    1.0       22.6105551792       23.5980191432       24.8637494247
C    6.0       21.3099817084       23.4829388194       22.7926902417
H    1.0       21.0578680538       22.4373995139       22.9938268282
O    8.0       20.6372573579       24.3362249766       23.7269705728
H    1.0       19.6880758632       24.3515651472       23.4539623102
C    6.0       20.8273319878       23.8108191162       21.3620536351
H    1.0       20.8124591494       24.9018104258       21.2387496073
C    6.0       21.7097561715       23.1541256277       20.2619693534
H    1.0       21.5003737895       22.0775339993       20.2395050812
O    8.0       23.1111978053       23.3703878332       20.5580387248
C    6.0       21.4507874990       23.7130011505       18.8451606915
H    1.0       20.4258885271       23.4680135454       18.5404018850
H    1.0       22.1268162744       23.2105960125       18.1405170630
O    8.0       21.6552744437       25.1284744054       18.8031242792
H    1.0       22.5745096015       25.2808368782       19.1166918500
C    6.0       25.0450554459       17.6832028364       21.8244643137
H    1.0       25.7719002353       16.8616838287       21.7985747382
O    8.0       23.6934509401       17.2022629197       21.7018981466
C    6.0       25.1831502274       18.4666210074       23.1550100671
H    1.0       26.2090551639       18.8545618996       23.2009522088
O    8.0       24.9505037708       17.6197797028       24.2885750290
H    1.0       24.8807593514       18.2409093170       25.0482149970
C    6.0       24.2188937358       19.6731584552       23.1946758809
H    1.0       23.1943435168       19.2843957949       23.2286957453
O    8.0       24.4894704391       20.4610070477       24.3607067668
H    1.0       23.9589921095       21.2921811441       24.2805589828
C    6.0       24.3658286179       20.5470207660       21.9264997246
H    1.0       25.3254693292       21.0774071672       21.9838838382
C    6.0       24.3322516040       19.6998122721       20.6249677734
H    1.0       23.3149372862       19.3086702053       20.4866850467
O    8.0       25.2778792388       18.6034540655       20.7365713787
C    6.0       24.7089236261       20.5045949291       19.3615127269
H    1.0       23.9787721659       21.3106411272       19.2158155900
H    1.0       24.6414155895       19.8415660627       18.4886943575
O    8.0       26.0288452060       21.0459257296       19.4716846677
H    1.0       26.6208123083       20.2838207421       19.6589923086
C    6.0       21.4381832490       13.7869207187       20.9866125767
H    1.0       21.0983343520       12.7841863313       20.6995295573
O    8.0       20.3365713934       14.6393085005       21.3564859398
C    6.0       22.4109124393       13.6923231943       22.1897582322
H    1.0       23.2516362655       13.0572272626       21.8817225428
O    8.0       21.7685439885       13.1060404356       23.3308056871
H    1.0       22.4111254252       13.2252897236       24.0657686748
C    6.0       22.9771998280       15.0818192273       22.5647108245
H    1.0       22.1574801258       15.6816233311       22.9782196273
O    8.0       24.0083803608       14.9281658974       23.5469461160
H    1.0       24.2810275341       15.8410571846       23.8158347493
C    6.0       23.5352099019       15.8224060721       21.3236841337
H    1.0       24.4866800259       15.3637230909       21.0232166323
C    6.0       22.5610381212       15.7822051496       20.1176333986
H    1.0       21.6947003026       16.4220529323       20.3325858497
O    8.0       22.1438086934       14.4120555297       19.8931949161