$$$$
! Edit this basic GAMESS input file as needed.
! Conformer was generated by a VeraChem VCPack run 
! and contains    152 atoms.
!
 $contrl scftyp=rhf runtyp=optimize nzvar=0
  maxit=200 icharg=0 $end
 $system mwords=50 $end
 $basis gbasis=pm3 $end
 $statpt nstep=200 $end
 $guess guess=huckel $end
 $data
VM2 Rank=1      G=542.018           E=338.181           -TS=203.837             
C1
C    6.0       16.2113008050       15.2859265826       21.8937731982
H    1.0       15.1521163821       15.1452389470       22.1452052990
O    8.0       16.4472424286       16.5509934414       21.2477227092
C    6.0       17.0885439736       15.2149537479       23.1692120968
H    1.0       16.9682865728       14.2102476423       23.5949200502
O    8.0       16.6860111604       16.1937617373       24.1415608825
H    1.0       15.8442400937       16.5982892234       23.8193078361
C    6.0       18.5776988443       15.4148150950       22.8077392914
H    1.0       18.6945312957       16.4500833903       22.4642267922
O    8.0       19.3833732564       15.1963390092       23.9704785186
H    1.0       18.9304967750       15.7012232136       24.6826312738
C    6.0       19.0302282884       14.4734021432       21.6631885162
H    1.0       19.1805575512       13.4674683801       22.0764890876
C    6.0       18.0128439872       14.4126875537       20.4870126542
H    1.0       18.0829494181       15.3534989445       19.9250120631
O    8.0       16.6653744719       14.2488167440       20.9988387969
C    6.0       18.2797231865       13.2621479562       19.4909593414
H    1.0       19.2356844280       13.4429420390       18.9822381895
H    1.0       17.4961377973       13.2730457220       18.7214873982
O    8.0       18.3051638253       11.9954581359       20.1549167984
H    1.0       17.4333081541       11.8981794214       20.5986176418
C    6.0       14.7039920248       20.1610236378       20.4297856929
H    1.0       14.0996311504       21.0179557855       20.1071098392
O    8.0       16.0462284823       20.5618061293       20.7877515179
C    6.0       14.0273307506       19.4088582747       21.6060693190
H    1.0       13.0858883504       18.9951635729       21.2214596539
O    8.0       13.7264554795       20.2787942742       22.7058358355
H    1.0       14.5932220010       20.5815468975       23.0765498448
C    6.0       14.9125535577       18.2243021594       22.0610173183
H    1.0       15.8409349833       18.6355797909       22.4816332196
O    8.0       14.2214953369       17.4713905526       23.0635066769
H    1.0       13.7855655773       18.1444408540       23.6340964771
C    6.0       15.2896470688       17.3102823876       20.8624160193
H    1.0       14.4430206112       16.6599084139       20.6046912883
C    6.0       15.7201854216       18.1009649830       19.5980879110
H    1.0       16.7366416808       18.4758849909       19.7608057285
O    8.0       14.8120500541       19.2047474894       19.3563545536
C    6.0       15.7350714342       17.2145872119       18.3359651082
H    1.0       14.7123557591       16.8824307679       18.1129271474
H    1.0       16.3425698736       16.3204767570       18.5284704998
O    8.0       16.2781763821       17.9442138710       17.2343476818
H    1.0       15.7516280369       18.7709834340       17.1715970634
C    6.0       18.3955602203       23.7512231071       22.0447489949
H    1.0       18.7588254286       24.7207180820       22.4088529028
O    8.0       19.4739565542       22.9389799998       21.5377026942
C    6.0       17.6650239161       22.9905886795       23.1830362037
H    1.0       16.8407836732       23.6335278491       23.5183967563
O    8.0       18.5340117618       22.7243870131       24.2954324790
H    1.0       19.2900215164       23.3563143346       24.2300554529
C    6.0       17.0607074744       21.6634879695       22.6730962207
H    1.0       17.8905986192       20.9874518069       22.4404963175
O    8.0       16.2648537699       21.0979231463       23.7169707666
H    1.0       16.8279775136       21.1721904900       24.5206941046
C    6.0       16.2221014379       21.8629682557       21.3828735854
H    1.0       15.2635297270       22.3314629245       21.6432141077
C    6.0       16.9659408498       22.7372483390       20.3364587065
H    1.0       17.8052754555       22.1590233602       19.9281418998
O    8.0       17.4485536729       23.9464737146       20.9736932980
C    6.0       16.0612355140       23.1604076950       19.1612437312
H    1.0       15.2326119453       23.7728709656       19.5412983591
H    1.0       15.6323382342       22.2655746917       18.6913893883
O    8.0       16.8262687295       23.8895552156       18.1999135530
H    1.0       17.2804679686       24.6040726018       18.6996967589
C    6.0       23.6356465950       22.9163247108       21.6103510754
H    1.0       24.7009930887       23.1660959148       21.5292187624
O    8.0       23.4287562657       21.5190575872       21.8893266736
C    6.0       22.9853211325       23.7179174350       22.7608158944
H    1.0       23.1216295454       24.7839783612       22.5368733927
O    8.0       23.6232398169       23.4097391760       24.0110501706
H    1.0       23.8402385916       22.4441984410       23.9953180884
C    6.0       21.4646531405       23.4378766680       22.8482195889
H    1.0       21.3303765647       22.4038467390       23.1952269925
O    8.0       20.8974693520       24.3474315390       23.7976590047
H    1.0       21.5457718479       24.3738047823       24.5382160582
C    6.0       20.7677083761       23.5722350115       21.4624606749
H    1.0       20.6777369801       24.6328012750       21.1920848491
C    6.0       21.5526293361       22.8413710256       20.3402130643
H    1.0       21.4624920092       21.7573849761       20.4896925867
O    8.0       22.9389403613       23.2509363632       20.3948844781
C    6.0       21.0373841362       23.1759992556       18.9248387447
H    1.0       21.2553569905       24.2281969456       18.6985293344
H    1.0       19.9471483521       23.0497707934       18.8928269662
O    8.0       21.6611199391       22.3141463927       17.9662665240
H    1.0       22.6302748724       22.3999844716       18.1062194656
C    6.0       25.1750666771       17.7822497177       21.6034972345
H    1.0       25.8602969453       16.9310102176       21.5037115900
O    8.0       23.7968424479       17.3620846067       21.6384932323
C    6.0       25.4779050246       18.5516227368       22.9121668248
H    1.0       26.5134494205       18.9110634303       22.8530594102
O    8.0       25.3406991999       17.6906439239       24.0538478952
H    1.0       24.6860675982       16.9878371380       23.8134398026
C    6.0       24.5521515904       19.7822166749       23.0466672093
H    1.0       23.5275292277       19.4186749432       23.2012479882
O    8.0       24.9557952725       20.5692920938       24.1723394965
H    1.0       25.0912515927       19.9214118801       24.8994527813
C    6.0       24.5718262809       20.6537410091       21.7659168635
H    1.0       25.5160396644       21.2133928835       21.7346651843
C    6.0       24.4148486122       19.8160073830       20.4652469736
H    1.0       23.3793335735       19.4571510302       20.4058102398
O    8.0       25.3387292651       18.6993732828       20.5027762757
C    6.0       24.7269147783       20.6143077258       19.1799869514
H    1.0       25.8145261070       20.7231066827       19.0733668379
H    1.0       24.3071232025       21.6203421938       19.2572748708
O    8.0       24.1681843709       19.9624360476       18.0370044123
H    1.0       24.6045183324       19.0871753472       17.9653883263
C    6.0       21.3147372745       14.1107549867       20.8432010639
H    1.0       20.9176304034       13.1371093439       20.5289801472
O    8.0       20.2531809716       15.0357529046       21.1489837966
C    6.0       22.2518080306       13.9565505627       22.0750499323
H    1.0       23.0639633168       13.2809687249       21.7766753213
O    8.0       21.5698808626       13.3906382030       23.2050057273
H    1.0       20.8476307557       14.0216034518       23.4536756605
C    6.0       22.8837682246       15.3140250870       22.4639637680
H    1.0       22.0838178589       15.9657991314       22.8409348423
O    8.0       23.8646584191       15.1121777798       23.4863611518
H    1.0       23.4448172891       14.4974590748       24.1288279476
C    6.0       23.5359141158       16.0029236489       21.2406026533
H    1.0       24.4531488691       15.4641030651       20.9682927313
C    6.0       22.5840917847       16.0352619907       20.0179388058
H    1.0       21.7578493594       16.7176010364       20.2427917674
O    8.0       22.0877011142       14.6959142299       19.7730778819
C    6.0       23.2732367206       16.5240652263       18.7273685938
H    1.0       23.9480388071       15.7424429667       18.3536200550
H    1.0       23.8810649891       17.4047825083       18.9538933341
O    8.0       22.2942863893       16.8654087616       17.7437066912
H    1.0       21.7692106014       16.0508550293       17.5841835207
C    6.0       20.0041546225       19.0949643805       23.5304304746
H    1.0       18.9898601123       18.7097903681       23.7006147408
H    1.0       20.6589103373       18.6735543257       24.3039423163
H    1.0       19.9823586494       20.1848222765       23.6632421956
C    6.0       20.5129213295       18.7173556613       22.1239783644
H    1.0       20.5702680130       17.6258818239       22.0365078681
H    1.0       21.5340039295       19.0984937998       21.9925509166
C    6.0       19.6017658723       19.2876666871       21.0175968492
H    1.0       18.5691155836       18.9446509395       21.1688385909
H    1.0       19.5907587388       20.3802608591       21.1020860207
C    6.0       20.0792946867       18.8944770594       19.6038425860
H    1.0       19.9199221496       17.8192836604       19.4435909000
H    1.0       21.1592110409       19.0772403022       19.5288501565
C    6.0       19.3403544790       19.7005661285       18.5101310997
H    1.0       18.2620239529       19.5217998834       18.5870365477
H    1.0       19.4856895530       20.7716941870       18.6889919168
C    6.0       19.8001847985       19.3600192160       17.0773843529
H    1.0       19.5801250665       18.3062075126       16.8803478042
C    6.0       19.0260320705       20.2172967901       16.0640676227
H    1.0       19.3107829659       19.9567753003       15.0376630482
H    1.0       17.9456365874       20.0555180461       16.1624864284
H    1.0       19.2282548530       21.2855597168       16.2159148079
N    7.0       21.2819920326       19.5375994823       16.8913882664
H    1.0       21.5897184789       20.4640934223       17.2263547679
H    1.0       21.8150743383       18.8222444639       17.4106883331
H    1.0       21.5545093244       19.4534766107       15.9100830813
 $end
$$$$
! Edit this basic GAMESS input file as needed.
! Conformer was generated by a VeraChem VCPack run 
! and contains    152 atoms.
!
 $contrl scftyp=rhf runtyp=optimize nzvar=0
  maxit=200 icharg=0 $end
 $system mwords=50 $end
 $basis gbasis=pm3 $end
 $statpt nstep=200 $end
 $guess guess=huckel $end
 $data
VM2 Rank=2      G=542.087           E=337.963           -TS=204.125             
C1
C    6.0       16.2059572975       15.1750175248       21.6800397444
H    1.0       15.1118960082       15.1057644539       21.7373086412
O    8.0       16.6389203110       16.4912254502       21.2758571371
C    6.0       16.8337897470       14.8361334184       23.0550972074
H    1.0       16.5703026540       13.7964686122       23.2892136529
O    8.0       16.3264304365       15.6966562066       24.0873469158
H    1.0       15.7286497214       16.3531488019       23.6516856351
C    6.0       18.3732488975       14.9386600088       22.9867574677
H    1.0       18.6223746478       15.9980946695       22.8664517446
O    8.0       18.9463694815       14.4555578749       24.2056937524
H    1.0       18.4089095715       14.8711245558       24.9167872872
C    6.0       18.9624195619       14.1564574563       21.7854976241
H    1.0       19.0286675982       13.0956739561       22.0619610518
C    6.0       18.1498074832       14.3206712446       20.4677938446
H    1.0       18.3810919496       15.3087572530       20.0491994956
O    8.0       16.7265723531       14.2258082559       20.7275959814
C    6.0       18.5009195222       13.2708560078       19.3900940905
H    1.0       19.5447336963       13.4089704542       19.0795500575
H    1.0       17.8732193153       13.4486010691       18.5065836053
O    8.0       18.3034034074       11.9414503272       19.8796722347
H    1.0       17.3618694199       11.8865576025       20.1572934908
C    6.0       15.0884779528       20.2147655707       20.2690482118
H    1.0       14.4957854682       21.0463326447       19.8666342396
O    8.0       16.3594038278       20.6718163994       20.7738161649
C    6.0       14.3093536640       19.4592159262       21.3818251552
H    1.0       13.3971658497       19.0616524532       20.9181368808
O    8.0       13.9349815386       20.3217199263       22.4662284483
H    1.0       14.7752059212       20.6328145755       22.8886610242
C    6.0       15.1322244009       18.2600733124       21.9101234517
H    1.0       16.0178237096       18.6558828850       22.4264783628
O    8.0       14.3326197250       17.5052443881       22.8264854166
H    1.0       13.8635461567       18.1777669340       23.3705337293
C    6.0       15.6159484994       17.3551951022       20.7472577524
H    1.0       14.7692900900       16.7831855565       20.3443713016
C    6.0       16.2546726288       18.1708586406       19.5927349577
H    1.0       17.2240999577       18.5588243165       19.9282069862
O    8.0       15.3677757536       19.2581262299       19.2256413493
C    6.0       16.4857160917       17.3177724895       18.3286655773
H    1.0       15.5166270394       16.9888776228       17.9303414229
H    1.0       17.0590321448       16.4206659742       18.5928422748
O    8.0       17.1976292911       18.0800885675       17.3523524638
H    1.0       16.6892290953       18.9122032883       17.2360994664
C    6.0       18.4249468148       24.0008441730       22.0750826710
H    1.0       18.7593187602       24.9788848362       22.4446227167
O    8.0       19.5266617251       23.2036471161       21.5964197105
C    6.0       17.6847857830       23.2244615156       23.1948300812
H    1.0       16.8018379853       23.8153372598       23.4714353418
O    8.0       18.5086954296       23.0394676690       24.3568818646
H    1.0       19.3597283500       23.5148615903       24.1937053556
C    6.0       17.2016490353       21.8536425791       22.6748014905
H    1.0       18.0915048795       21.2460993067       22.4705407460
O    8.0       16.4064606254       21.2246332231       23.6844698339
H    1.0       16.9181226952       21.3527751854       24.5150423177
C    6.0       16.3957414338       21.9878559261       21.3586721252
H    1.0       15.3913001897       22.3619129113       21.5965899400
C    6.0       17.0798274394       22.9334504003       20.3297975695
H    1.0       17.9569989998       22.4167377232       19.9181029487
O    8.0       17.4984773417       24.1615199862       20.9795364256
C    6.0       16.1693035405       23.3139485893       19.1412932209
H    1.0       15.9434858022       22.4102518245       18.5599445735
H    1.0       16.7186679130       23.9975169993       18.4801274278
O    8.0       14.9575200798       23.9258901076       19.5917566825
H    1.0       15.2240817288       24.7116724620       20.1189617019
C    6.0       23.6200892347       22.9902442109       21.5040947559
H    1.0       24.7041964508       23.1350211533       21.4176174282
O    8.0       23.2636327242       21.5953798857       21.6315196023
C    6.0       23.0734871534       23.7544821433       22.7335022505
H    1.0       23.2515411935       24.8237074340       22.5591443971
O    8.0       23.7456563951       23.3623187590       23.9393924671
H    1.0       23.9174873319       22.3881419264       23.8805573794
C    6.0       21.5479131572       23.5446812989       22.8664700754
H    1.0       21.3705513022       22.4905912987       23.1219867288
O    8.0       21.0550735397       24.3872503188       23.9126334543
H    1.0       21.7278467895       24.3179653961       24.6282947607
C    6.0       20.8099833694       23.8526858352       21.5352530667
H    1.0       20.7103586778       24.9395360975       21.4122762719
C    6.0       21.5231650550       23.2772424953       20.2807564183
H    1.0       21.3378292084       22.1985957824       20.2326351341
O    8.0       22.9480300579       23.5314549579       20.3490988799
C    6.0       20.9905421621       23.9177286650       18.9819840515
H    1.0       21.1996067347       24.9957241157       18.9966594682
H    1.0       19.9007106825       23.7897818434       18.9376917427
O    8.0       21.5992095195       23.3069164088       17.8436272960
H    1.0       22.5688054159       23.3868711915       17.9752742879
C    6.0       24.9773272111       17.7725347382       21.4558842650
H    1.0       25.7016717216       16.9549274783       21.3521669600
O    8.0       23.6258991861       17.2797438461       21.5663902044
C    6.0       25.3015430188       18.6074458592       22.7214253549
H    1.0       26.3202922288       18.9980212349       22.5997666016
O    8.0       25.2539049046       17.8027810913       23.9096800248
H    1.0       24.6357993759       17.0493812174       23.7335247473
C    6.0       24.3469283203       19.8178788118       22.8469768123
H    1.0       23.3297910875       19.4428122661       23.0263541331
O    8.0       24.7700941333       20.6302540863       23.9450651333
H    1.0       24.9629592478       19.9915095998       24.6683567012
C    6.0       24.3427442725       20.6450197435       21.5381104721
H    1.0       25.3174991087       21.1385761043       21.4289851610
C    6.0       24.0892092392       19.7457546319       20.2997717228
H    1.0       23.0642138278       19.3587839463       20.3473299589
O    8.0       25.0450151472       18.6537249558       20.3123826240
C    6.0       24.2619648776       20.5119965842       18.9707940038
H    1.0       25.2728162897       20.9384743161       18.9252601306
H    1.0       23.5463616561       21.3432955057       18.9382789959
O    8.0       24.0388574297       19.6377163691       17.8631714117
H    1.0       24.6816241396       18.9023560649       17.9731252696
C    6.0       21.3244083022       13.8228066298       21.2370049824
H    1.0       20.9524046426       12.8080160428       21.0446469332
O    8.0       20.2575643953       14.7352625808       21.5515327688
C    6.0       22.3175084470       13.8364674232       22.4261548209
H    1.0       23.1522887766       13.1734034070       22.1643451932
O    8.0       21.6914945146       13.3564450923       23.6274533458
H    1.0       20.8345675207       13.8425004000       23.7313257505
C    6.0       22.8869258788       15.2600563370       22.6489279562
H    1.0       22.0704677325       15.9018821525       23.0077607294
O    8.0       23.9231437662       15.2014038501       23.6322680311
H    1.0       23.5650077094       14.6296788631       24.3481198460
C    6.0       23.4374893354       15.8682856788       21.3325133531
H    1.0       24.3757178450       15.3622763062       21.0691285237
C    6.0       22.4373240668       15.7133716684       20.1571198792
H    1.0       21.5739457704       16.3639064233       20.3366421440
O    8.0       22.0144130243       14.3308440549       20.0758062123
C    6.0       23.0494527416       16.0959462285       18.7950559317
H    1.0       23.8532270610       15.3911032466       18.5438528950
H    1.0       23.4915161453       17.0970180683       18.8659244472
O    8.0       22.0332942987       16.0851431464       17.7900117473
H    1.0       21.6370023696       15.1861851033       17.8167857609
C    6.0       19.4970516157       18.7953303713       23.1921271156
H    1.0       18.4288729721       19.0438725933       23.1532861734
H    1.0       19.6276130433       18.0070540801       23.9447014303
H    1.0       20.0469007710       19.6825977736       23.5328050827
C    6.0       20.0027776690       18.3207062389       21.8146624434
H    1.0       19.3980576629       17.4704435511       21.4750192534
H    1.0       21.0348035598       17.9613176230       21.9137071486
C    6.0       19.9466669823       19.4389071570       20.7555581836
H    1.0       18.9522552268       19.9023068492       20.7604594188
H    1.0       20.6650181948       20.2245474917       21.0221776727
C    6.0       20.2477686017       18.8945567956       19.3413074471
H    1.0       19.5233532557       18.1079261680       19.0879899196
H    1.0       21.2390780897       18.4269324998       19.3321556458
C    6.0       20.1902366574       20.0067252460       18.2712567243
H    1.0       19.2401000766       20.5488143437       18.3663019834
H    1.0       20.9910605549       20.7331708208       18.4548170609
C    6.0       20.3105415165       19.4650340807       16.8314142659
H    1.0       19.4934521144       18.7574584469       16.6578834772
C    6.0       20.1744142303       20.6162621005       15.8230868686
H    1.0       20.2073889954       20.2375820165       14.7944769495
H    1.0       19.2201822550       21.1404074130       15.9565233501
H    1.0       20.9844385922       21.3463981044       15.9459977252
N    7.0       21.5916828700       18.7118073484       16.6006567322
H    1.0       22.4135564509       19.2608665548       16.8975631147
H    1.0       21.6211518682       17.8287757696       17.1352979164
H    1.0       21.7165400767       18.4671101822       15.6162014328
 $end
$$$$
! Edit this basic GAMESS input file as needed.
! Conformer was generated by a VeraChem VCPack run 
! and contains    152 atoms.
!
 $contrl scftyp=rhf runtyp=optimize nzvar=0
  maxit=200 icharg=0 $end
 $system mwords=50 $end
 $basis gbasis=pm3 $end
 $statpt nstep=200 $end
 $guess guess=huckel $end
 $data
VM2 Rank=3      G=542.174           E=337.599           -TS=204.576             
C1
C    6.0       16.2220687922       15.3277852296       21.8281299058
H    1.0       15.1609146000       15.1876494795       22.0712675518
O    8.0       16.4581738579       16.5804953146       21.1578358543
C    6.0       17.0874911657       15.2809960986       23.1138030937
H    1.0       16.9599670855       14.2850113724       23.5575266865
O    8.0       16.6814644163       16.2785288714       24.0651887813
H    1.0       15.8172515559       16.6440394533       23.7565864539
C    6.0       18.5807737918       15.4692138601       22.7646589428
H    1.0       18.7044231436       16.4957998812       22.3982866618
O    8.0       19.3715463165       15.2749180485       23.9418435101
H    1.0       18.9100944608       15.7961713364       24.6365690138
C    6.0       19.0417599373       14.5000986206       21.6476403237
H    1.0       19.1718005933       13.5007271108       22.0830706922
C    6.0       18.0405891222       14.4286075208       20.4586649384
H    1.0       18.1208347873       15.3619393450       19.8855252158
O    8.0       16.6865018765       14.2752690787       20.9563393175
C    6.0       18.3167084974       13.2637372156       19.4819639918
H    1.0       19.2810689177       13.4335291126       18.9853840568
H    1.0       17.5446595833       13.2678825541       18.7008614767
O    8.0       18.3265463155       12.0058801134       20.1629818649
H    1.0       17.4480762556       11.9188361711       20.5956222276
C    6.0       14.7346616511       20.2062006116       20.3716038116
H    1.0       14.1426925396       21.0752913449       20.0565529567
O    8.0       16.0802650825       20.5847012337       20.7377598614
C    6.0       14.0517213518       19.4517211547       21.5430918618
H    1.0       13.1033440847       19.0545779974       21.1581500556
O    8.0       13.7688762647       20.3125258625       22.6552549754
H    1.0       14.6419710790       20.6057993855       23.0190688103
C    6.0       14.9226925814       18.2520584282       21.9864379916
H    1.0       15.8521110904       18.6491580049       22.4183466983
O    8.0       14.2152413666       17.4965171235       22.9756699269
H    1.0       13.7811260675       18.1691951137       23.5483098717
C    6.0       15.3007674981       17.3464449899       20.7811902590
H    1.0       14.4532965718       16.6989585859       20.5191195867
C    6.0       15.7315651894       18.1443572598       19.5211214868
H    1.0       16.7512855917       18.5122130892       19.6809454939
O    8.0       14.8306776061       19.2562638066       19.2909370055
C    6.0       15.7342866617       17.2658752198       18.2533517156
H    1.0       14.7102540221       16.9305233587       18.0414018409
H    1.0       16.3483534599       16.3733886596       18.4330995103
O    8.0       16.2592541852       18.0046033879       17.1491089023
H    1.0       15.7301257172       18.8309031568       17.1014548360
C    6.0       18.4430784836       23.7602538730       21.9804764101
H    1.0       18.8183261895       24.7252281064       22.3441717519
O    8.0       19.5100035139       22.9410926644       21.4581299196
C    6.0       17.7195853989       23.0000570069       23.1244053891
H    1.0       16.8964362081       23.6420764074       23.4642107818
O    8.0       18.5943039079       22.7341102679       24.2322714180
H    1.0       19.3416917873       23.3764520897       24.1716372782
C    6.0       17.1143803037       21.6729153631       22.6168129222
H    1.0       17.9426294887       21.0015117455       22.3656539230
O    8.0       16.3335222043       21.0961144402       23.6665758284
H    1.0       16.9052089638       21.1690413983       24.4642348922
C    6.0       16.2561767700       21.8800909582       21.3431140693
H    1.0       15.2984938470       22.3347984497       21.6292894839
C    6.0       16.9715474758       22.7721030047       20.2906753177
H    1.0       17.8022235799       22.1981778190       19.8590700631
O    8.0       17.4851683089       23.9714400776       20.9212327530
C    6.0       16.0502074018       23.2046445591       19.1284741048
H    1.0       15.7389843155       22.3128375774       18.5682978270
H    1.0       16.6238509989       23.8392519859       18.4397499816
O    8.0       14.9020523935       23.9074776301       19.6122704009
H    1.0       15.2434679965       24.6747110905       20.1234363794
C    6.0       23.6762911188       22.8804070944       21.5612414316
H    1.0       24.7436468934       23.1218062629       21.4812905817
O    8.0       23.4582119697       21.4885448624       21.8584625939
C    6.0       23.0255622057       23.7031944606       22.6963225236
H    1.0       23.1704756490       24.7646835482       22.4565777758
O    8.0       23.6548195400       23.4112039603       23.9548206028
H    1.0       23.8620766997       22.4431972487       23.9587074193
C    6.0       21.5022478048       23.4359823889       22.7801983029
H    1.0       21.3577892803       22.4080923378       23.1410251673
O    8.0       20.9412741137       24.3644317195       23.7149645605
H    1.0       21.5901946471       24.3981447924       24.4548062137
C    6.0       20.8133323155       23.5573189513       21.3885351202
H    1.0       20.7375494228       24.6149639095       21.1028277639
C    6.0       21.5990349888       22.8023362137       20.2827276842
H    1.0       21.5005469490       21.7216295166       20.4492040840
O    8.0       22.9881261476       23.2024439506       20.3374551953
C    6.0       21.0920247224       23.1173367953       18.8602445599
H    1.0       21.3001095938       24.1697055974       18.6254164270
H    1.0       20.0039017398       22.9778856742       18.8222849331
O    8.0       21.7323132271       22.2535586189       17.9148506935
H    1.0       22.6989772312       22.3648112439       18.0540123899
C    6.0       25.2085883811       17.7461278091       21.6796624406
H    1.0       25.8946981503       16.8926093908       21.6098800894
O    8.0       23.8293494065       17.3282093406       21.6922109237
C    6.0       25.4812373264       18.5372592802       22.9819611182
H    1.0       26.5183432712       18.8947915092       22.9416612186
O    8.0       25.3154176457       17.6949424671       24.1337844712
H    1.0       24.6602890498       16.9934572549       23.8911493190
C    6.0       24.5535959771       19.7707349162       23.0740823759
H    1.0       23.5255532071       19.4105645399       23.2127850610
O    8.0       24.9333337959       20.5775054267       24.1940281511
H    1.0       25.0516204251       19.9428284335       24.9356432629
C    6.0       24.6020614628       20.6192712307       21.7786015237
H    1.0       25.5478205643       21.1768015103       21.7577702044
C    6.0       24.4725210116       19.7582547318       20.4905164979
H    1.0       23.4393995933       19.3955414861       20.4165688941
O    8.0       25.3979667258       18.6450884757       20.5678836553
C    6.0       24.8064042388       20.5351714117       19.1979186646
H    1.0       25.8936387305       20.6715457654       19.1246226537
H    1.0       24.3555682035       21.5301981855       19.2378384353
O    8.0       24.3037849078       19.8419337698       18.0533714370
H    1.0       24.7592183866       18.9739768976       18.0229199273
C    6.0       21.3380413344       14.0913997677       20.8832263808
H    1.0       20.9363029736       13.1176885610       20.5751035937
O    8.0       20.2805371371       15.0357458708       21.1423987782
C    6.0       22.2417049202       13.9461231941       22.1411644390
H    1.0       23.0532913289       13.2569779861       21.8738803903
O    8.0       21.5258023167       13.4054823624       23.2622887405
H    1.0       20.8102510826       14.0526138955       23.4876757415
C    6.0       22.8794524748       15.3023093916       22.5248158230