$$$$
! Edit this basic GAMESS input file as needed.
! Conformer was generated by a VeraChem VCPack run 
! and contains    143 atoms.
!
 $contrl scftyp=rhf runtyp=optimize nzvar=0
  maxit=200 icharg=0 $end
 $system mwords=50 $end
 $basis gbasis=pm3 $end
 $statpt nstep=200 $end
 $guess guess=huckel $end
 $data
VM2 Rank=1      G=539.931           E=351.904           -TS=188.028             
C1
C    6.0       16.3909005807       15.3124310574       20.6886548193
H    1.0       15.3460876570       15.1819136666       20.3794840932
O    8.0       16.6646497848       16.6818806998       21.0495000442
C    6.0       16.7362823796       14.3715416464       21.8756370178
H    1.0       16.5548295060       13.3436785529       21.5352695397
O    8.0       15.9200194533       14.6342095970       23.0246599842
H    1.0       16.2715239745       14.0370079771       23.7231742815
C    6.0       18.2289943430       14.4828366119       22.2657276117
H    1.0       18.3889203887       15.4758102389       22.7032140331
O    8.0       18.5437315709       13.4734781544       23.2318282649
H    1.0       19.4448846499       13.6877054223       23.5804678927
C    6.0       19.1551984770       14.3449593745       21.0297744552
H    1.0       19.1884204235       13.2950581022       20.7088754988
C    6.0       18.6833332236       15.2108037068       19.8340682557
H    1.0       18.8646516339       16.2683985391       20.0656274723
O    8.0       17.2732061714       14.9718069694       19.5986208423
C    6.0       19.4368099630       14.8602394129       18.5344012734
H    1.0       19.1940514050       13.8301732637       18.2407633405
H    1.0       20.5183173436       14.9088894328       18.7152893202
O    8.0       19.0751657998       15.7762176514       17.4996538062
H    1.0       18.0925339060       15.7767667896       17.4666416918
C    6.0       14.8508982061       20.3038726130       21.8130055967
H    1.0       14.1874281077       21.1393386380       22.0708635753
O    8.0       16.0585836066       20.7613892545       21.1688470641
C    6.0       15.2254237545       19.4961537307       23.0841289304
H    1.0       14.2936107349       19.0983403738       23.5059951785
O    8.0       15.8630478119       20.3361544069       24.0612714409
H    1.0       15.6760888502       21.2721944070       23.8109707719
C    6.0       16.1355554411       18.2995917682       22.7123874648
H    1.0       17.0881254127       18.7146807898       22.3641422203
O    8.0       16.3561909925       17.4554889141       23.8521189197
H    1.0       16.3073130961       16.5240772133       23.5267853643
C    6.0       15.5547590794       17.4527883088       21.5537727073
H    1.0       14.7557166086       16.8123980225       21.9510169403
C    6.0       15.0090104056       18.3222894787       20.3840093905
H    1.0       15.8648310172       18.7417761062       19.8384542168
O    8.0       14.1884975481       19.3986951028       20.9045480135
C    6.0       14.1558507654       17.5337568158       19.3653291436
H    1.0       14.7952177153       16.8057049197       18.8492125545
H    1.0       13.7807161349       18.2316217536       18.6047483649
O    8.0       13.0652422718       16.8664875743       20.0066006445
H    1.0       12.5408132924       17.5647224005       20.4582332628
C    6.0       18.3579473084       24.1138267282       20.6342311294
H    1.0       18.8167713842       25.0808757287       20.3909071656
O    8.0       19.3570284157       23.1158960419       20.9367650408
C    6.0       17.3578660526       24.2471505040       21.8124565587
H    1.0       16.5545140698       24.9145510849       21.4740286456
O    8.0       17.9651325635       24.8157572821       22.9817257908
H    1.0       18.6334304683       24.1593758218       23.3034289549
C    6.0       16.7250091546       22.8760312861       22.1476878981
H    1.0       17.5120239598       22.2342034493       22.5672567873
O    8.0       15.6902155862       23.0751470395       23.1171452193
H    1.0       16.0546978040       23.7385612693       23.7463767610
C    6.0       16.1534600894       22.1713335904       20.8850666417
H    1.0       15.1722890508       22.5979738119       20.6372628948
C    6.0       17.0734672598       22.2862955237       19.6377545354
H    1.0       17.9014319588       21.5738118710       19.7404007949
O    8.0       17.5895817051       23.6351577349       19.5114726346
C    6.0       16.3155964125       21.9495998649       18.3371403392
H    1.0       15.5288386379       22.6978084107       18.1715235368
H    1.0       15.8291256394       20.9707737426       18.4452963673
O    8.0       17.2241727971       21.9237186773       17.2348241415
H    1.0       17.7211140879       22.7716885283       17.2714827117
C    6.0       23.2735630944       22.5720168297       22.1771923975
H    1.0       24.2909808390       22.6908459836       22.5705559711
O    8.0       23.1082319847       21.3067172260       21.5051469171
C    6.0       22.2367606559       22.6698036115       23.3267345109
H    1.0       22.3673590303       23.6529837770       23.7974081868
O    8.0       22.4347287284       21.6416713654       24.3113979000
H    1.0       23.3768816221       21.3544778388       24.2431471759
C    6.0       20.7955709086       22.5812474465       22.7793144690
H    1.0       20.6511829493       21.5644608514       22.3977073244
O    8.0       19.8805110701       22.8335008275       23.8499300662
H    1.0       20.2643096440       22.3560939153       24.6194409394
C    6.0       20.5512106287       23.5647228118       21.6082684082
H    1.0       20.4421695286       24.5797531976       22.0123850439
C    6.0       21.7006827920       23.5330034182       20.5628567060
H    1.0       21.6387084667       22.5859124141       20.0104489105
O    8.0       22.9835402218       23.6232019313       21.2310269033
C    6.0       21.6228379989       24.6808572473       19.5316392729
H    1.0       20.7096484852       24.5625418564       18.9334173819
H    1.0       22.4757412395       24.5973714074       18.8448107855
O    8.0       21.6273296105       25.9579473133       20.1761832075
H    1.0       22.4515272441       25.9940623612       20.7109793186
C    6.0       25.1134525927       17.6839184772       21.1942926522
H    1.0       25.8248445245       16.8713545146       20.9982188326
O    8.0       23.7941780684       17.1822975566       21.4865929434
C    6.0       25.5776821697       18.5583457414       22.3881195506
H    1.0       26.5454322049       19.0000347306       22.1156658668
O    8.0       25.7301440567       17.7808153662       23.5879275527
H    1.0       26.5264959250       17.2186728149       23.4763396254
C    6.0       24.5779765303       19.7152971789       22.6326309880
H    1.0       23.6308644187       19.2765313190       22.9745507502
O    8.0       25.1089346107       20.5664726902       23.6541915042
H    1.0       25.4713356516       19.9474705972       24.3286799729
C    6.0       24.2998705792       20.5140291998       21.3260845708
H    1.0       25.1653816891       21.1471298740       21.0890603931
C    6.0       24.0157596479       19.5867721635       20.1135993812
H    1.0       23.0189365472       19.1422007833       20.2283512061
O    8.0       25.0232479670       18.5483705464       20.0432494547
C    6.0       24.0471485247       20.3586369000       18.7784056461
H    1.0       25.0582502206       20.7532479108       18.6106155407
H    1.0       23.3603750657       21.2134413104       18.8375751337
O    8.0       23.6600342525       19.4960872040       17.7072550271
H    1.0       24.2413825971       18.7060767834       17.7704436727
C    6.0       21.4496699030       13.8266197737       21.7052077757
H    1.0       21.0076323018       12.8245738494       21.7750232433
O    8.0       20.4553206134       14.8319400785       21.4136872721
C    6.0       22.1600528576       14.1846397969       23.0329119330
H    1.0       22.9681540880       13.4562988482       23.1805787817
O    8.0       21.2565631317       14.1187020315       24.1443733083
H    1.0       21.7568421486       14.5141553218       24.8934500786
C    6.0       22.7943632443       15.5899950296       22.9525081518
H    1.0       21.9802474598       16.3200851378       22.9005283441
O    8.0       23.5808737720       15.8263656731       24.1259312051
H    1.0       24.1120747089       16.6427221970       23.9585744667
C    6.0       23.6708705050       15.7614417356       21.6865762532
H    1.0       24.6421880422       15.2823976042       21.8679790638
C    6.0       23.0189177807       15.1782908569       20.3992530263
H    1.0       22.2269396638       15.8660079547       20.0745630516
O    8.0       22.4461904110       13.8718046720       20.6622732480
C    6.0       24.0131978611       15.0309747110       19.2262785670
H    1.0       24.3759788821       16.0260211109       18.9368321243
H    1.0       23.4805035361       14.6135038587       18.3613317982
O    8.0       25.1137542516       14.1905054660       19.5851436096
H    1.0       24.7255574336       13.3286168587       19.8555653343
N    7.0       18.4145843632       19.2037756212       25.0393791013
H    1.0       17.5873190554       18.6633382818       24.7262572941
H    1.0       18.0273588345       20.0471187368       25.4754204655
H    1.0       18.8908476121       18.6581442457       25.7616724204
C    6.0       19.3094091391       19.5464002950       23.8673380193
H    1.0       20.1465350062       20.1477978813       24.2332783962
H    1.0       18.7192396817       20.1603023059       23.1817669944
C    6.0       19.8426804583       18.3042163637       23.1293933030
H    1.0       20.5312724031       17.7694225602       23.7954751981
H    1.0       19.0188365271       17.6142959615       22.9156370594
C    6.0       20.5609118081       18.6544432482       21.8066877129
H    1.0       20.9875520873       17.7395078334       21.3740912135
H    1.0       21.4059587960       19.3219996592       22.0169517116
C    6.0       19.6242196798       19.3050149573       20.7626056082
H    1.0       18.7815333537       18.6449175783       20.5196503923
H    1.0       20.1685780792       19.5096510749       19.8314332105
H    1.0       19.2151031498       20.2564043383       21.1219896280
 $end
