$$$$
! Edit this basic GAMESS input file as needed.
! Conformer was generated by a VeraChem VCPack run 
! and contains    151 atoms.
!
 $contrl scftyp=rhf runtyp=optimize nzvar=0
  maxit=200 icharg=0 $end
 $system mwords=50 $end
 $basis gbasis=pm3 $end
 $statpt nstep=200 $end
 $guess guess=huckel $end
 $data
VM2 Rank=1      G=577.818           E=377.677           -TS=200.141             
C1
C    6.0       16.2706856747       15.1040858708       21.1959105543
H    1.0       15.2066169253       14.9140778302       21.0065843047
O    8.0       16.5786775587       16.5105519855       21.1362306629
C    6.0       16.6724665949       14.5458602118       22.5860561354
H    1.0       16.4808873219       13.4650682937       22.5700579631
O    8.0       15.8994160408       15.1399173820       23.6367680042
H    1.0       16.3626746945       14.8769213394       24.4638275772
C    6.0       18.1807885138       14.7522292066       22.8546418262
H    1.0       18.3649213663       15.8291049105       22.9514660234
O    8.0       18.5509103895       14.0805569238       24.0650011259
H    1.0       19.5291844527       14.1900223073       24.1655628715
C    6.0       19.0367818101       14.2178414159       21.6807732760
H    1.0       19.0207841431       13.1200983924       21.7028334592
C    6.0       18.5167531179       14.7024182353       20.2999979772
H    1.0       18.7220222338       15.7768023837       20.1993885464
O    8.0       17.0905940204       14.4419468727       20.2089296792
C    6.0       19.1934159915       13.9643800009       19.1261427480
H    1.0       18.9888509994       12.8884618427       19.2070625861
H    1.0       20.2798080422       14.1039590090       19.1856704372
O    8.0       18.7081375109       14.4744227817       17.8830336494
H    1.0       17.7277055851       14.4275300984       17.9356644620
C    6.0       14.8757111337       20.2562125515       20.5901409106
H    1.0       14.2577360144       21.1066874036       20.2745294593
O    8.0       16.0504391212       20.6890788850       21.3061768897
C    6.0       14.0639497590       19.3091154141       21.5098525155
H    1.0       13.1813961267       18.9802783754       20.9459759142
O    8.0       13.6425005566       19.9856709190       22.7033887641
H    1.0       13.2580754184       19.2794706491       23.2691802054
C    6.0       14.8848916596       18.0531745884       21.8890055636
H    1.0       15.6888633656       18.3761088268       22.5588617185
O    8.0       14.0378152295       17.1185848786       22.5668894084
H    1.0       14.6367759187       16.4420477023       22.9710687352
C    6.0       15.5401496009       17.3840136964       20.6517955690
H    1.0       14.7788947922       16.8375149465       20.0792548958
C    6.0       16.2234823106       18.4128873395       19.7133553260
H    1.0       17.1315797710       18.7970131434       20.1960627360
O    8.0       15.2993036565       19.4935574071       19.4404291432
C    6.0       16.6230741954       17.7879846226       18.3606715211
H    1.0       15.7248329835       17.4071057951       17.8566655607
H    1.0       17.2938816273       16.9369446727       18.5382705430
O    8.0       17.2769683532       18.7645680778       17.5480068239
H    1.0       16.6757588268       19.5411041727       17.5248416113
C    6.0       18.3480483742       24.0746588087       21.9429783304
H    1.0       18.7214643707       25.0953134764       22.0932600735
O    8.0       19.4265272841       23.1199289305       21.8554545715
C    6.0       17.4198637958       23.6809999088       23.1192282171
H    1.0       16.5941713864       24.4040163701       23.1406921272
O    8.0       18.1228853056       23.7291258068       24.3690136814
H    1.0       17.5138598363       23.3043212549       25.0129212927
C    6.0       16.8133394290       22.2749273251       22.9080262991
H    1.0       17.6224921788       21.5451122908       23.0118439900
O    8.0       15.8051059379       22.0269248343       23.8950511114
H    1.0       15.2946652066       21.2432951663       23.5803324852
C    6.0       16.1939040298       22.1100383842       21.4989816598
H    1.0       15.2221345158       22.6215960294       21.4894244310
C    6.0       17.1036333452       22.6719029393       20.3683403901
H    1.0       17.9584230809       21.9939745911       20.2423745494
O    8.0       17.5751174823       23.9940558016       20.7278786715
C    6.0       16.3975784932       22.7996103830       18.9995456759
H    1.0       16.1485703319       21.7994212349       18.6249955149
H    1.0       17.0987885731       23.2471873002       18.2825302420
O    8.0       15.2153009288       23.5987828273       19.0990628834
H    1.0       15.5019698574       24.4701997958       19.4524801595
C    6.0       23.5419879718       22.7878167274       21.4155749925
H    1.0       24.6135582598       22.9730519486       21.2687453320
O    8.0       23.2484570036       21.3778836792       21.4710084352
C    6.0       23.0705316739       23.4542982575       22.7321998180
H    1.0       23.2577830931       24.5321893426       22.6421605236
O    8.0       23.7949292548       22.9411247125       23.8591139215
H    1.0       23.2993597910       23.2719925915       24.6415284885
C    6.0       21.5532652858       23.2505521059       22.9398133233
H    1.0       21.3832683562       22.1803621184       23.1045777018
O    8.0       21.1115137731       24.0016533422       24.0777651123
H    1.0       20.1407741426       23.8334333764       24.1698252013
C    6.0       20.7471160262       23.6743651046       21.6887422726
H    1.0       20.7332831768       24.7706128185       21.6280731853
C    6.0       21.3449885648       23.1005513180       20.3753895807
H    1.0       21.1520028566       22.0196843627       20.3502570092
O    8.0       22.7743413961       23.3510241010       20.3309892474
C    6.0       20.7276892462       23.7248171646       19.1043853735
H    1.0       19.6486223288       23.5264328279       19.0919175906
H    1.0       21.1619343489       23.2333679281       18.2235295352
O    8.0       20.9703097843       25.1338100928       19.0550562755
H    1.0       21.9429336403       25.2456250633       19.1450394293
C    6.0       24.9784133883       17.6331050652       20.9704976449
H    1.0       25.6245630217       16.7955402346       20.6776436548
O    8.0       23.7660376869       17.1731815831       21.5985607631
C    6.0       25.7207164601       18.5694261563       21.9609224277
H    1.0       26.6382429756       18.9098495871       21.4636920823
O    8.0       26.0638257691       17.8744144961       23.1688699735
H    1.0       26.4127690796       18.5705433444       23.7690682889
C    6.0       24.8731019794       19.8187651422       22.3050497554
H    1.0       24.0317008972       19.4909392975       22.9247830781
O    8.0       25.6662147052       20.7571341482       23.0417326949
H    1.0       25.0472965082       21.4657456550       23.3496278593
C    6.0       24.2991535165       20.4962204416       21.0346698646
H    1.0       25.1015680807       21.0359289853       20.5140606562
C    6.0       23.6673731691       19.4813503718       20.0489907990
H    1.0       22.7352185790       19.0909166757       20.4797850561
O    8.0       24.6128891041       18.4109053011       19.8113808289
C    6.0       23.3469590159       20.1246775959       18.6837054689
H    1.0       24.2786303761       20.4769115155       18.2211000156
H    1.0       22.6999888105       20.9977085303       18.8354875564
O    8.0       22.6944794253       19.1770065633       17.8371298451
H    1.0       23.2734881495       18.3837262635       17.8222149787
C    6.0       21.4293098909       13.7810312757       21.9966205136
H    1.0       21.0429645438       12.7589875731       22.0947945370
O    8.0       20.3633877919       14.7468673928       21.8769499294
C    6.0       22.2949690984       14.1340538279       23.2323312691
H    1.0       23.1169630036       13.4077834414       23.2761612426
O    8.0       21.5272330148       14.0549525514       24.4414126050
H    1.0       22.1091115694       14.4447603629       25.1317620557
C    6.0       22.9121792904       15.5436579210       23.0951965286
H    1.0       22.0959926000       16.2697406540       23.1685045968
O    8.0       23.8603624218       15.7686440451       24.1456447142
H    1.0       24.3823305116       16.5641532562       23.8821095138
C    6.0       23.6112270926       15.7469570483       21.7304157621
H    1.0       24.5812533546       15.2328927203       21.7599747074
C    6.0       22.7641094653       15.2231313329       20.5340950629
H    1.0       21.9201781444       15.9088211866       20.3788503523
O    8.0       22.2680627503       13.8927069056       20.8284886602
C    6.0       23.5466704007       15.1313231425       19.2048197916
H    1.0       23.8262075883       16.1400401097       18.8779430494
H    1.0       22.8836739926       14.7149112291       18.4345352534
O    8.0       24.7139773773       14.3165758696       19.3467171796
H    1.0       24.4000450899       13.4386343107       19.6582337938
C    6.0       21.2061937909       19.0880832330       23.4458537470
H    1.0       21.2124212402       19.8485868728       22.6540000639
H    1.0       22.1500680503       18.5433395653       23.3409983845
C    6.0       20.0649629122       18.0768507755       23.1745576821
H    1.0       20.2913336174       17.5869281402       22.2176282040
H    1.0       20.0689091524       17.2708909090       23.9192565168
C    6.0       18.6641596792       18.7171871454       23.0461261295
H    1.0       18.1411665395       18.2246166327       22.2203719195
H    1.0       18.7599574778       19.7567918446       22.7217525096
C    6.0       17.7598743181       18.6007980951       24.3026803483
H    1.0       16.9270290924       19.3091422451       24.2139558363
H    1.0       17.3072539692       17.6008043953       24.2959118615
C    6.0       18.4292387325       18.7908673891       25.6823292723
H    1.0       19.2711246301       18.0942346495       25.7751899002
C    6.0       18.9179038615       20.2258599773       25.9814983225
H    1.0       18.0647389228       20.9150317200       25.9283589344
H    1.0       19.2682776142       20.2539851745       27.0211872132
C    6.0       20.0576803834       20.7714158056       25.0868509585
H    1.0       20.4621969931       21.6636805061       25.5832539637
H    1.0       19.6516349417       21.1397112453       24.1395392116
C    6.0       21.2255082848       19.7833547620       24.8321335783
H    1.0       21.2955362789       19.0395519260       25.6360973447
H    1.0       22.1612636132       20.3566223458       24.8880443741
O    8.0       17.4655512282       18.4551076834       26.6731142500
H    1.0       17.9126363651       18.5389457078       27.5391838573
 $end
