$$$$
! Edit this basic GAMESS input file as needed.
! Conformer was generated by a VeraChem VCPack run 
! and contains    148 atoms.
!
 $contrl scftyp=rhf runtyp=optimize nzvar=0
  maxit=200 icharg=0 $end
 $system mwords=50 $end
 $basis gbasis=pm3 $end
 $statpt nstep=200 $end
 $guess guess=huckel $end
 $data
VM2 Rank=1      G=563.011           E=367.740           -TS=195.271             
C1
C    6.0       16.2159316437       15.1045700112       21.1199801091
H    1.0       15.1370344932       14.9755577024       20.9643356854
O    8.0       16.5474894608       16.4659712642       21.4596820539
C    6.0       16.7186983525       14.1811969256       22.2589566047
H    1.0       16.4977155965       13.1456686883       21.9693342548
O    8.0       16.0643621393       14.4808567183       23.4999926743
H    1.0       16.5452580939       13.9451248738       24.1702993553
C    6.0       18.2482124641       14.3162304827       22.4360236991
H    1.0       18.4463166574       15.3262521299       22.8128341716
O    8.0       18.7196576555       13.3409987864       23.3742579888
H    1.0       19.7077826918       13.3916700317       23.3635237221
C    6.0       19.0025243843       14.1518741649       21.0949909380
H    1.0       19.0073593143       13.0878771029       20.8241991380
C    6.0       18.3647313115       14.9820707810       19.9473010210
H    1.0       18.5701239968       16.0456650866       20.1279507118
O    8.0       16.9342070259       14.7557939007       19.9177643992
C    6.0       18.9168710421       14.6242220839       18.5501518126
H    1.0       19.9863101599       14.8627115034       18.5159640679
H    1.0       18.4185840527       15.2548331336       17.8018512638
O    8.0       18.7088860173       13.2407592098       18.2507148735
H    1.0       17.7431501133       13.0831515657       18.3446355230
C    6.0       14.8956743190       20.2436080930       21.6389305518
H    1.0       14.2420916257       21.1217703920       21.7135689584
O    8.0       16.2432181119       20.6114158150       21.2771052398
C    6.0       14.9267046104       19.4878666594       22.9899568096
H    1.0       13.9014425820       19.1591355090       23.2042832823
O    8.0       15.3767338853       20.3408951616       24.0518835583
H    1.0       15.5430042685       19.7314255843       24.8054617453
C    6.0       15.8171419541       18.2269224789       22.8945678986
H    1.0       16.8580317945       18.5490072089       22.7710321197
O    8.0       15.6866828734       17.4530487799       24.0930103090
H    1.0       16.0076884986       16.5435874726       23.8783769598
C    6.0       15.4338299566       17.3522328190       21.6754290509
H    1.0       14.5152302143       16.8028795411       21.9218926676
C    6.0       15.2277121277       18.1772853609       20.3726369968
H    1.0       16.2119759142       18.5074488702       20.0161926162
O    8.0       14.3939914630       19.3311539479       20.6409827410
C    6.0       14.5589501587       17.3794824143       19.2306394437
H    1.0       15.2298830285       16.5705474145       18.9142156820
H    1.0       14.4248858028       18.0456127540       18.3677179635
O    8.0       13.2985160156       16.8429769021       19.6434850548
H    1.0       12.7524943713       17.6101552375       19.9260330199
C    6.0       18.5002212742       24.0529945188       20.6524195291
H    1.0       18.8842462921       25.0284669521       20.3278122770
O    8.0       19.5087799154       23.2786163446       21.3259242880
C    6.0       17.3090934303       24.2320127249       21.6292992085
H    1.0       16.5271536829       24.7911764340       21.0993557563
O    8.0       17.7095021759       24.9614396931       22.7990586592
H    1.0       16.9392939060       24.8999843940       23.4072376231
C    6.0       16.7210379215       22.8619461538       22.0478399826
H    1.0       17.4725127784       22.3526837291       22.6591912366
O    8.0       15.5401027080       23.0632194865       22.8337434893
H    1.0       15.4012623731       22.2197932265       23.3317785271
C    6.0       16.4226922428       21.9645971662       20.8146221681
H    1.0       15.5277735344       22.3325389440       20.2953541680
C    6.0       17.6073902364       21.9370094481       19.8117282061
H    1.0       18.4348864347       21.3707387340       20.2607735188
O    8.0       18.0323416937       23.2912339945       19.5201629776
C    6.0       17.2490884777       21.2633550571       18.4686205889
H    1.0       16.9400627837       20.2273929898       18.6569421518
H    1.0       18.1500852146       21.2288391461       17.8417968314
O    8.0       16.2053848233       21.9751083014       17.7971594663
H    1.0       16.5068049274       22.9093854808       17.7432716675
C    6.0       23.5809203169       22.8744449150       21.8419419677
H    1.0       24.6625187791       23.0334743107       21.9334799037
O    8.0       23.2381601801       21.4710628457       21.9203569559
C    6.0       22.8459375061       23.6357515257       22.9732516630
H    1.0       23.1023556334       24.6987757248       22.8772702078
O    8.0       23.2505703459       23.1631656650       24.2655536068
H    1.0       22.6235276380       23.5879176858       24.8927841488
C    6.0       21.3159024666       23.4982139603       22.8254755864
H    1.0       21.0609282729       22.4516438010       23.0166915107
O    8.0       20.6499470829       24.3442836241       23.7711156244
H    1.0       19.6992956941       24.3651301987       23.5031669404
C    6.0       20.8296118543       23.8424919409       21.3999420151
H    1.0       20.8187634985       24.9347241674       21.2877220761
C    6.0       21.7057043002       23.1937677154       20.2902345582
H    1.0       21.4915205633       22.1184566193       20.2570878219
O    8.0       23.1091737308       23.4005117532       20.5836030149
C    6.0       21.4436490836       23.7688261349       18.8805269233
H    1.0       20.4157041625       23.5334137308       18.5783342472
H    1.0       22.1132426483       23.2696268733       18.1675111616
O    8.0       21.6567235912       25.1833697676       18.8522778402
H    1.0       22.5780950665       25.3267840422       19.1638149851
C    6.0       25.0367184197       17.6957963817       21.7901166261
H    1.0       25.7654507283       16.8764755292       21.7514670464
O    8.0       23.6851996351       17.2116566607       21.6818183374
C    6.0       25.1881918361       18.4720748617       23.1234338513
H    1.0       26.2145046413       18.8598180079       23.1611439953
O    8.0       24.9670008144       17.6184607520       24.2543231230
H    1.0       24.9057135220       18.2349243496       25.0184718168
C    6.0       24.2242547278       19.6783388240       23.1800698906
H    1.0       23.2001658802       19.2892457535       23.2232274232
O    8.0       24.5075661508       20.4597889742       24.3473477956
H    1.0       23.9737217853       21.2899186242       24.2792460427
C    6.0       24.3577950040       20.5587615026       21.9148797015
H    1.0       25.3198074031       21.0857875211       21.9626746616
C    6.0       24.3063032402       19.7177742709       20.6100784949
H    1.0       23.2874348514       19.3266380991       20.4840860779
O    8.0       25.2540091407       18.6216340967       20.7037152170
C    6.0       24.6654397989       20.5288185664       19.3455055801
H    1.0       23.9339073875       21.3361470988       19.2145146447
H    1.0       24.5850460121       19.8703959966       18.4703105516
O    8.0       25.9871964628       21.0686800383       19.4395945025
H    1.0       26.5810456603       20.3053480491       19.6155860976
C    6.0       21.4249715156       13.8037363301       20.9532252019
H    1.0       21.0789380221       12.8042748531       20.6614862779
O    8.0       20.3291658603       14.6611235708       21.3292610235
C    6.0       22.3939942664       13.7017492030       22.1587754579
H    1.0       23.2326098314       13.0632671009       21.8520785835
O    8.0       21.7445677593       13.1169239625       23.2970661140
H    1.0       22.3844222309       13.2328408483       24.0348046685
C    6.0       22.9649758614       15.0890601070       22.5378064315
H    1.0       22.1467654370       15.6901610130       22.9523183583
O    8.0       23.9948145986       14.9306146064       23.5207257715
H    1.0       24.2749845638       15.8422302473       23.7861938049
C    6.0       23.5266213088       15.8329300903       21.3000042579
H    1.0       24.4783369139       15.3735681569       21.0014415320
C    6.0       22.5560060797       15.7962812516       20.0913577736
H    1.0       21.6889131965       16.4353978208       20.3045088016
O    8.0       22.1394713059       14.4272387819       19.8647480395
C    6.0       23.2270842252       16.2997808926       18.7962267893
H    1.0       24.0913999436       15.6633702327       18.5639655952
H    1.0       23.5976824392       17.3207075721       18.9543359926
O    8.0       22.2899896579       16.2839207770       17.7176178715
H    1.0       21.9457312545       15.3647278507       17.6728607411
C    6.0       20.8790503459       17.8212957516       25.1503357600
H    1.0       20.8133955863       17.1100985046       25.9846292208
H    1.0       21.9299277589       17.8116013573       24.8303073953
C    6.0       20.5087143790       19.2203752267       25.6855330204
H    1.0       19.5145351579       19.1812626954       26.1508946937
H    1.0       21.2104930589       19.4789436506       26.4898880944
C    6.0       20.5366253033       20.3457180747       24.6291598944
H    1.0       21.5172480334       20.3957294004       24.1445075835
H    1.0       20.4141360650       21.3004419822       25.1585700746
C    6.0       19.4041576647       20.2321633911       23.5802383268
H    1.0       18.4836470521       19.8875578142       24.0683015815
H    1.0       19.1760978178       21.2366035502       23.2129928275
C    6.0       19.6971786687       19.3431091352       22.3504510138
H    1.0       18.7395830984       19.1812969421       21.8371020558
C    6.0       20.3146065286       17.9556935388       22.6364471691
H    1.0       19.9738037569       17.2818187936       21.8418324276
H    1.0       21.4026742164       18.0074653129       22.5310805187
C    6.0       19.9762391993       17.3136319084       24.0035096757
H    1.0       18.9134421172       17.4430689883       24.2492213792
H    1.0       20.1402165432       16.2320158581       23.9203674008
O    8.0       20.5612751073       20.0452042438       21.4660718453
H    1.0       21.3321587310       20.3333266793       21.9952497218
 $end
