$$$$
! Edit this basic GAMESS input file as needed.
! Conformer was generated by a VeraChem VCPack run 
! and contains    139 atoms.
!
 $contrl scftyp=rhf runtyp=optimize nzvar=0
  maxit=200 icharg=0 $end
 $system mwords=50 $end
 $basis gbasis=pm3 $end
 $statpt nstep=200 $end
 $guess guess=huckel $end
 $data
VM2 Rank=1      G=472.967           E=293.351           -TS=179.616             
C1
C    6.0       16.2059126731       15.1489464227       20.5954980767
H    1.0       15.1404451835       15.0401911513       20.3556739964
O    8.0       16.5334188422       16.5180335731       20.9092371601
C    6.0       16.6113784274       14.2132191281       21.7681869822
H    1.0       16.4340561509       13.1840781295       21.4307321939
O    8.0       15.8060862092       14.4563885653       22.9318606000
H    1.0       16.1052031101       15.3227670397       23.3050175853
C    6.0       18.1255992331       14.3492122400       22.0822064303
H    1.0       18.3029333898       15.3492524552       22.5014002516
O    8.0       18.5318608733       13.3450826708       23.0204647359
H    1.0       19.5067229259       13.4511546550       23.1489270551
C    6.0       18.9855356728       14.2005238389       20.8007554552
H    1.0       19.0298990119       13.1363955731       20.5341265964
C    6.0       18.4325382286       15.0040289302       19.5926810441
H    1.0       18.6233462077       16.0710779953       19.7672439196
O    8.0       17.0073307052       14.7722563399       19.4562546233
C    6.0       19.0992500401       14.6195707489       18.2532873215
H    1.0       20.1748207787       14.8307022459       18.3130779579
H    1.0       18.6846580163       15.2541768777       17.4587656342
O    8.0       18.8829169099       13.2383841123       17.9482121646
H    1.0       17.9092341306       13.1039135361       17.9706073609
C    6.0       15.0198835733       20.1493115295       22.1429117943
H    1.0       14.4280310698       20.9890044784       22.5280758583
O    8.0       16.2003273839       20.6028463266       21.4450364176
C    6.0       15.4572539687       19.2180113257       23.3018065430
H    1.0       14.5464036658       18.8122932489       23.7604468779
O    8.0       16.1880042828       19.9597266983       24.2933805191
H    1.0       17.0459303524       19.4821903333       24.4501033885
C    6.0       16.2804096373       18.0276140152       22.7479412181
H    1.0       17.2072252887       18.4257610572       22.3239889788
O    8.0       16.5922588035       17.1069800501       23.8006431164
H    1.0       17.3723540509       17.5048003711       24.2716790659
C    6.0       15.5375830077       17.2988866242       21.6001531964
H    1.0       14.7425654625       16.6747547964       22.0283469425
C    6.0       14.9369130798       18.2852426933       20.5586019011
H    1.0       15.7626776705       18.7036254578       19.9681045036
O    8.0       14.2300955469       19.3580297025       21.2294965930
C    6.0       13.9536985422       17.6161138099       19.5726554627
H    1.0       14.4995406316       16.8808851187       18.9667560627
H    1.0       13.5672009631       18.3816109459       18.8864239398
O    8.0       12.8755711948       16.9811554013       20.2660803503
H    1.0       12.4485378513       17.6802197058       20.8097628100
C    6.0       18.4233615882       24.0935707315       20.9438552023
H    1.0       18.7537007648       25.1151503089       20.7180562248
O    8.0       19.5361858955       23.2151264604       21.2074777806
C    6.0       17.4963785253       24.0959322132       22.1849773998
H    1.0       16.6331263899       24.7314070917       21.9480684327
O    8.0       18.1704583404       24.6258968670       23.3351038359
H    1.0       17.5612342704       24.4409682277       24.0850420193
C    6.0       16.9696641447       22.6738740463       22.4923909028
H    1.0       17.8244260845       22.0597152621       22.8057423039
O    8.0       16.0172272862       22.7551170854       23.5595177093
H    1.0       15.9780915458       21.8490328507       23.9549399081
C    6.0       16.3364172966       22.0221784917       21.2291881161
H    1.0       15.3637610960       22.4861701638       21.0187602605
C    6.0       17.2497013258       22.1752712413       19.9821607099
H    1.0       18.1284491337       21.5297763974       20.1141016713
O    8.0       17.6708396078       23.5539360361       19.8381496239
C    6.0       16.5518196713       21.7619982034       18.6673196350
H    1.0       16.2374399804       20.7127368139       18.7412354170
H    1.0       17.2780752955       21.8310458459       17.8465677837
O    8.0       15.4221178905       22.5981066609       18.4002029960
H    1.0       15.7546901524       23.5226190999       18.4385707226
C    6.0       23.6356074275       22.8078894328       20.9201596842
H    1.0       24.7145643944       22.9180382059       20.7518540754
O    8.0       23.2843621502       21.4302282967       21.1683065286
C    6.0       23.1593026836       23.7137370294       22.0904062564
H    1.0       23.3556813481       24.7510876853       21.7907114495
O    8.0       23.8922116928       23.4418221367       23.2945524843
H    1.0       23.5656172976       22.5705650558       23.6313631865
C    6.0       21.6289680936       23.5702730135       22.3063461964
H    1.0       21.4276892348       22.5577739825       22.6811749769
O    8.0       21.1592252499       24.5426541386       23.2487984953
H    1.0       20.1765221684       24.4428755039       23.2963980905
C    6.0       20.8503351464       23.7603158100       20.9799958925
H    1.0       20.8186697094       24.8332713646       20.7491995430
C    6.0       21.4778892392       22.9982263307       19.7807803556
H    1.0       21.2710027423       21.9270527381       19.9034711636
O    8.0       22.9102117939       23.2241562446       19.7445098698
C    6.0       20.9038163331       23.4356770421       18.4148502420
H    1.0       19.8278065772       23.2210402448       18.3904199085
H    1.0       21.3748586970       22.8340203984       17.6261546708
O    8.0       21.1355670511       24.8281654842       18.1807431241
H    1.0       22.1055896003       24.9617474706       18.2692428025
C    6.0       24.7073131863       17.7695217921       22.4472093438
H    1.0       25.2733255152       16.9271962917       22.8642438713
O    8.0       23.5923638054       17.3194803256       21.6476069164
C    6.0       24.1736129838       18.6795378958       23.5837267445
H    1.0       25.0438134770       19.0751369816       24.1230454317
O    8.0       23.3609203074       17.9255898370       24.4999852287
H    1.0       22.4804962347       18.3839995725       24.5695676050
C    6.0       23.3980029898       19.8808832642       22.9900640279
H    1.0       22.5021758265       19.4881612603       22.4967936859
O    8.0       23.0217638599       20.7870396735       24.0343658087
H    1.0       22.2273494580       20.3731565491       24.4646243468
C    6.0       24.2238353461       20.6284980140       21.9136535933
H    1.0       24.9875170043       21.2397748600       22.4116781701
C    6.0       24.8997550046       19.6595190038       20.9031275423
H    1.0       24.1201564875       19.2480142038       20.2483954739
O    8.0       25.5602813190       18.5798253404       21.6099181347
C    6.0       25.9495313675       20.3458213621       20.0011356478
H    1.0       25.4466227750       21.0902335137       19.3697905521
H    1.0       26.3860505901       19.5921057921       19.3320850330
O    8.0       26.9736961320       20.9708919484       20.7800908207
H    1.0       27.3611066438       20.2639982600       21.3430110854
C    6.0       21.4064281285       13.8440234579       20.9466448109
H    1.0       21.0849417757       12.8265207511       20.6917004613
O    8.0       20.2854569236       14.7347518763       21.1191246824
C    6.0       22.2308358879       13.8297261878       22.2575988595
H    1.0       23.1097139823       13.1952228169       22.0839051093
O    8.0       21.4711173582       13.2904006058       23.3478288585
H    1.0       22.0180462981       13.4767411485       24.1441692505
C    6.0       22.7338572456       15.2479293909       22.6161898959
H    1.0       21.8596785941       15.8686755962       22.8591569471
O    8.0       23.5946605995       15.1522393453       23.7575925207
H    1.0       23.5995748384       16.0532194950       24.1663076768
C    6.0       23.4756949142       15.9007708164       21.4148549777
H    1.0       24.4631774505       15.4368206345       21.2914576516
C    6.0       22.6784817841       15.7507108001       20.0893700815
H    1.0       21.7988327304       16.4054463862       20.1371411351
O    8.0       22.2549654755       14.3765809623       19.9086914718
C    6.0       23.4985987065       16.1535954912       18.8438549945
H    1.0       23.8180546097       17.1990174801       18.9466327401
H    1.0       22.8495422323       16.0927310318       17.9601852960
O    8.0       24.6373314047       15.3029448656       18.6812202912
H    1.0       24.2907958251       14.3827719893       18.6885515805
C    6.0       19.7559323651       19.1325002490       24.0224986572
O    8.0       18.7194342964       18.7612044424       24.5420318183
O    8.0       20.8289090617       19.1763755747       24.5956061813
C    6.0       19.7084064208       19.5582679693       22.5567020960
H    1.0       20.4419181065       20.3569303252       22.4027487966
H    1.0       18.7283802005       20.0023364447       22.3609305482
C    6.0       19.9702276555       18.3876066716       21.5760687422
H    1.0       20.9619013317       17.9628731600       21.7721402208
H    1.0       19.2478998218       17.5811292077       21.7584426496
C    6.0       19.8788822495       18.8418876621       20.1058881295
H    1.0       20.6083131439       19.6343867200       19.8969971474
H    1.0       20.0842306541       18.0046779885       19.4276788886
H    1.0       18.8753644114       19.2237543408       19.8789387609
 $end
