$$$$
! Edit this basic GAMESS input file as needed.
! Conformer was generated by a VeraChem VCPack run 
! and contains    152 atoms.
!
 $contrl scftyp=rhf runtyp=optimize nzvar=0
  maxit=200 icharg=0 $end
 $system mwords=50 $end
 $basis gbasis=pm3 $end
 $statpt nstep=200 $end
 $guess guess=huckel $end
 $data
VM2 Rank=1      G=594.768           E=390.478           -TS=204.290             
C1
C    6.0       16.2610618945       15.3170882368       20.6721574012
H    1.0       15.2243399721       15.1230048827       20.3677526839
O    8.0       16.4324287221       16.6608030559       21.1582210243
C    6.0       16.7081910150       14.3394639050       21.7883443148
H    1.0       16.6278132186       13.3233273807       21.3806890938
O    8.0       15.8665982588       14.4451540662       22.9479153365
H    1.0       15.8440822115       15.3991368678       23.2147615266
C    6.0       18.1891100730       14.5826781858       22.1727418041
H    1.0       18.2600943511       15.5716995606       22.6459308991
O    8.0       18.5865158447       13.5705739924       23.1045140225
H    1.0       17.8101904864       13.4570141553       23.6994333324
C    6.0       19.1051598544       14.5821130662       20.9138766852
H    1.0       19.2059750861       13.5588917097       20.5279944969
C    6.0       18.5356535835       15.4842969377       19.7875138238
H    1.0       18.6181226833       16.5331508280       20.0978106856
O    8.0       17.1498656622       15.1364978520       19.5497480893
C    6.0       19.2974801482       15.3148287356       18.4566392258
H    1.0       19.1351339001       14.2993644504       18.0713450455
H    1.0       20.3735936972       15.4354613780       18.6360678753
O    8.0       18.8523040066       16.2901442175       17.5117382603
H    1.0       17.8768696389       16.1922957205       17.4570238647
C    6.0       14.5759146604       20.2240505537       21.8233401623
H    1.0       13.9325525190       21.0946297192       22.0052065150
O    8.0       15.9236889252       20.6094761163       21.4859035610
C    6.0       14.6265789206       19.3214985985       23.0796054574
H    1.0       13.6124949207       18.9391227132       23.2545084645
O    8.0       15.0588573910       20.0630781475       24.2314170230
H    1.0       15.4448445429       20.9128198498       23.9036216907
C    6.0       15.5607053655       18.1145863007       22.8364995618
H    1.0       16.5840298509       18.5007179782       22.7757464004
O    8.0       15.4662445712       17.2044061353       23.9361313587
H    1.0       15.5150353610       17.7723644856       24.7375492528
C    6.0       15.2348155602       17.3759927434       21.5115790308
H    1.0       14.3890216757       16.6989501070       21.6916761375
C    6.0       14.9168273251       18.3269370720       20.3196279522
H    1.0       15.8670380003       18.7317208504       19.9464810533
O    8.0       14.0611186771       19.4185217725       20.7437250300
C    6.0       14.2246131993       17.6195818233       19.1335016184
H    1.0       14.9103780090       16.8741545829       18.7098787186
H    1.0       14.0250869207       18.3608618968       18.3481115049
O    8.0       13.0066360122       16.9925719735       19.5447684714
H    1.0       12.4472085124       17.7027173218       19.9311962788
C    6.0       18.3844405275       23.8549777052       20.7865737177
H    1.0       18.8135033844       24.8235831227       20.5020108485
O    8.0       19.4193874267       22.8832985786       21.0563615181
C    6.0       17.4379921792       24.0088777675       22.0101782024
H    1.0       16.6332099164       24.6909199514       21.7062924473
O    8.0       18.1078879351       24.5684356017       23.1491082939
H    1.0       18.7760359728       23.8989896979       23.4433696638
C    6.0       16.7929707993       22.6521359891       22.3764048441
H    1.0       17.5887157598       21.9858404461       22.7368560083
O    8.0       15.8203575993       22.8438410510       23.4083481565
H    1.0       16.2379099146       23.4682417118       24.0434851153
C    6.0       16.1315545656       21.9899168657       21.1412152366
H    1.0       15.1913188079       22.5027835408       20.8980597771
C    6.0       17.0519185497       22.0059723207       19.8930945092
H    1.0       17.8609220099       21.2890852275       20.0599214099
O    8.0       17.5858596225       23.3398381658       19.7025492060
C    6.0       16.3072236281       21.5972762555       18.6034598228
H    1.0       15.6974874154       22.4424027218       18.2568629414
H    1.0       15.6234291291       20.7693147231       18.8296751442
O    8.0       17.2330846797       21.1900980795       17.5892211220
H    1.0       16.7063498019       20.9717209455       16.7898128996
C    6.0       23.4219219258       22.5672186152       22.1858376829
H    1.0       24.4353003156       22.7622875586       22.5598655251
O    8.0       23.3406718459       21.3000706850       21.5070234230
C    6.0       22.4021091160       22.5852946366       23.3549342884
H    1.0       22.4653876823       23.5765989661       23.8223536099
O    8.0       22.6977737786       21.5812910646       24.3394171004
H    1.0       23.6235359297       21.2761185434       24.1799828395
C    6.0       20.9609720887       22.3897645125       22.8332298856
H    1.0       20.8859058368       21.3655909337       22.4487191470
O    8.0       20.0473409930       22.5706336667       23.9190710826
H    1.0       20.4355470673       22.0464145514       24.6555652128
C    6.0       20.6303149258       23.3653346048       21.6752038678
H    1.0       20.5099879430       24.3773899873       22.0836895034
C    6.0       21.7456312710       23.3757598882       20.5948089688
H    1.0       21.7332559115       22.4132994796       20.0663253062
O    8.0       23.0273406056       23.5858262056       21.2420120360
C    6.0       21.5636058389       24.4968806418       19.5512268012
H    1.0       21.5908237373       25.4723883660       20.0549575294
H    1.0       20.5824380233       24.3910349275       19.0703178869
O    8.0       22.5930372407       24.4114630725       18.5644807071
H    1.0       23.4423108321       24.3976673979       19.0589776559
C    6.0       25.2956851839       17.7601041474       20.9958250766
H    1.0       25.9417534926       16.8991696978       20.7804716670
O    8.0       23.9120882136       17.3687022452       21.1371880915
C    6.0       25.7633734352       18.5186426166       22.2644833624
H    1.0       26.7513042590       18.9415234260       22.0396864245
O    8.0       25.8836307795       17.6527307716       23.4017568806
H    1.0       24.9729347499       17.3247738550       23.6110106279
C    6.0       24.8016189551       19.6927639872       22.5668701036
H    1.0       23.8297867484       19.2680120391       22.8553772742
O    8.0       25.3304508749       20.4656093500       23.6499334149
H    1.0       25.6861057190       19.8039057090       24.2859300618
C    6.0       24.5814369951       20.5941364836       21.3188262867
H    1.0       25.4280032522       21.2850506824       21.2083738724
C    6.0       24.4120224690       19.8032902478       19.9926326610
H    1.0       23.3930803588       19.4018705263       19.9581482232
O    8.0       25.3692091984       18.7173902982       19.9196585190
C    6.0       24.6173926829       20.7058332931       18.7573518824
H    1.0       25.6496365926       21.0804943672       18.7492759848
H    1.0       23.9473928771       21.5735981081       18.8284559260
O    8.0       24.3414124328       19.9742781573       17.5613979228
H    1.0       24.8895480689       19.1600692885       17.6075239475
C    6.0       21.3310268070       14.2330895343       21.8805715490
H    1.0       20.8646023941       13.2726238018       22.1328390285
O    8.0       20.3914919295       15.1355400426       21.2598675914
C    6.0       21.8987577166       14.9067775484       23.1551885635
H    1.0       22.6458776337       14.2223227364       23.5777381800
O    8.0       20.8701973103       15.1431656327       24.1305116676
H    1.0       20.1253698490       14.5302052791       23.9193253430
C    6.0       22.6043653749       16.2360997134       22.8028811263
H    1.0       21.8419143977       16.9408738683       22.4515138601
O    8.0       23.2256203924       16.7518648654       23.9825713079
H    1.0       22.5399089381       16.6561722066       24.6819334886
C    6.0       23.6426582288       16.0567263971       21.6656941408
H    1.0       24.5444308686       15.5816725259       22.0744140994
C    6.0       23.0844347362       15.2183057558       20.4814360266
H    1.0       22.3561838664       15.8345597656       19.9378957284
O    8.0       22.4317444674       14.0215503018       20.9712390420
C    6.0       24.1735562338       14.7863881827       19.4745508310
H    1.0       24.6058231375       15.6823113699       19.0092966823
H    1.0       23.7032755261       14.1976966626       18.6755460671
O    8.0       25.1980587695       14.0224609664       20.1172942641
H    1.0       24.7482679705       13.2543518303       20.5348111039
N    7.0       19.9944756060       20.9042309145       16.6302013688
H    1.0       19.1742740839       21.1083099279       17.2358462568
H    1.0       19.6492124821       21.0613462037       15.6717351295
C    6.0       20.4085793027       19.4478132432       16.7881253759
H    1.0       21.1977403871       19.2468672422       16.0593928976
H    1.0       19.5431455675       18.8321767685       16.5279135605
C    6.0       20.9013173997       19.0479338061       18.1947658403
H    1.0       21.1178536758       17.9717407125       18.1959000899
H    1.0       21.8457229641       19.5585552126       18.4041955820
C    6.0       19.8744571495       19.3766404738       19.2985394643
H    1.0       18.9053573237       18.9294540605       19.0348670801
H    1.0       19.7289520643       20.4631337217       19.3420484258
C    6.0       20.3186318937       18.8753058520       20.6899096498
H    1.0       20.5435011795       17.8020840944       20.6411659456
H    1.0       21.2458611742       19.3807425620       20.9921722691
C    6.0       19.2181098608       19.1277062932       21.7421942576
H    1.0       19.0035709229       20.2021527969       21.8068582176
H    1.0       18.2898682334       18.6442664099       21.4139905089
C    6.0       19.6068775514       18.6018344093       23.1389882540
H    1.0       19.7136215140       17.5100799916       23.1326853822
H    1.0       18.8349068476       18.8562506645       23.8765906811
H    1.0       20.5547754294       19.0394486570       23.4797103652
C    6.0       21.1537094761       21.8491298502       16.9293839883
H    1.0       21.9878347016       21.6164749629       16.2637153000
H    1.0       20.8293576964       22.8801028928       16.7710715009
H    1.0       21.4667142266       21.7208555878       17.9671236358
 $end
$$$$
! Edit this basic GAMESS input file as needed.
! Conformer was generated by a VeraChem VCPack run 
! and contains    152 atoms.
!
 $contrl scftyp=rhf runtyp=optimize nzvar=0
  maxit=200 icharg=0 $end
 $system mwords=50 $end
 $basis gbasis=pm3 $end
 $statpt nstep=200 $end
 $guess guess=huckel $end
 $data
VM2 Rank=2      G=594.929           E=390.687           -TS=204.241             
C1
C    6.0       16.2404691048       15.2884727752       20.7304989353
H    1.0       15.2001501198       15.0941808955       20.4387191498
O    8.0       16.4250396348       16.6422641340       21.1830157239
C    6.0       16.6894911900       14.3353478950       21.8667340943
H    1.0       16.6011390185       13.3101510370       21.4841881653
O    8.0       15.8557119645       14.4737393393       23.0284670926
H    1.0       15.8317831044       15.4353078621       23.2664308286
C    6.0       18.1741584547       14.5798255209       22.2356133200
H    1.0       18.2530957902       15.5790697635       22.6854605027
O    8.0       18.5737840244       13.5874380778       23.1874107294
H    1.0       17.8017711055       13.4920441309       23.7910500866
C    6.0       19.0823070734       14.5455785796       20.9717136516
H    1.0       19.1796619502       13.5124749473       20.6121461879
C    6.0       18.5088893904       15.4187462288       19.8245399241
H    1.0       18.5999122657       16.4756626062       20.1037086016
O    8.0       17.1193603106       15.0733938247       19.6066032596
C    6.0       19.2591558065       15.2050892808       18.4935444036
H    1.0       19.0875774878       14.1796395392       18.1399815499
H    1.0       20.3373859277       15.3238922441       18.6611554083
O    8.0       18.8121155723       16.1543895591       17.5233773429
H    1.0       17.8358521091       16.0598248490       17.4783483920
C    6.0       14.6010821234       20.2412225678       21.7525502492
H    1.0       13.9635208602       21.1209111319       21.9092133807
O    8.0       15.9554697354       20.6080417670       21.4201851531
C    6.0       14.6292183098       19.3638598448       23.0276109163
H    1.0       13.6095917663       18.9943403949       23.1978933810
O    8.0       15.0544418731       20.1231180754       24.1703793705
H    1.0       15.4478211696       20.9653317505       23.8319353181
C    6.0       15.5541729631       18.1435150769       22.8200496721
H    1.0       16.5818414875       18.5182922992       22.7619238789
O    8.0       15.4393035558       17.2579948650       23.9376985196
H    1.0       15.4837857925       17.8428407588       24.7271713867
C    6.0       15.2334066356       17.3804472771       21.5079833902
H    1.0       14.3769557763       16.7184874804       21.6936683658
C    6.0       14.9396733926       18.3094862991       20.2927725404
H    1.0       15.8981993466       18.6968363073       19.9223354230
O    8.0       14.0903361202       19.4182301080       20.6841461928
C    6.0       14.2537021305       17.5840101135       19.1139959475
H    1.0       14.9356105547       16.8212020675       18.7158316308
H    1.0       14.0727840097       18.3098293197       18.3098850997
O    8.0       13.0233175297       16.9806869690       19.5238278694
H    1.0       12.4681569242       17.7057499867       19.8880726714
C    6.0       18.4551453381       23.8241684939       20.7102844554
H    1.0       18.8994272264       24.7845665233       20.4189897517
O    8.0       19.4744746194       22.8451499793       21.0073124589
C    6.0       17.4985626462       23.9994096433       21.9240121808
H    1.0       16.7056180925       24.6896645143       21.6079293767
O    8.0       18.1629424531       24.5545655942       23.0688038957
H    1.0       18.8323676651       23.8857747940       23.3617089355
C    6.0       16.8338984945       22.6538276257       22.2961710172
H    1.0       17.6178512575       21.9837148922       22.6751747395
O    8.0       15.8507211808       22.8694313113       23.3132535633
H    1.0       16.2677253786       23.4980488103       23.9447452822
C    6.0       16.1810736427       21.9825092700       21.0616561526
H    1.0       15.2487244809       22.5012806066       20.8012981759
C    6.0       17.1155081851       21.9752387278       19.8239939732
H    1.0       17.9169884475       21.2536857087       20.0071499598
O    8.0       17.6626523005       23.3023725969       19.6239260908
C    6.0       16.3789240655       21.5573877507       18.5324431634
H    1.0       15.7765133985       22.4023026511       18.1727652236
H    1.0       15.6887625775       20.7355215465       18.7621494499
O    8.0       17.3090535301       21.1342523386       17.5287072160
H    1.0       16.7859476979       20.9159362317       16.7268355912
C    6.0       23.4777663595       22.5479602794       22.1164352120
H    1.0       24.4946928467       22.7387101534       22.4829874046
O    8.0       23.3849327091       21.2781868137       21.4438360936
C    6.0       22.4649288826       22.5752274384       23.2922580213
H    1.0       22.5264690230       23.5719647923       23.7482411002
O    8.0       22.7695852826       21.5835143720       24.2863643912
H    1.0       23.6918793803       21.2720249010       24.1193552742
C    6.0       21.0220273932       22.3677132368       22.7806193339
H    1.0       20.9497149740       21.3417742453       22.3998786563
O    8.0       20.1105755250       22.5499075152       23.8686833931
H    1.0       20.5048472470       22.0338131553       24.6075463305
C    6.0       20.6813162568       23.3383856351       21.6236079070
H    1.0       20.5491899739       24.3463997039       22.0378461310
C    6.0       21.7928134060       23.3664314056       20.5383699310
H    1.0       21.7812946438       22.4056952078       20.0070180582
O    8.0       23.0840474143       23.5649210476       21.1692684740
C    6.0       21.6037565023       24.4819780075       19.4864336996
H    1.0       20.6878981959       24.2826123290       18.9142338097
H    1.0       22.4435071044       24.4471039064       18.7795095701
O    8.0       21.5280705816       25.7696137255       20.1046209588
H    1.0       22.3602672311       25.8798830320       20.6161213094
C    6.0       25.2923616502       17.7096239936       20.9595602173
H    1.0       25.9269838695       16.8391293697       20.7486040114
O    8.0       23.9054158418       17.3345950902       21.1149789613
C    6.0       25.7788392544       18.4753326905       22.2169285139
H    1.0       26.7702025371       18.8834569823       21.9802587475
O    8.0       25.8973905279       17.6200495915       23.3623878398
H    1.0       24.9840448751       17.3075987015       23.5834424049
C    6.0       24.8344339594       19.6646020144       22.5145316800
H    1.0       23.8593014369       19.2554685405       22.8142486616
O    8.0       25.3818735275       20.4411690624       23.5855468104
H    1.0       25.7347429138       19.7812183447       24.2249597079
C    6.0       24.6174262774       20.5564810680       21.2593052674
H    1.0       25.4709538460       21.2368653182       21.1374864633
C    6.0       24.4303977714       19.7553422939       19.9420674931
H    1.0       23.4054064712       19.3693667862       19.9177172366
O    8.0       25.3702057319       18.6545514183       19.8727801292
C    6.0       24.6430752078       20.6458067260       18.6993916115
H    1.0       25.6880223866       20.9823284222       18.6691545836
H    1.0       24.0077736000       21.5378619624       18.7826197401
O    8.0       24.3146915258       19.9246648706       17.5106280267
H    1.0       24.8436500531       19.0971104977       17.5379768706
C    6.0       21.3158806608       14.2156974024       21.9266410508
H    1.0       20.8518222799       13.2595826531       22.1992432119
O    8.0       20.3708857604       15.1060795304       21.2973567615
C    6.0       21.8935336976       14.9112088083       23.1852474312
H    1.0       22.6422527251       14.2327504812       23.6145857326
O    8.0       20.8723680095       15.1664508944       24.1635361000
H    1.0       20.1238422573       14.5530864142       23.9669769948
C    6.0       22.5995326992       16.2330060936       22.8060643507
H    1.0       21.8360338620       16.9338233651       22.4496845771
O    8.0       23.2309302438       16.7659080777       23.9726701527
H    1.0       22.5500535613       16.6839281206       24.6784593132
C    6.0       23.6289946489       16.0320913055       21.6644059505
H    1.0       24.5299554051       15.5564584048       22.0742453932
C    6.0       23.0575849671       15.1786080321       20.4974369522
H    1.0       22.3246605455       15.7883078377       19.9528188513
O    8.0       22.4088706428       13.9896519167       21.0113635589
C    6.0       24.1356812276       14.7307265179       19.4856456788
H    1.0       24.5638462456       15.6192259277       19.0026949717
H    1.0       23.6565001075       14.1308244192       18.7003851720
O    8.0       25.1662425022       13.9753016141       20.1287455804
H    1.0       24.7203069469       13.2136351939       20.5618949132
N    7.0       20.0516552009       20.7220387986       16.5686011680
H    1.0       19.2319259316       20.9638835921       17.1610044964
H    1.0       19.7218497015       20.8694294140       15.6030970457
C    6.0       20.4171132755       19.2569330092       16.7618874952
H    1.0       21.1999137997       19.0126744248       16.0395704252
H    1.0       19.5321115902       18.6641355487       16.5147782424
C    6.0       20.8954363249       18.8748834415       18.1783832085
H    1.0       21.0703974373       17.7916861335       18.2071772258
H    1.0       21.8599396209       19.3519155268       18.3736787180
C    6.0       19.8838311469       19.2707353373       19.2746777292
H    1.0       18.9017048767       18.8410059517       19.0309479800
H    1.0       19.7663509446       20.3615270340       19.2833012505
C    6.0       20.3236711134       18.8047226028       20.6794187204
H    1.0       20.5259273162       17.7264329896       20.6623246813
H    1.0       21.2626162502       19.2997554605       20.9625062559
C    6.0       19.2338795904       19.1106647158       21.7283236288
H    1.0       19.0441437977       20.1910509178       21.7648393017
H    1.0       18.2938921259       18.6391905911       21.4166247774
C    6.0       19.6169359323       18.6139623535       23.1373182989
H    1.0       19.7052860185       17.5207003949       23.1588502454
H    1.0       18.8511827173       18.9006361788       23.8695774528
H    1.0       20.5730215627       19.0437904624       23.4647302705
C    6.0       21.2361252129       21.6359923009       16.8628925213
H    1.0       22.0709402112       21.3605253369       16.2142412126
H    1.0       20.9442763109       22.6714486423       16.6750379160
H    1.0       21.5294870498       21.5176528459       17.9075841935
 $end
$$$$
! Edit this basic GAMESS input file as needed.
! Conformer was generated by a VeraChem VCPack run 
! and contains    152 atoms.
!
 $contrl scftyp=rhf runtyp=optimize nzvar=0
  maxit=200 icharg=0 $end
 $system mwords=50 $end
 $basis gbasis=pm3 $end
 $statpt nstep=200 $end
 $guess guess=huckel $end
 $data
VM2 Rank=3      G=594.995           E=390.686           -TS=204.310             
C1
C    6.0       16.1927118908       14.9925241133       20.6433809919
H    1.0       15.1373195831       14.8789516713       20.3635707135
O    8.0       16.5414826557       16.3773938656       20.8581993076
C    6.0       16.5381633391       14.1578876853       21.9048708565
H    1.0       16.3987885843       13.1018880917       21.6389099922
O    8.0       15.6809134101       14.4693796250       23.0121944188
H    1.0       15.8551790208       15.4138199343       23.2541661055
C    6.0       18.0238456334       14.3584660242       22.2903307975
H    1.0       18.1505725688       15.3993027724       22.6200531885
O    8.0       18.3594729925       13.4691112619       23.3600302793
H    1.0       17.5864065325       13.4970114140       23.9684262233
C    6.0       18.9676434412       14.1174267121       21.0804973836
H    1.0       19.0972494480       13.0384977890       20.9210169922
C    6.0       18.4559214432       14.7548177596       19.7604762764
H    1.0       18.6313315585       15.8358128586       19.8051363443
O    8.0       17.0412326881       14.4925695686       19.5899084642
C    6.0       19.1931972557       14.1952628984       18.5261942688
H    1.0       18.9370395270       13.1348440368       18.3994961224
H    1.0       20.2769410858       14.2592021717       18.6919538467
O    8.0       18.8345305533       14.9427755865       17.3623408767
H    1.0       17.8530341847       14.9246127080       17.3169942617
C    6.0       15.0125300075       20.1494676429       21.6302289171
H    1.0       14.3721397531       21.0041438610       21.8806354019
O    8.0       16.2714029910       20.5761918785       21.0669430870
C    6.0       15.2850060812       19.2863628787       22.8918991685
H    1.0       14.3095634872       18.9506797727       23.2675013534
O    8.0       15.9526455380       20.0334578259       23.9212684271
H    1.0       15.7158787209       20.9821240155       23.7875587275
C    6.0       16.1206633682       18.0355282849       22.5385276634
H    1.0       17.1205208436       18.3688645412       22.2392122810
O    8.0       16.2209453073       17.2065094363       23.6992884061
H    1.0       16.4355175379       17.8327994430       24.4274640233
C    6.0       15.5084474689       17.2491976505       21.3532684759
H    1.0       14.6316068448       16.6915746028       21.7084377807
C    6.0       15.1095478982       18.1800388776       20.1741736609
H    1.0       16.0282726430       18.5404691820       19.6926102217
O    8.0       14.3457865791       19.3092875362       20.6638898069
C    6.0       14.2637208862       17.4685378780       19.0946944089
H    1.0       14.8682447612       16.6778569960       18.6306653076
H    1.0       14.0131713461       18.1924075576       18.3076973264
O    8.0       13.0713208725       16.9114924197       19.6554482486
H    1.0       12.5886462659       17.6585448882       20.0744163109
C    6.0       18.5256853244       24.0948722547       21.0067934010
H    1.0       18.9043514395       25.1100178407       20.8297981976
O    8.0       19.5445536101       23.2236025151       21.5273284072
C    6.0       17.3656139009       24.1060916644       22.0304204660
H    1.0       16.5742418438       24.7476796685       21.6214007736
O    8.0       17.8034426238       24.6381423351       23.2921342494
H    1.0       18.6511303130       24.1830284601       23.5262495496
C    6.0       16.7787445947       22.6847332577       22.2265176774
H    1.0       17.5353357601       22.0757912044       22.7407032866
O    8.0       15.6106347149       22.8007082536       23.0467246057
H    1.0       15.8462106311       23.4724935899       23.7271947298
C    6.0       16.4528100484       21.9959315927       20.8657014312
H    1.0       15.5554475106       22.4492113184       20.4241218648
C    6.0       17.6295903553       22.1337600139       19.8631803614
H    1.0       18.4652889141       21.5198470012       20.2172055639
O    8.0       18.0289747063       23.5222541257       19.7800886630
C    6.0       17.2762697584       21.6604875680       18.4390366497
H    1.0       16.4942224065       22.3085049903       18.0213409498
H    1.0       16.8768211927       20.6387279213       18.4836219402
O    8.0       18.4508641104       21.6921993644       17.6232656364
H    1.0       18.7569701952       22.6261120210       17.6406062669
C    6.0       23.5589975120       22.8392949006       22.0997502202
H    1.0       24.6401050622       22.9202541192       22.2719376316
O    8.0       23.1759004953       21.5021647565       21.7144134783
C    6.0       22.7875859609       23.2322409195       23.3836238717
H    1.0       23.0189996561       24.2834278766       23.5994402122
O    8.0       23.1913594936       22.4196871340       24.4972156306
H    1.0       23.7356447560       21.6776123641       24.1341665295
C    6.0       21.2643434793       23.1124029576       23.1574512000
H    1.0       21.0339975853       22.0456788237       23.0639995345
O    8.0       20.5591835593       23.6493222238       24.2812938075
H    1.0       21.0112187722       23.2697716679       25.0676291792
C    6.0       20.8025938746       23.8313414033       21.8642482349
H    1.0       20.6967455811       24.9023407917       22.0829102381
C    6.0       21.7525664327       23.6191107538       20.6489980542
H    1.0       21.5717560482       22.6115513874       20.2527305217
O    8.0       23.1391782172       23.7392332704       21.0548935491
C    6.0       21.5176731998       24.6174324345       19.4933707937
H    1.0       20.5183575349       24.4522911123       19.0707656469
H    1.0       22.2443134665       24.4112124409       18.6960541719
O    8.0       21.6460506364       25.9689338139       19.9436532193
H    1.0       22.5498033263       26.0493554765       20.3221660801
C    6.0       24.8095151747       17.7878455483       20.8107050844
H    1.0       25.4483990437       16.9628976861       20.4700280255
O    8.0       23.4788468136       17.3265010104       21.1216529325
C    6.0       25.4273595544       18.4985309621       22.0471808016
H    1.0       26.3991326910       18.9008714585       21.7326954678
O    8.0       25.6359557529       17.5968763407       23.1443487838
H    1.0       24.7435454219       17.2701989930       23.4236950750
C    6.0       24.5429314838       19.6881314225       22.4896594330
H    1.0       23.5863582692       19.2859952025       22.8514726702
O    8.0       25.1964019413       20.4053503145       23.5417827260
H    1.0       25.5665163062       19.7119147836       24.1334132684
C    6.0       24.2499419692       20.6377842079       21.3008460911
H    1.0       25.1569462076       21.2035655273       21.0486335569
C    6.0       23.7760000246       19.8749185482       20.0358328240
H    1.0       22.7613096348       19.4997723760       20.2099269959
O    8.0       24.6870294964       18.7785112448       19.7668091648
C    6.0       23.7511031958       20.7774736217       18.7834997288
H    1.0       24.7745714295       21.0982798972       18.5475640249
H    1.0       23.1634075104       21.6785673106       18.9953981652
O    8.0       23.1791656553       20.0733230546       17.6787505039
H    1.0       23.7362976026       19.2722009723       17.5585688054
C    6.0       21.2483597326       13.9446434079       21.9571787710
H    1.0       20.8711024671       12.9496637570       22.2267497278
O    8.0       20.2168754332       14.7688019400       21.3787404741
C    6.0       21.8240882401       14.6584754169       23.2072297634
H    1.0       22.6571432269       14.0463619189       23.5767722246
O    8.0       20.8394168047       14.7893286511       24.2452531666
H    1.0       20.0142501153       14.3476019920       23.9271642825
C    6.0       22.3795565453       16.0508462747       22.8340553686