$$$$
! Edit this basic GAMESS input file as needed.
! Conformer was generated by a VeraChem VCPack run 
! and contains    143 atoms.
!
 $contrl scftyp=rhf runtyp=optimize nzvar=0
  maxit=200 icharg=0 $end
 $system mwords=50 $end
 $basis gbasis=pm3 $end
 $statpt nstep=200 $end
 $guess guess=huckel $end
 $data
VM2 Rank=1      G=487.834           E=306.153           -TS=181.680             
C1
C    6.0       16.3209245743       15.2747588825       20.7803122369
H    1.0       15.2659157273       15.1429102096       20.5076573133
O    8.0       16.5654510782       16.5798540184       21.3377065299
C    6.0       16.7515394058       14.2102414058       21.8231310088
H    1.0       16.5680592073       13.2240021558       21.3773367224
O    8.0       15.9926834348       14.3303132890       23.0349705985
H    1.0       16.4248581770       13.7070879193       23.6613219302
C    6.0       18.2624608850       14.3132973190       22.1447569064
H    1.0       18.4345560787       15.2548648587       22.6852263950
O    8.0       18.6471602144       13.2011116994       22.9621881513
H    1.0       19.6072375658       13.3198245441       23.1720270845
C    6.0       19.1156230074       14.3387562387       20.8518263209
H    1.0       19.1191141568       13.3384128242       20.3990985741
C    6.0       18.5702577131       15.3566570793       19.8173841386
H    1.0       18.7298608088       16.3694179872       20.2068046574
O    8.0       17.1555702345       15.1244461907       19.6122705557
C    6.0       19.2648748615       15.2565603530       18.4413862911
H    1.0       20.3384484041       15.4482490365       18.5648025121
H    1.0       18.8643330967       16.0419709436       17.7867851700
O    8.0       19.0578135794       13.9683047117       17.8547356994
H    1.0       18.0851685948       13.8256180254       17.8509349589
C    6.0       14.7216182271       20.2594666463       21.8301727383
H    1.0       14.0089395671       21.0840236478       21.9567635870
O    8.0       16.0695134454       20.7397177616       21.6572722574
C    6.0       14.6736020201       19.3275522679       23.0674747755
H    1.0       13.6503141943       18.9368639398       23.1407985946
O    8.0       14.9909861473       20.0396846852       24.2712087467
H    1.0       15.1065964573       19.3380500104       24.9508623583
C    6.0       15.6277221786       18.1230481244       22.8978663028
H    1.0       16.6597983019       18.4958974459       22.9343320307
O    8.0       15.4089363609       17.1857712727       23.9594065367
H    1.0       15.8079798569       16.3309024274       23.6646022872
C    6.0       15.4079659216       17.4116827360       21.5402990666
H    1.0       14.4868894804       16.8175716719       21.6101261497
C    6.0       15.3087387143       18.4042210242       20.3467787145
H    1.0       16.3064441277       18.8235089388       20.1599417109
O    8.0       14.3809150210       19.4693662766       20.6718258151
C    6.0       14.8198946662       17.7529096438       19.0336590384
H    1.0       15.5665735756       17.0250906513       18.6914130340
H    1.0       14.7473993836       18.5300478674       18.2610818364
O    8.0       13.5524578818       17.1142409251       19.2140380913
H    1.0       12.9386635586       17.8098797814       19.5392958282
C    6.0       18.3749859063       24.1320872314       21.1309957224
H    1.0       18.7587473076       25.1424357221       20.9423078608
O    8.0       19.4408884014       23.1716352009       21.2838359280
C    6.0       17.5148585731       24.1251111721       22.4196180308
H    1.0       16.6728128684       24.8105774263       22.2577279157
O    8.0       18.2716047246       24.5665706711       23.5549017290
H    1.0       17.7019242828       24.3562042768       24.3289079112
C    6.0       16.9384036336       22.7165692547       22.6869696823
H    1.0       17.7770794228       22.0496899738       22.9237602177
O    8.0       16.0293953893       22.7700078302       23.7933093671
H    1.0       15.7344851794       21.8402367977       23.9621268329
C    6.0       16.2158503039       22.1553388035       21.4373379068
H    1.0       15.2474015259       22.6602847239       21.3243700594
C    6.0       17.0371884064       22.3414700871       20.1321113321
H    1.0       17.8826959820       21.6440190905       20.1471616646
O    8.0       17.5300345213       23.7017843465       20.0428940070
C    6.0       16.2147721859       22.0559800816       18.8565029816
H    1.0       15.8465293617       21.0223345519       18.8897018301
H    1.0       16.8758810274       22.1424353015       17.9839499835
O    8.0       15.1179944313       22.9668161342       18.7391140124
H    1.0       15.5065403955       23.8681365721       18.7974267359
C    6.0       23.5307232730       22.6374539959       20.7790558750
H    1.0       24.5935494389       22.7462859560       20.5278890728
O    8.0       23.2186358268       21.2783397158       21.1466135275
C    6.0       23.1315265764       23.6071848288       21.9266222490
H    1.0       23.3193155601       24.6256638341       21.5635396783
O    8.0       23.9345721751       23.3848980741       23.0961882204
H    1.0       23.6646889667       22.5069251934       23.4645333286
C    6.0       21.6155301852       23.4954173894       22.2429704582
H    1.0       21.4250059376       22.5048548939       22.6800645838
O    8.0       21.2183382609       24.5233615550       23.1595247200
H    1.0       20.2468404364       24.4141807616       23.3086881568
C    6.0       20.7658045517       23.6316819346       20.9539855390
H    1.0       20.7709603096       24.6838166587       20.6401333511
C    6.0       21.2954453737       22.7564439262       19.7878221655
H    1.0       21.0921142962       21.7043331596       20.0225419486
O    8.0       22.7214196635       22.9661806662       19.6306147362
C    6.0       20.6262560549       23.0772668886       18.4330836734
H    1.0       19.5474120564       22.8922125556       18.5110578664
H    1.0       21.0222000364       22.3897201913       17.6738455835
O    8.0       20.8681422219       24.4339894609       18.0483435608
H    1.0       21.8441056845       24.5509800157       18.0643878251
C    6.0       24.9131826510       17.6970937388       22.3244544055
H    1.0       25.5524529316       16.8853887893       22.6942339857
O    8.0       23.7395327459       17.1872140834       21.6549782580
C    6.0       24.4764801949       18.6149420853       23.4960649239
H    1.0       25.3870044990       19.0563747947       23.9213747524
O    8.0       23.8174433896       17.8444608456       24.5147266360
H    1.0       23.0324116632       18.3595046021       24.8396134040
C    6.0       23.5916694882       19.7774842905       22.9780811708
H    1.0       22.6518779771       19.3553189224       22.6078667298
O    8.0       23.3301038902       20.7062681274       24.0384055319
H    1.0       22.6739274144       20.2662593831       24.6378384417
C    6.0       24.2615347732       20.5210231924       21.7942490239
H    1.0       25.0545824794       21.1684715839       22.1907472745
C    6.0       24.8554797413       19.5523304190       20.7320643033
H    1.0       24.0230837459       19.0959808728       20.1798487872
O    8.0       25.6355503137       18.5174322836       21.3817911422
C    6.0       25.7685493993       20.2498767476       19.6991502197
H    1.0       25.1669621574       20.9497361447       19.1042827622
H    1.0       26.1628568587       19.4919807932       19.0089813843
O    8.0       26.8428076958       20.9435298757       20.3403590994
H    1.0       27.3233298323       20.2728535025       20.8750064926
C    6.0       21.4859075671       13.7818586236       21.1139569352
H    1.0       21.0839100791       12.7797253376       20.9190343113
O    8.0       20.4386280019       14.7687697427       21.2276637059
C    6.0       22.3136356283       13.7739835763       22.4209015220
H    1.0       23.1533086022       13.0826775074       22.2713903777
O    8.0       21.5295111338       13.3254249212       23.5346044861
H    1.0       22.0888267066       13.5148071725       24.3215527155
C    6.0       22.8996315852       15.1734661884       22.7161853433
H    1.0       22.0648389163       15.8460750412       22.9597373589
O    8.0       23.7851421046       15.0691467545       23.8370668443
H    1.0       23.8799159251       15.9869606444       24.1941449528
C    6.0       23.6494600251       15.7573085988       21.4854359620
H    1.0       24.6435482135       15.2977305002       21.4062060708
C    6.0       22.8872451368       15.5378923811       20.1480773439
H    1.0       22.0508429693       16.2444411355       20.1106293012
O    8.0       22.3778751660       14.1840693044       20.0547843271
C    6.0       23.7693647550       15.7956463936       18.9067970234
H    1.0       24.1515080184       16.8245442947       18.9457901479
H    1.0       23.1459349003       15.7083973997       18.0069252230
O    8.0       24.8561844001       14.8672260263       18.8481158469
H    1.0       24.4516630235       13.9726346708       18.9036730092
C    6.0       20.3648848894       19.6537214249       25.2780509061
O    8.0       19.9138710197       20.2877715608       26.2111944689
O    8.0       21.4346175122       19.0721313414       25.3260824220
C    6.0       19.6225054003       19.7031984709       23.9901850078
H    1.0       18.7586318458       20.3609790937       23.9705713051
C    6.0       19.9795374199       19.0091987216       22.8862252203
H    1.0       20.8212141479       18.3191136018       22.9108235644
C    6.0       19.2738780349       19.1414623587       21.5559882667
H    1.0       18.8773189464       20.1583234082       21.4563503669
H    1.0       18.4183961260       18.4593738456       21.5194853977
C    6.0       20.2204206091       18.8413457036       20.3774792322
H    1.0       21.1177326401       19.4696679727       20.4515040905
H    1.0       20.5600392032       17.8019411859       20.4473324782
C    6.0       19.5323945809       19.0728654914       19.0168206170
H    1.0       20.2088462798       18.8113746398       18.1931831660
H    1.0       18.6272515250       18.4595364521       18.9232295248
H    1.0       19.2457711608       20.1248278312       18.8976581663
 $end
$$$$
! Edit this basic GAMESS input file as needed.
! Conformer was generated by a VeraChem VCPack run 
! and contains    143 atoms.
!
 $contrl scftyp=rhf runtyp=optimize nzvar=0
  maxit=200 icharg=0 $end
 $system mwords=50 $end
 $basis gbasis=pm3 $end
 $statpt nstep=200 $end
 $guess guess=huckel $end
 $data
VM2 Rank=2      G=488.033           E=305.433           -TS=182.599             
C1
C    6.0       16.1242077186       14.9553082871       21.1509322612
H    1.0       15.0375273134       14.8271658497       21.0720005038
O    8.0       16.4856898522       16.3193108685       21.4515632642
C    6.0       16.7032052923       14.0350623099       22.2529691161
H    1.0       16.4980264929       12.9983839458       21.9554999290
O    8.0       16.0962360098       14.2875901473       23.5263597808
H    1.0       16.6265797148       13.7554291151       24.1618811484
C    6.0       18.2357979549       14.2051984286       22.3590749409
H    1.0       18.4442706862       15.2145043551       22.7415384380
O    8.0       18.7531520693       13.2233378393       23.2646434728
H    1.0       19.7392501560       13.3020595446       23.2376415056
C    6.0       18.9256310966       14.0600139749       20.9783422699
H    1.0       18.9886291667       12.9932066651       20.7265909155
C    6.0       18.1879718287       14.8216689800       19.8394447309
H    1.0       18.3801761977       15.8956189054       19.9514131325
O    8.0       16.7601635703       14.5809874209       19.9106267117
C    6.0       18.6676834860       14.4099386877       18.4304939255
H    1.0       19.7381328466       14.6361829059       18.3358161412
H    1.0       18.1365899238       15.0175823054       17.6856506548
O    8.0       18.4337513790       13.0183080223       18.1944270580
H    1.0       17.4746226692       12.8722702102       18.3536166853
C    6.0       14.9487434726       20.1386869014       21.9451054220
H    1.0       14.2940022166       21.0073253154       22.0905977280
O    8.0       16.3049220999       20.5397871229       21.6659765519
C    6.0       14.9286712291       19.2576615768       23.2166944928
H    1.0       13.8877239093       18.9498210422       23.3802806618
O    8.0       15.3835876875       19.9926214667       24.3613259433
H    1.0       15.5249199051       19.3105761006       25.0555573725
C    6.0       15.7730928061       17.9762036650       23.0289399558
H    1.0       16.8317931733       18.2639893892       22.9853929223
O    8.0       15.5478809982       17.1058743939       24.1435734074
H    1.0       15.9079905314       16.2195632003       23.8933840260
C    6.0       15.4103189565       17.2414437324       21.7116901609
H    1.0       14.4481547121       16.7291753126       21.8454197872
C    6.0       15.3235374094       18.2051230437       20.4973838926
H    1.0       16.3380445515       18.5392103130       20.2448455769
O    8.0       14.4842617794       19.3348101819       20.8418208525
C    6.0       14.7077416084       17.5456679682       19.2463246869
H    1.0       13.6695620216       17.2592176394       19.4609522176
H    1.0       15.2654944609       16.6326347714       19.0013625044
O    8.0       14.7612448835       18.4531341472       18.1431099313
H    1.0       14.4376564151       19.3205861917       18.4788537803
C    6.0       18.4697559687       24.0243342249       20.8741656659
H    1.0       18.7599677472       25.0345621523       20.5592042315
O    8.0       19.6112811671       23.2348507119       21.2582300164
C    6.0       17.5055588606       24.0968124366       22.0872365039
H    1.0       16.6273044810       24.6772009730       21.7760702485
O    8.0       18.1289062094       24.7435100259       23.2063550956
H    1.0       17.5156173372       24.5831060932       23.9585758907
C    6.0       17.0237939908       22.6849369117       22.4984965443
H    1.0       17.8899023925       22.1319868088       22.8860668283
O    8.0       16.0213791280       22.7931140842       23.5172059577
H    1.0       15.8583972499       21.8739016400       23.8465236782
C    6.0       16.4612623089       21.9166057180       21.2755567877
H    1.0       15.5050762951       22.3648205241       20.9742593601
C    6.0       17.4281827439       21.9623097579       20.0646021653
H    1.0       18.3218964732       21.3743127871       20.3072956184
O    8.0       17.7926758227       23.3389673259       19.7990836947
C    6.0       16.8154191334       21.3849891197       18.7690307198
H    1.0       16.5984778326       20.3212553757       18.9202596166
H    1.0       17.5605343163       21.4539473251       17.9653882821
O    8.0       15.6213068473       22.0818719422       18.4006556569
H    1.0       15.8682700109       23.0306213108       18.3348532788
C    6.0       23.6843146365       22.8918816840       20.9981334355
H    1.0       24.7684837283       22.9779197536       20.8498731199
O    8.0       23.2892764395       21.5228205433       21.2289167240
C    6.0       23.2055757130       23.7882492442       22.1713152107
H    1.0       23.3957140704       24.8292198570       21.8802484531
O    8.0       23.9411403595       23.5083693570       23.3716972390
H    1.0       23.6459230366       22.6174338554       23.6847162224
C    6.0       21.6754000743       23.6273091575       22.3748746706
H    1.0       21.4806139321       22.6068661329       22.7340786752
O    8.0       21.1831553312       24.5801340788       23.3260674277
H    1.0       20.1994172885       24.4849391532       23.3372364889
C    6.0       20.9036536123       23.8312938609       21.0455524919
H    1.0       20.8328087843       24.9105248703       20.8561673089
C    6.0       21.5557383557       23.1315566525       19.8181838386
H    1.0       21.3450119591       22.0562612673       19.8778302767
O    8.0       22.9892229134       23.3474006882       19.8197195376
C    6.0       21.0142219535       23.6385369929       18.4629420266
H    1.0       19.9435900639       23.4095256950       18.3923616222
H    1.0       21.5175090553       23.0895876308       17.6558860527
O    8.0       21.2302725713       25.0452009829       18.3145248706
H    1.0       22.1966987073       25.1866615522       18.4265191399
C    6.0       24.6452623226       17.7842819997       22.3214036938
H    1.0       25.2128483152       16.9179454742       22.6827194369
O    8.0       23.4700137659       17.3802539572       21.5845606247
C    6.0       24.2035603076       18.6675961037       23.5157700396
H    1.0       25.1145002019       19.0077691248       24.0249027710
O    8.0       23.4179460089       17.8897917797       24.4371671641
H    1.0       22.7079009581       18.4740649026       24.8121898722
C    6.0       23.4472548929       19.9274747279       23.0182848158
H    1.0       22.4885554635       19.6121638035       22.5908301915
O    8.0       23.2261427695       20.8236427611       24.1147404543
H    1.0       22.5098911884       20.4210453429       24.6715243953
C    6.0       24.2328204248       20.6679010248       21.9033132102
H    1.0       25.0486016990       21.2393272825       22.3655544799
C    6.0       24.8054417547       19.7069238685       20.8248697535
H    1.0       23.9705202142       19.3396994024       20.2139191745
O    8.0       25.4728186377       18.5896713587       21.4572765610
C    6.0       25.8166618661       20.3827189717       19.8721314823
H    1.0       25.2997269000       21.1609939382       19.2952177767
H    1.0       26.1808351414       19.6336486763       19.1561846141
O    8.0       26.9116760852       20.9509761246       20.5964507723
H    1.0       27.3087322690       20.2160856016       21.1150256850
C    6.0       21.3693382740       13.8503611534       20.7959885499
H    1.0       21.0789056207       12.8380898957       20.4881992242
O    8.0       20.2249502576       14.6642563261       21.1192731781
C    6.0       22.2991306375       13.7979665194       22.0354801882
H    1.0       23.1997257054       13.2405412636       21.7467398957
O    8.0       21.6720352493       13.1338495819       23.1402669742
H    1.0       22.2713450416       13.3081936416       23.9012814864
C    6.0       22.7361537332       15.2212524997       22.4566495747
H    1.0       21.8416746669       15.7728416714       22.7783188190
O    8.0       23.6579625274       15.1212926714       23.5491072027
H    1.0       23.6456503918       16.0072386298       23.9904029706
C    6.0       23.3660993502       15.9798502662       21.2543074782
H    1.0       24.3512977810       15.5549334763       21.0207952980
C    6.0       22.4658224257       15.8875271388       19.9910941823
H    1.0       21.5615661574       16.4825193894       20.1668612367
O    8.0       22.0991316106       14.5072679065       19.7376681752
C    6.0       23.1478314496       16.4325877057       18.7170707472
H    1.0       23.4107507171       17.4867676727       18.8733942460
H    1.0       22.4279945693       16.3933124827       17.8887144069
O    8.0       24.3169583199       15.6737608855       18.3947560671
H    1.0       24.0281889172       14.7348795946       18.3551900754
C    6.0       20.0946037728       19.8531330587       24.9823442922
O    8.0       19.5070123014       20.6700668376       25.6627139582
O    8.0       21.1661929745       19.3669792081       25.3026071612
C    6.0       19.5093968784       19.5135823193       23.6575407700
H    1.0       18.6053509120       20.0507558615       23.3852143368
C    6.0       20.0500878164       18.6114674077       22.8089522747
H    1.0       20.9463466545       18.0564474561       23.0803573692
C    6.0       19.5033427357       18.3156659134       21.4336268025
H    1.0       18.4440340649       18.5924462557       21.3733539764
H    1.0       19.5610449684       17.2379722833       21.2522719226
C    6.0       20.2978962039       19.0731519550       20.3519392628
H    1.0       20.2212658439       20.1518709020       20.5364134326
H    1.0       21.3636982388       18.8211558021       20.4279243535
C    6.0       19.7869157756       18.7445899009       18.9350903408
H    1.0       19.9058614727       17.6764916063       18.7133933344
H    1.0       18.7239929704       18.9962134102       18.8333081054
H    1.0       20.3461809800       19.3129961877       18.1811306064
 $end
$$$$
! Edit this basic GAMESS input file as needed.
! Conformer was generated by a VeraChem VCPack run 
! and contains    143 atoms.
!
 $contrl scftyp=rhf runtyp=optimize nzvar=0
  maxit=200 icharg=0 $end
 $system mwords=50 $end
 $basis gbasis=pm3 $end
 $statpt nstep=200 $end
 $guess guess=huckel $end
 $data
VM2 Rank=3      G=488.056           E=305.365           -TS=182.691             
C1
C    6.0       16.1931899364       15.0354792087       20.9031696760
H    1.0       15.1124639061       14.9339940162       20.7403002721
O    8.0       16.5507306597       16.3726353537       21.3081985685
C    6.0       16.6845747971       14.0483249303       21.9906584562
H    1.0       16.4805229077       13.0322238821       21.6285970992
O    8.0       16.0038973422       14.2521619154       23.2360735260
H    1.0       16.4732064428       13.6673987423       23.8730994156
C    6.0       18.2106659859       14.1832879307       22.2023656602
H    1.0       18.4074481877       15.1658092041       22.6544481272
O    8.0       18.6569595814       13.1447348464       23.0822408150
H    1.0       19.6376375482       13.2474549648       23.1683220691
C    6.0       18.9885750000       14.1065845062       20.8632476417
H    1.0       19.0536458479       13.0565331522       20.5494620873
C    6.0       18.3386649359       14.9470748881       19.7273173061
H    1.0       18.5316016668       16.0090195827       19.9180160488
O    8.0       16.9080357408       14.7220312459       19.6885699369
C    6.0       18.9111725218       14.6188470161       18.3313384066
H    1.0       19.9869941779       14.8377275863       18.3267167527
H    1.0       18.4391597907       15.2794774417       17.5919436641
O    8.0       18.6834533119       13.2481148678       17.9905023237
H    1.0       17.7146641768       13.1036035777       18.0743949778
C    6.0       14.9998257721       20.1428137868       21.9422717239
H    1.0       14.3680570774       21.0191341372       22.1355482113
O    8.0       16.3389644367       20.5284870979       21.5672429473
C    6.0       15.0583470877       19.2532981301       23.2076236523
H    1.0       14.0310530966       18.9358171596       23.4289548064
O    8.0       15.5735129170       19.9833827561       24.3291531276
H    1.0       15.7757651075       19.2967793619       25.0035782608
C    6.0       15.9003924793       17.9804648100       22.9601435481
H    1.0       16.9504972805       18.2791200146       22.8547272531
O    8.0       15.7567568578       17.0964266013       24.0778232788
H    1.0       16.0401281818       16.2013036900       23.7693351731
C    6.0       15.4650677334       17.2484310884       21.6643952591
H    1.0       14.5411342952       16.6926337890       21.8734202922
C    6.0       15.2458744491       18.2117758000       20.4645383827
H    1.0       16.2298611151       18.5562998096       20.1213296384
O    8.0       14.4450057508       19.3472637838       20.8745980459
C    6.0       14.5371820566       17.5491010405       19.2623063434
H    1.0       15.1797938385       16.7555372181       18.8587965078
H    1.0       14.4104343295       18.2999317924       18.4707524123
O    8.0       13.2677686981       17.0106582922       19.6437187480
H    1.0       12.7537719294       17.7600539152       20.0189621175
C    6.0       18.5235489840       24.0182078944       20.8338624960
H    1.0       18.8181187274       25.0302454534       20.5290032477
O    8.0       19.6605735913       23.2248642946       21.2235221760
C    6.0       17.5440160323       24.0850422876       22.0345524347
H    1.0       16.6714575263       24.6698688495       21.7157655890
O    8.0       18.1546142844       24.7234616106       23.1653163421
H    1.0       17.5332255356       24.5562474195       23.9094165375
C    6.0       17.0523891801       22.6724575026       22.4312193936
H    1.0       17.9137274376       22.1158418039       22.8232945079
O    8.0       16.0442517874       22.7813508353       23.4439714864
H    1.0       15.9162216866       21.8692229350       23.8068304807
C    6.0       16.4992240097       21.9117107074       21.1972095555
H    1.0       15.5454415467       22.3590447619       20.8868064458
C    6.0       17.4811490331       21.9657063355       19.9979930977
H    1.0       18.3682353820       21.3686221728       20.2440785014
O    8.0       17.8580034913       23.3421633210       19.7468969659
C    6.0       16.8764477576       21.4094634667       18.6898188086
H    1.0       16.5874202674       20.3625388374       18.8421881696
H    1.0       17.6497651490       21.4264370737       17.9103148953
O    8.0       15.7420336972       22.1780522161       18.2791703333
H    1.0       16.0445350471       23.1130093730       18.2519794174
C    6.0       23.7400668340       22.8933941058       21.0211890576
H    1.0       24.8258703136       22.9818790258       20.8871409448
O    8.0       23.3467152526       21.5241219724       21.2549623775
C    6.0       23.2419229513       23.7984881603       22.1797143805
H    1.0       23.4297755969       24.8374437550       21.8800704134
O    8.0       23.9644371544       23.5366490870       23.3918827212
H    1.0       23.6600155639       22.6535069224       23.7176981422
C    6.0       21.7100611604       23.6314617415       22.3655690319
H    1.0       21.5148978038       22.6126777780       22.7290149421
O    8.0       21.2019955186       24.5886710056       23.3039287165
H    1.0       20.2189442203       24.4854264260       23.3081800156
C    6.0       20.9550489042       23.8229829881       21.0249068108
H    1.0       20.8845323123       24.9006275616       20.8266748323
C    6.0       21.6266200744       23.1178260181       19.8110156892
H    1.0       21.4194595048       22.0423497763       19.8741336460
O    8.0       23.0594797274       23.3385332156       19.8302121035
C    6.0       21.1007182016       23.6139336234       18.4457263253
H    1.0       20.0312463873       23.3828086403       18.3644129326
H    1.0       21.6143272546       23.0596954289       17.6488475828
O    8.0       21.3166200560       25.0197964885       18.2895495717
H    1.0       22.2813129616       25.1635032845       18.4130068061
C    6.0       24.6702850336       17.8013112233       22.4483191101
H    1.0       25.2285708488       16.9431866688       22.8427207259
O    8.0       23.5194829190       17.3786477213       21.6836016803
C    6.0       24.1984260375       18.7089928252       23.6133716512
H    1.0       25.0969066925       19.0585032782       24.1381146605
O    8.0       23.3894322881       17.9526013780       24.5317696036
H    1.0       22.6796390267       18.5487917775       24.8879293270
C    6.0       23.4570812206       19.9600288850       23.0746519523
H    1.0       22.5105521637       19.6384362195       22.6265304405
O    8.0       23.2073811242       20.8734914580       24.1505288695
H    1.0       22.4766627586       20.4807729627       24.6954462831
C    6.0       24.2720163334       20.6801259243       21.9679244988
H    1.0       25.0774533896       21.2583000516       22.4397497353
C    6.0       24.8684177736       19.6984579990       20.9213226945
H    1.0       24.0470819091       19.3228899977       20.2968021521
O    8.0       25.5186210481       18.5897810237       21.5881468045
C    6.0       25.9032748105       20.3572105649       19.9820814986
H    1.0       25.4023808145       21.1295665495       19.3834130691
H    1.0       26.2805213506       19.5974807108       19.2845242907
O    8.0       26.9840999375       20.9311874888       20.7229314994
H    1.0       27.3646903121       20.2029269499       21.2627669744
C    6.0       21.4335033018       13.8399827133       20.9036450723
H    1.0       21.1487702384       12.8193755058       20.6190972898
O    8.0       20.2834867341       14.6796642844       21.1231436803
C    6.0       22.2825466481       13.8246698245       22.1995939621
H    1.0       23.1891826759       13.2423389621       21.9896954370
O    8.0       21.5764449072       13.2140840506       23.2877907088
H    1.0       22.1288356888       13.4106795103       24.0781401937
C    6.0       22.7185768320       15.2566780702       22.5910180429
H    1.0       21.8180811287       15.8291813575       22.8537961524
O    8.0       23.5914531090       15.1785276661       23.7243426201
H    1.0       23.5788255023       16.0788779413       24.1355306574
C    6.0       23.4157773476       15.9684613636       21.3968643477
H    1.0       24.4068593371       15.5256708904       21.2307851629
C    6.0       22.5910649521       15.8381289040       20.0870943291
H    1.0       21.6857572894       16.4524667381       20.1720165348
O    8.0       22.2411170638       14.4465566831       19.8720929983
C    6.0       23.3851945120       16.3125619804       18.8524791093
H    1.0       24.2947507483       15.7056548057       18.7512628753
H    1.0       23.6932906862       17.3558575266       18.9998413686
O    8.0       22.5777603310       16.2031291940       17.6785980168
H    1.0       22.2360525127       15.2820402995       17.6723477277
C    6.0       20.0546322541       19.9067655343       24.9804891151
O    8.0       19.4344016031       20.7216158566       25.6338454786
O    8.0       21.1246525814       19.4424178147       25.3366798879
C    6.0       19.5167712076       19.5462007777       23.6412932044
H    1.0       18.6178021811       20.0711564121       23.3323419831