$$$$
! Edit this basic GAMESS input file as needed.
! Conformer was generated by a VeraChem VCPack run 
! and contains    142 atoms.
!
 $contrl scftyp=rhf runtyp=optimize nzvar=0
  maxit=200 icharg=0 $end
 $system mwords=50 $end
 $basis gbasis=pm3 $end
 $statpt nstep=200 $end
 $guess guess=huckel $end
 $data
VM2 Rank=1      G=481.869           E=296.405           -TS=185.464             
C1
C    6.0       16.3438760738       15.2804190377       20.7374402397
H    1.0       15.2927227860       15.1484270786       20.4507152291
O    8.0       16.6393698071       16.6626979788       21.0199089645
C    6.0       16.6946875031       14.4036919767       21.9718727990
H    1.0       16.5169535995       13.3592169272       21.6858160123
O    8.0       15.8487732714       14.7255190722       23.0873433603
H    1.0       16.0858988081       15.6430850724       23.3728780745
C    6.0       18.1970417548       14.5424098677       22.3373410709
H    1.0       18.3642276879       15.5626824696       22.7058765682
O    8.0       18.5636111527       13.5907266287       23.3447370624
H    1.0       19.5249355975       13.7293652436       23.5312052572
C    6.0       19.1003646882       14.3195402860       21.0982180136
H    1.0       19.1092358306       13.2477225177       20.8601899392
C    6.0       18.6188150967       15.1053008697       19.8500798045
H    1.0       18.8095627691       16.1744071831       20.0122100869
O    8.0       17.2015758031       14.8738602023       19.6511379619
C    6.0       19.3415569951       14.6858533726       18.5507082746
H    1.0       20.4161513753       14.8803226289       18.6565222093
H    1.0       18.9752027640       15.3125151498       17.7267239007
O    8.0       19.1160725653       13.3031920205       18.2593604310
H    1.0       18.1402900297       13.1839884405       18.2477953247
C    6.0       14.8778842798       20.3283487844       21.7258511062
H    1.0       14.2227328198       21.1762004680       21.9624454554
O    8.0       16.1099576720       20.7597294958       21.1097482088
C    6.0       15.2098528218       19.5243557693       23.0092775658
H    1.0       14.2655570274       19.1172500457       23.3928952368
O    8.0       15.7833792995       20.3829419741       24.0093853082
H    1.0       16.6690106745       20.0043731060       24.2594500056
C    6.0       16.1357804948       18.3292671352       22.6675268292
H    1.0       17.0979071576       18.7348503509       22.3334144785
O    8.0       16.3384625755       17.5087648949       23.8246136720
H    1.0       17.0049271540       18.0010334109       24.3722205481
C    6.0       15.5535809910       17.4714110979       21.5152101602
H    1.0       14.7350248318       16.8589345998       21.9156381367
C    6.0       15.0378257173       18.3301765513       20.3246040852
H    1.0       15.9087184783       18.7313554587       19.7892196951
O    8.0       14.2207500515       19.4236359838       20.8130176270
C    6.0       14.1941271026       17.5340826009       19.3039707217
H    1.0       14.8321601310       16.7831248060       18.8197356903
H    1.0       13.8491340446       18.2214491830       18.5199123663
O    8.0       13.0773166039       16.9007799219       19.9349173727
H    1.0       12.5614257915       17.6180573965       20.3661043501
C    6.0       18.4440011793       24.0994420493       20.5157645036
H    1.0       18.8950879218       25.0631382622       20.2466965025
O    8.0       19.4540562958       23.1267492368       20.8611996377
C    6.0       17.4243775560       24.2648700528       21.6750980119
H    1.0       16.6187234303       24.9100748920       21.3021087246
O    8.0       18.0265780640       24.9010141752       22.8126361824
H    1.0       18.6096600283       24.2223827545       23.2355267366
C    6.0       16.7941072946       22.8963000042       22.0487363502
H    1.0       17.5808345767       22.2681159311       22.4892847589
O    8.0       15.7382640150       23.0893729506       22.9976773007
H    1.0       15.6639218201       22.2382749918       23.4947215757
C    6.0       16.2370088190       22.1609972025       20.7954354387
H    1.0       15.2690277268       22.5958600213       20.5134386065
C    6.0       17.1918860552       22.2281240988       19.5714487620
H    1.0       18.0234763650       21.5336486228       19.7470689171
O    8.0       17.7065504833       23.5719488367       19.3949479962
C    6.0       16.5058917627       21.8091747271       18.2523997803
H    1.0       16.1210597098       20.7861016054       18.3578324941
H    1.0       17.2582841415       21.7977749047       17.4525791013
O    8.0       15.4414315698       22.7052583800       17.9189013252
H    1.0       15.8336141981       23.6069458346       17.9278033563
C    6.0       23.3327068794       22.6697328142       22.2459405204
H    1.0       24.3367982736       22.8038873254       22.6671936567
O    8.0       23.1957212093       21.3880772016       21.5965653908
C    6.0       22.2597876157       22.7880424817       23.3592037219
H    1.0       22.3380043637       23.7990604493       23.7791086482
O    8.0       22.5106186243       21.8344261085       24.4049527151
H    1.0       21.6670098043       21.3295649640       24.5576829876
C    6.0       20.8355944033       22.6366943536       22.7652353203
H    1.0       20.7211320755       21.6111061148       22.3929295288
O    8.0       19.8569730636       22.8949895688       23.7795707129
H    1.0       19.7950087898       22.0537945712       24.3067848993
C    6.0       20.6185557681       23.5983546036       21.5685557598
H    1.0       20.4828468390       24.6176247598       21.9526895763
C    6.0       21.8026015218       23.5715204820       20.5619212659
H    1.0       21.7752731459       22.6149414140       20.0241192648
O    8.0       23.0622433205       23.6969357901       21.2680595503
C    6.0       21.7379645797       24.6995412773       19.5082072419
H    1.0       20.8439068520       24.5573651952       18.8867292518
H    1.0       22.6111539270       24.6155029373       18.8474828236
O    8.0       21.7074465588       25.9880737690       20.1289271300
H    1.0       22.5089481208       26.0391427107       20.6959951965
C    6.0       25.1737128182       17.7250555313       21.4220097456
H    1.0       25.9021271986       16.9168647602       21.2801493723
O    8.0       23.8433314760       17.2189727224       21.6450029333
C    6.0       25.5627393284       18.5978858150       22.6401041855
H    1.0       26.5549068453       19.0212822289       22.4365545566
O    8.0       25.6199408576       17.8173147045       23.8426624652
H    1.0       25.7260601340       18.4798330701       24.5619224216
C    6.0       24.5711083695       19.7725992652       22.8229751325
H    1.0       23.6002674361       19.3523542177       23.1193553269
O    8.0       25.0649409926       20.6280904958       23.8602876660
H    1.0       24.2748170505       21.1159869975       24.2020792110
C    6.0       24.3756207231       20.5640852354       21.4964057296
H    1.0       25.2667655451       21.1730294592       21.2946243819
C    6.0       24.1325842919       19.6229329557       20.2859676088
H    1.0       23.1323178967       19.1783862295       20.3746185206
O    8.0       25.1468388480       18.5885031521       20.2664106094
C    6.0       24.2106463098       20.3769034380       18.9420768052
H    1.0       25.2084679549       20.8224768123       18.8336943060
H    1.0       23.4774354844       21.1942550177       18.9433365670
O    8.0       23.9423254001       19.4816385566       17.8610219106
H    1.0       24.5605140328       18.7270974760       17.9776229705
C    6.0       21.4737236315       13.8323256121       21.4280176358
H    1.0       21.0868907029       12.8092947440       21.3416768754
O    8.0       20.4095899351       14.8059618433       21.4533420771
C    6.0       22.3043229522       13.9695461795       22.7286612761
H    1.0       23.1305039937       13.2493600006       22.6666228654
O    8.0       21.5097980025       13.6769068781       23.8866635333
H    1.0       22.0696598294       13.9523043383       24.6470374265
C    6.0       22.9161773377       15.3835662665       22.8520554093
H    1.0       22.0964360368       16.0945261337       23.0159341939
O    8.0       23.8219126123       15.4194764493       23.9618472828
H    1.0       24.2939318438       16.2878889403       23.9142276557
C    6.0       23.6652147289       15.7939521063       21.5604160809
H    1.0       24.6227604898       15.2578889225       21.5254698300
C    6.0       22.8486688607       15.4952758206       20.2727365123
H    1.0       22.0110477886       16.2032367717       20.2176928268
O    8.0       22.3421480258       14.1382689959       20.3166692023
C    6.0       23.6742342517       15.6421448100       18.9758109385
H    1.0       24.0018604155       16.6842749730       18.8756865116
H    1.0       23.0257851516       15.4202311053       18.1177897942
O    8.0       24.8053912859       14.7662474800       18.9822000026
H    1.0       24.4485250020       13.8609299984       19.1219109636
C    6.0       19.4750129060       19.3918189263       24.3812854705
O    8.0       20.1872796563       20.3109927453       24.7390836808
O    8.0       18.2900617113       19.3187112987       24.6468525766
C    6.0       20.1012356949       18.2569687826       23.5734835494
H    1.0       19.3529483968       17.4686860064       23.4397216153
H    1.0       20.9015629181       17.8320392258       24.1896656982
C    6.0       20.6812353885       18.6743226582       22.1963369864
H    1.0       21.4192667257       19.4711727967       22.3414227726
H    1.0       21.2211476385       17.8223986158       21.7692035271
C    6.0       19.6071637539       19.1294313655       21.1869477512
H    1.0       19.0503052085       19.9867714274       21.5899316325
H    1.0       18.8852747589       18.3182899199       21.0318492728
C    6.0       20.2355433114       19.5120669051       19.8324668741
H    1.0       19.4596437189       19.7896316712       19.1087932315
H    1.0       20.8049137434       18.6731614815       19.4120048313
H    1.0       20.9155676280       20.3653092398       19.9468154331
 $end
$$$$
! Edit this basic GAMESS input file as needed.
! Conformer was generated by a VeraChem VCPack run 
! and contains    142 atoms.
!
 $contrl scftyp=rhf runtyp=optimize nzvar=0
  maxit=200 icharg=0 $end
 $system mwords=50 $end
 $basis gbasis=pm3 $end
 $statpt nstep=200 $end
 $guess guess=huckel $end
 $data
VM2 Rank=2      G=481.874           E=296.598           -TS=185.276             
C1
C    6.0       16.3142580760       15.2901966688       20.7658160111
H    1.0       15.2604960686       15.1574020457       20.4892063433
O    8.0       16.6098528842       16.6715490867       21.0524010274
C    6.0       16.6796625555       14.4082556488       21.9922065911
H    1.0       16.5017409093       13.3647437999       21.7027721066
O    8.0       15.8441179947       14.7224200867       23.1176157112
H    1.0       16.0814291875       15.6393865532       23.4049276812
C    6.0       18.1853250066       14.5492178292       22.3430361612
H    1.0       18.3538384153       15.5682552191       22.7144620267
O    8.0       18.5647216106       13.5938230072       23.3421606277
H    1.0       19.5283552177       13.7317915967       23.5167863324
C    6.0       19.0763739253       14.3341872788       21.0937124213
H    1.0       19.0846682595       13.2634920591       20.8506860573
C    6.0       18.5803667078       15.1249080559       19.8542954344
H    1.0       18.7701788446       16.1937159833       20.0195469688
O    8.0       17.1617098559       14.8908588457       19.6688514091
C    6.0       19.2904444749       14.7136151154       18.5453820720
H    1.0       20.3654176756       14.9114166163       18.6403794857
H    1.0       18.9130680722       15.3426639960       17.7282038042
O    8.0       19.0665203524       13.3314639511       18.2503535460
H    1.0       18.0910706791       13.2091045795       18.2480554137
C    6.0       14.8474154166       20.3305558470       21.7932670179
H    1.0       14.1928997075       21.1758319841       22.0405892111
O    8.0       16.0726662457       20.7670830546       21.1681986897
C    6.0       15.1924767277       19.5197996514       23.0689428606
H    1.0       14.2525885494       19.1083832566       23.4587408234
O    8.0       15.7731549756       20.3742629800       24.0684353562
H    1.0       16.6611288486       19.9954365463       24.3097129827
C    6.0       16.1181543470       18.3289840260       22.7123132709
H    1.0       17.0763807516       18.7385212679       22.3717145148
O    8.0       16.3329741507       17.5027383788       23.8630959223
H    1.0       17.0035539560       17.9932550104       24.4072578225
C    6.0       15.5272601585       17.4763926069       21.5606084055
H    1.0       14.7127327823       16.8608688351       21.9645908136
C    6.0       15.0011052494       18.3407853844       20.3785350901
H    1.0       15.8676963553       18.7455176068       19.8385192581
O    8.0       14.1857148553       19.4310340216       20.8784995960
C    6.0       14.1511810634       17.5482082208       19.3603179607
H    1.0       14.7865487470       16.7997124247       18.8687917395
H    1.0       13.8004036520       18.2382026663       18.5812195469
O    8.0       13.0391495140       16.9115430835       19.9962801730
H    1.0       12.5261677636       17.6263721174       20.4349224637
C    6.0       18.3930719148       24.1149629063       20.5671917869
H    1.0       18.8372018752       25.0812180772       20.2957449777
O    8.0       19.4106043293       23.1435965712       20.8945539591
C    6.0       17.3885876743       24.2717055864       21.7405215123
H    1.0       16.5768290624       24.9169133873       21.3810292546
O    8.0       18.0021366384       24.9037321916       22.8741221780
H    1.0       18.5917103174       24.2244756227       23.2868475839
C    6.0       16.7663609161       22.8991498047       22.1130909982
H    1.0       17.5581580996       22.2710801831       22.5446486474
O    8.0       15.7162952140       23.0850530134       23.0696317287
H    1.0       15.6491484701       22.2323929676       23.5651490938
C    6.0       16.2010975355       22.1688542918       20.8604520205
H    1.0       15.2331141288       22.6074547923       20.5838303223
C    6.0       17.1449556349       22.2378983037       19.6296702744
H    1.0       17.9798218463       21.5426451983       19.7872570080
O    8.0       17.6389740573       23.5896497127       19.4558963672
C    6.0       16.4202638656       21.8341050267       18.3288438905
H    1.0       15.6183144944       22.5554588385       18.1225361308
H    1.0       15.9566816064       20.8477312125       18.4636423394
O    8.0       17.3485510799       21.7928784160       17.2435748305
H    1.0       17.8506584580       22.6374131773       17.2845930367
C    6.0       23.3033636267       22.6852037282       22.2424691586
H    1.0       24.3105955959       22.8205904491       22.6557590795
O    8.0       23.1650886653       21.4060381961       21.5885418896
C    6.0       22.2397631531       22.7952651580       23.3655308951
H    1.0       22.3196742622       23.8041909080       23.7901263822
O    8.0       22.5013880117       21.8367067610       24.4041356287
H    1.0       21.6588720450       21.3326256738       24.5651040102
C    6.0       20.8106025395       22.6444599454       22.7835577871
H    1.0       20.6943988400       21.6206301073       22.4069613031
O    8.0       19.8414872458       22.8958881417       23.8086486157
H    1.0       19.7859599254       22.0522700638       24.3327265346
C    6.0       20.5811763097       23.6121573371       21.5938472897
H    1.0       20.4485395872       24.6295273750       21.9840066662
C    6.0       21.7558119423       23.5906112775       20.5762552308
H    1.0       21.7250460785       22.6357860264       20.0354484038
O    8.0       23.0216225033       23.7158826747       21.2713834381
C    6.0       21.6793920166       24.7221430738       19.5271301296
H    1.0       20.7794703413       24.5808264256       18.9140066931
H    1.0       22.5461791160       24.6415459999       18.8576108606
O    8.0       21.6531754042       26.0085085934       20.1525460618
H    1.0       22.4597503781       26.0584358533       20.7124686692
C    6.0       25.1501416418       17.7489794577       21.3831087544
H    1.0       25.8787816439       16.9425213809       21.2328517162
O    8.0       23.8220118763       17.2400160738       21.6129373873
C    6.0       25.5461577347       18.6167084649       22.6024856023
H    1.0       26.5361919522       19.0427242731       22.3940731187
O    8.0       25.6129481998       17.8304003573       23.8008389772
H    1.0       25.7225066183       18.4896008757       24.5226122410
C    6.0       24.5538560507       19.7888478797       22.7977350594
H    1.0       23.5861562653       19.3654838595       23.0997672310
O    8.0       25.0540875182       20.6407609661       23.8349086807
H    1.0       24.2655688968       21.1252817574       24.1851134398
C    6.0       24.3466444700       20.5858993270       21.4762211861
H    1.0       25.2345978696       21.1984229058       21.2712369483
C    6.0       24.0981180350       19.6500664405       20.2627476428
H    1.0       23.0993096137       19.2029914557       20.3552662180
O    8.0       25.1144253640       18.6178830538       20.2319002088
C    6.0       24.1665173423       20.4108580112       18.9221683187
H    1.0       25.1612627980       20.8628407989       18.8121004018
H    1.0       23.4284531668       21.2238271195       18.9302064443
O    8.0       23.8995864771       19.5191523061       17.8378341705
H    1.0       24.5219291834       18.7672327032       17.9493588531
C    6.0       21.4548285961       13.8509880883       21.3908615312
H    1.0       21.0699381457       12.8277074842       21.2990209763
O    8.0       20.3882360820       14.8210843914       21.4383867973
C    6.0       22.3001957185       13.9778679319       22.6830842174
H    1.0       23.1269509189       13.2599306101       22.6048061342
O    8.0       21.5195700748       13.6728511792       23.8473499416
H    1.0       22.0877120394       13.9419088984       24.6038301149
C    6.0       22.9108446740       15.3918914006       22.8127678143
H    1.0       22.0917594596       16.0996352713       22.9932533174
O    8.0       23.8297039473       15.4191918848       23.9119875719
H    1.0       24.2970740624       16.2903583683       23.8688226185
C    6.0       23.6437498010       15.8158236880       21.5162489141
H    1.0       24.6011183182       15.2808592138       21.4640279161
C    6.0       22.8115713036       15.5289770257       20.2359663984
H    1.0       21.9716591828       16.2353990738       20.1989491951
O    8.0       22.3090601521       14.1702971608       20.2723176279
C    6.0       23.6201778080       15.6912376349       18.9302387921
H    1.0       23.9442027899       16.7350845631       18.8368835514
H    1.0       22.9612858886       15.4768671552       18.0782812448
O    8.0       24.7531907065       14.8178837355       18.9129833790
H    1.0       24.4000681954       13.9103984870       19.0480124365
C    6.0       19.4703564574       19.3901123734       24.4066815317
O    8.0       20.1815745384       20.3114749914       24.7610459428
O    8.0       18.2875539024       19.3118037401       24.6804083733
C    6.0       20.0950969450       18.2599104102       23.5912663060
H    1.0       19.3488938935       17.4690920541       23.4606287293
H    1.0       20.9017540730       17.8362292237       24.2000408429
C    6.0       20.6629678158       18.6839625128       22.2111990342
H    1.0       21.3991763187       19.4830629980       22.3530953911
H    1.0       21.2024582922       17.8355915500       21.7767293290
C    6.0       19.5794084113       19.1387201835       21.2119768663
H    1.0       19.0227963800       19.9929130390       21.6218458319
H    1.0       18.8589133648       18.3258471086       21.0595302379
C    6.0       20.1956754256       19.5283020596       19.8539370424
H    1.0       19.4128704075       19.8079535014       19.1378216400
H    1.0       20.7628027028       18.6924593431       19.4246250455
H    1.0       20.8746111993       20.3826536153       19.9657667203
 $end
$$$$
! Edit this basic GAMESS input file as needed.
! Conformer was generated by a VeraChem VCPack run 
! and contains    142 atoms.
!
 $contrl scftyp=rhf runtyp=optimize nzvar=0
  maxit=200 icharg=0 $end
 $system mwords=50 $end
 $basis gbasis=pm3 $end
 $statpt nstep=200 $end
 $guess guess=huckel $end
 $data
VM2 Rank=3      G=481.899           E=297.224           -TS=184.676             
C1
C    6.0       16.3466123953       15.2397033293       20.6855473673
H    1.0       15.2971931847       15.1166906796       20.3887278676
O    8.0       16.6558541816       16.6242550699       20.9441766217
C    6.0       16.6760705202       14.3696165461       21.9320538415
H    1.0       16.4956859832       13.3247883936       21.6489899839
O    8.0       15.8173574630       14.6991728171       23.0347470167
H    1.0       16.0799574066       15.6039749478       23.3384968902
C    6.0       18.1746976725       14.4981755270       22.3177009644
H    1.0       18.3456119859       15.5181540950       22.6866105400
O    8.0       18.5223237198       13.5487655169       23.3340436158
H    1.0       19.4773032123       13.6965217795       23.5442587976
C    6.0       19.0934881592       14.2610241057       21.0922570842
H    1.0       19.1104910734       13.1863240030       20.8680971656
C    6.0       18.6284279915       15.0304785821       19.8278689966
H    1.0       18.8244402544       16.0997381573       19.9794611195
O    8.0       17.2115969273       14.8067393719       19.6154816854
C    6.0       19.3634887323       14.5907138323       18.5424156299
H    1.0       20.4380745223       14.7789118439       18.6587081626
H    1.0       19.0111723899       15.2101007886       17.7068817439
O    8.0       19.1316093821       13.2062977598       18.2650278930
H    1.0       18.1551709500       13.0935100384       18.2454542892
C    6.0       14.9584168665       20.3092152693       21.7516354711
H    1.0       14.3107584162       21.1520403550       22.0235984036
O    8.0       16.1726026092       20.7540636639       21.1105119052
C    6.0       15.3315251450       19.4848226462       23.0108155611
H    1.0       14.3992914421       19.0862799647       23.4310345972
O    8.0       15.9649012325       20.3229424915       23.9932023409
H    1.0       16.8218926955       19.8878328076       24.2515413096
C    6.0       16.2262362568       18.2828426945       22.6180774278
H    1.0       17.1797319511       18.6850141896       22.2539730818
O    8.0       16.4502932495       17.4389379800       23.7544032914
H    1.0       17.1715914772       17.8879011517       24.2708151475
C    6.0       15.5978590041       17.4481965462       21.4745402230
H    1.0       14.7767960128       16.8477671525       21.8874963999
C    6.0       15.0701155111       18.3341247266       20.3112075340
H    1.0       15.9343120941       18.7382520702       19.7676218171
O    8.0       14.2731876405       19.4239748112       20.8393135194
C    6.0       14.1997941704       17.5643043994       19.2930052117
H    1.0       14.8200950634       16.8112445062       18.7892633813
H    1.0       13.8524306334       18.2672933655       18.5240051346
O    8.0       13.0842244496       16.9374853577       19.9326173935
H    1.0       12.5893104107       17.6548850238       20.3875328192
C    6.0       18.4449683505       24.1436456188       20.5335267638
H    1.0       18.8812210994       25.1144869156       20.2655482055
O    8.0       19.4666878520       23.1898520956       20.8973597174
C    6.0       17.4082209590       24.2909898966       21.6790806277
H    1.0       16.5833679030       24.9006246314       21.2885681215
O    8.0       17.9758516770       24.9685824650       22.8100675998
H    1.0       18.5884261239       24.3253548774       23.2454983998
C    6.0       16.8260168524       22.9023755913       22.0595060423
H    1.0       17.6369757305       22.2975210912       22.4888834416
O    8.0       15.7769782558       23.0551381140       23.0229161275
H    1.0       15.7460532810       22.2010265248       23.5199156055
C    6.0       16.2809693654       22.1587540593       20.8045013277
H    1.0       15.3072543302       22.5798618533       20.5214260840
C    6.0       17.2384507844       22.2442481117       19.5832553890
H    1.0       18.0824248467       21.5662983774       19.7629949086
O    8.0       17.7296854256       23.5972881877       19.4071255287
C    6.0       16.5660558718       21.8107660780       18.2619444746
H    1.0       16.2017427789       20.7801579312       18.3666551424
H    1.0       17.3215020941       21.8138899112       17.4649553159
O    8.0       15.4850352526       22.6850542883       17.9238766699
H    1.0       15.8591217538       23.5943519079       17.9319011037
C    6.0       23.3256901455       22.6952395574       22.2660742191
H    1.0       24.3388745516       22.8037342692       22.6726373042
O    8.0       23.1371094545       21.4054644291       21.6450711746
C    6.0       22.2751550155       22.8659030566       23.3927095297
H    1.0       22.3998256675       23.8746171465       23.8069296111
O    8.0       22.5000696292       21.9009862128       24.4354437717
H    1.0       21.6216926211       21.4871975972       24.6487393531
C    6.0       20.8374704809       22.7642328817       22.8231665498
H    1.0       20.6761122558       21.7295682634       22.4999212533
O    8.0       19.8887742359       23.1021719090       23.8415728441
H    1.0       19.7773611168       22.2756526584       24.3835886696
C    6.0       20.6304940962       23.6836222263       21.5905995795
H    1.0       20.4981066738       24.7175752578       21.9352443030
C    6.0       21.8084218695       23.6093445084       20.5797734088
H    1.0       21.7512511921       22.6441115299       20.0592653850
O    8.0       23.0759506461       23.7130197219       21.2738985641
C    6.0       21.7644382972       24.7197275528       19.5065086628
H    1.0       20.8591081137       24.5932503050       18.8980477915
H    1.0       22.6269580594       24.5983085753       18.8376278430
O    8.0       21.7791775921       26.0192068083       20.1045015685
H    1.0       22.5868248510       26.0551084557       20.6640564897
C    6.0       25.1015329557       17.7395500365       21.3665457861
H    1.0       25.8288100499       16.9371290190       21.1897987249
O    8.0       23.7830357693       17.2212810096       21.6352605649
C    6.0       25.5337217212       18.6065207176       22.5753253877
H    1.0       26.5174370064       19.0332544704       22.3402746483
O    8.0       25.6316386572       17.8195870771       23.7710990327
H    1.0       25.7633365292       18.4779310096       24.4900034437
C    6.0       24.5451359549       19.7761413039       22.7975784544
H    1.0       23.5871019607       19.3450464596       23.1096985438
O    8.0       25.0506110466       20.6251985955       23.8347232847
H    1.0       24.2666157263       21.1190193684       24.1823746531
C    6.0       24.3065141870       20.5769978857       21.4855448160
H    1.0       25.1929735913       21.1821305513       21.2535454502
C    6.0       24.0123139672       19.6424194369       20.2813472151
H    1.0       23.0158943468       19.1970086762       20.4066852722
O    8.0       25.0254266540       18.6087636607       20.2172209676
C    6.0       24.0406697618       20.4027519960       18.9390391866
H    1.0       25.0354545588       20.8446609203       18.7937647378
H    1.0       23.3119923555       21.2231246890       18.9724422125
O    8.0       23.7265142534       19.5139427558       17.8650926113
H    1.0       24.3410538361       18.7531147886       17.9579541562
C    6.0       21.4669483250       13.7943781930       21.4688198404
H    1.0       21.0900862857       12.7662010643       21.4015398731
O    8.0       20.3949282852       14.7582078639       21.4586434840
C    6.0       22.2791611079       13.9716835332       22.7761961091
H    1.0       23.1141715140       13.2599276217       22.7411533767
O    8.0       21.4722890395       13.6953470553       23.9298823957
H    1.0       22.0177002326       13.9950236435       24.6914436502
C    6.0       22.8738723745       15.3956926498       22.8753841410
H    1.0       22.0459600194       16.1005092648       23.0199957080
O    8.0       23.7711208445       15.4645837558       23.9905260094
H    1.0       24.2532633365       16.3250188374       23.9133157253
C    6.0       23.6288559059       15.7909526900       21.5823840630
H    1.0       24.5959774658       15.2711804011       21.5733142139
C    6.0       22.8360558037       15.4467571249       20.2908938927
H    1.0       21.9905122683       16.1420368066       20.2048061634
O    8.0       22.3469039694       14.0843210072       20.3623067351
C    6.0       23.6785041627       15.5702840965       19.0022311142
H    1.0       23.9878568660       16.6150078416       18.8743903846
H    1.0       23.0474787276       15.3097272205       18.1420691075
O    8.0       24.8258898640       14.7171711398       19.0518241713
H    1.0       24.4841423187       13.8089610064       19.2095485731
C    6.0       19.5926412414       19.4888055240       24.4057796865
O    8.0       18.4485652079       19.1300666689       24.6109229867
O    8.0       20.0527368333       20.5346981858       24.8247571445
C    6.0       20.5224874958       18.5683400056       23.6164535684
H    1.0       20.6548747059       17.6592170749       24.2135820523
H    1.0       21.5017448374       19.0509224394       23.5553265006
C    6.0       20.0456600754       18.1819518725       22.1900191279