$$$$
! Edit this basic GAMESS input file as needed.
! Conformer was generated by a VeraChem VCPack run 
! and contains    143 atoms.
!
 $contrl scftyp=rhf runtyp=optimize nzvar=0
  maxit=200 icharg=0 $end
 $system mwords=50 $end
 $basis gbasis=pm3 $end
 $statpt nstep=200 $end
 $guess guess=huckel $end
 $data
VM2 Rank=1      G=490.265           E=304.899           -TS=185.366             
C1
C    6.0       16.4009570392       15.3077540690       20.3908063437
H    1.0       15.3882837727       15.1972878138       19.9817258076
O    8.0       16.5968164147       16.6091568931       20.9784045449
C    6.0       16.6699532095       14.2372533888       21.4805633250
H    1.0       16.5447370802       13.2528003637       21.0120666161
O    8.0       15.7159382316       14.3738209364       22.5473842201
H    1.0       15.7511526598       15.3135111985       22.8563946366
C    6.0       18.1297903458       14.3302470650       22.0048375560
H    1.0       18.2245799244       15.2633350946       22.5761436902
O    8.0       18.4329913190       13.2135616205       22.8504829126
H    1.0       19.2911759037       13.4239081153       23.2948576516
C    6.0       19.1519663347       14.3698875466       20.8365636833
H    1.0       19.2433239360       13.3680284874       20.3962283662
C    6.0       18.7497765269       15.3662811843       19.7198865906
H    1.0       18.8729431153       16.3861176140       20.1036002163
O    8.0       17.3723591809       15.1402259030       19.3396729549
C    6.0       19.6108119676       15.2283292904       18.4445808419
H    1.0       20.6643914419       15.3967536422       18.7000392899
H    1.0       19.3153635612       16.0123323354       17.7346670172
O    8.0       19.4492014813       13.9360607278       17.8524945312
H    1.0       18.4809381038       13.8113976252       17.7362613423
C    6.0       14.6944000807       20.2562589629       21.4302418410
H    1.0       13.9978226046       21.1023359441       21.4924394234
O    8.0       16.0691172093       20.6955132614       21.4115040451
C    6.0       14.4877695511       19.2674782659       22.6072367203
H    1.0       13.4828171037       18.8398390815       22.4959545260
O    8.0       14.5639917460       19.9210346769       23.8815570729
H    1.0       15.4411571439       20.3790705792       23.9249612942
C    6.0       15.5063825653       18.1053986117       22.5093573640
H    1.0       16.5187438546       18.5150879105       22.6331713542
O    8.0       15.2378855197       17.1479060683       23.5394121629
H    1.0       15.1066526758       17.6814945638       24.3544817041
C    6.0       15.4153987999       17.4201305982       21.1223073823
H    1.0       14.5021034223       16.8104971023       21.1070714796
C    6.0       15.3903727354       18.4375229384       19.9429375003
H    1.0       16.3963750657       18.8587475307       19.8260735242
O    8.0       14.4522043477       19.5079189187       20.2198582693
C    6.0       14.9896834111       17.8068213310       18.5903979614
H    1.0       15.7559443722       17.0800304413       18.2909031875
H    1.0       14.9734674726       18.5945403046       17.8253687593
O    8.0       13.7107346670       17.1709184672       18.6745851700
H    1.0       13.0767054238       17.8654268931       18.9610002242
C    6.0       18.5690432275       23.9493196380       21.8592755042
H    1.0       19.0326753443       24.9255122004       22.0473661742
O    8.0       19.4478263519       23.0751049522       21.1162210126
C    6.0       18.1837267998       23.2629931878       23.1958942054
H    1.0       17.4404974245       23.9029158284       23.6886052116
O    8.0       19.3322816383       23.1472490350       24.0529568402
H    1.0       19.3236303894       22.2408430984       24.4605173448
C    6.0       17.5135078811       21.8909938794       22.9257823207
H    1.0       18.2645109516       21.2233424499       22.4899251480
O    8.0       17.0218185028       21.3378848373       24.1512945580
H    1.0       17.8181055621       20.9854439133       24.6299922807
C    6.0       16.3430112625       22.0183825966       21.9153766375
H    1.0       15.4765590734       22.4455704677       22.4374892829
C    6.0       16.7025063475       22.8928782496       20.6812119715
H    1.0       17.3833055944       22.3181170073       20.0392204647
O    8.0       17.3525828866       24.1179436330       21.1005833479
C    6.0       15.4719780176       23.2779523698       19.8300442675
H    1.0       15.0210791355       22.3647017911       19.4192183449
H    1.0       15.8073392704       23.8879459744       18.9805952524
O    8.0       14.5095036757       23.9960137504       20.6079263962
H    1.0       14.9816637579       24.7756568727       20.9766390266
C    6.0       23.4760107057       22.6127951258       20.2807898091
H    1.0       24.5131104332       22.6786785087       19.9276934600
O    8.0       23.1707630405       21.2824017364       20.7574601585
C    6.0       23.1941216443       23.6715196514       21.3807867612
H    1.0       23.3145569564       24.6569045830       20.9127825151
O    8.0       24.1333651856       23.5670518033       22.4613588667
H    1.0       23.8676080781       22.7697965976       22.9836021122
C    6.0       21.7263855198       23.5656531686       21.8760399551
H    1.0       21.6065471143       22.5996925518       22.3854582794
O    8.0       21.4475293811       24.6333612924       22.7891429918
H    1.0       20.7606187001       24.2779001505       23.4049003600
C    6.0       20.7203439086       23.6096069561       20.6874726425
H    1.0       20.6139544062       24.6439700809       20.3350930605
C    6.0       21.1636693342       22.7154278992       19.4957971247
H    1.0       20.9877059207       21.6698816371       19.7733146241
O    8.0       22.5699192979       22.9057586600       19.1977398988
C    6.0       20.3653077013       22.9950871689       18.2036362290
H    1.0       19.2969111174       22.8348843297       18.4007125274
H    1.0       20.6713150654       22.2703375842       17.4374282192
O    8.0       20.5881292601       24.3304826437       17.7407686390
H    1.0       21.5633909025       24.4330476148       17.6688789227
C    6.0       24.8676854241       17.8512923809       22.3896078992
H    1.0       25.5289997285       17.1081552045       22.8526163252
O    8.0       23.6652500625       17.2453080059       21.8715626006
C    6.0       24.4826572061       18.9430541927       23.4213047915
H    1.0       25.4112464636       19.4380936138       23.7333546621
O    8.0       23.8665320266       18.3499713545       24.5749674947
H    1.0       23.0860553124       18.9142433613       24.8202061990
C    6.0       23.5751460877       20.0190048612       22.7718137030
H    1.0       22.6160920171       19.5506945493       22.5126413474
O    8.0       23.3662400707       21.0936500515       23.6967880076
H    1.0       22.6604316798       20.7820196807       24.3234260285
C    6.0       24.2086046350       20.5745612274       21.4691782241
H    1.0       25.0433708326       21.2348022664       21.7375825574
C    6.0       24.7244101562       19.4438521333       20.5358050531
H    1.0       23.8561149866       18.9216763017       20.1128386647
O    8.0       25.5365701343       18.5089920970       21.2911668721
C    6.0       25.5763574103       19.9630119343       19.3562699440
H    1.0       24.9479483267       20.5908909018       18.7107146084
H    1.0       25.9070584544       19.1050932472       18.7556804335
O    8.0       26.7056109231       20.7082951723       19.8208277464
H    1.0       27.2016133487       20.1088576976       20.4218348486
C    6.0       21.4102064724       13.8242615926       21.6000800970
H    1.0       20.9952014763       12.8110517419       21.5263700066
O    8.0       20.4033454160       14.8327519056       21.3775160150
C    6.0       22.0354371212       14.0395840769       22.9977389058
H    1.0       22.8588339840       13.3208960204       23.1013906196
O    8.0       21.0768721249       13.8079034410       24.0394477840
H    1.0       21.5154147709       14.1401290875       24.8548284008
C    6.0       22.6292939965       15.4610708602       23.1262474666
H    1.0       21.7970653524       16.1784558414       23.1210598326
O    8.0       23.3438802454       15.5456422327       24.3641077376
H    1.0       23.5515610290       16.5029996263       24.5013570957
C    6.0       23.5691084526       15.8077474608       21.9384578493
H    1.0       24.5486475152       15.3368461246       22.0942249336
C    6.0       23.0056427573       15.3577610185       20.5619521614
H    1.0       22.2114545414       16.0566029259       20.2771536308
O    8.0       22.4633854265       14.0149716308       20.6335437405
C    6.0       24.0702122739       15.3795109326       19.4433828602
H    1.0       24.4790876833       16.3953317480       19.3574297866
H    1.0       23.5841206799       15.1365992371       18.4890377621
O    8.0       25.1197173222       14.4464584770       19.7165999145
H    1.0       24.6800313646       13.5794459727       19.8647848273
C    6.0       20.2720346767       19.6079419033       24.8412631240
O    8.0       21.4603866305       19.6677198892       25.0933303780
O    8.0       19.4958248189       20.5218232704       25.0471014911
C    6.0       19.7235249987       18.3132430222       24.2484431944
H    1.0       18.7920351276       18.0869012337       24.7795372873
H    1.0       20.4142335783       17.4989299414       24.4936619273
C    6.0       19.4510542579       18.3312800442       22.7509970959
H    1.0       18.8611944260       17.4901233917       22.3935234462
C    6.0       19.8336592067       19.2789598686       21.8879396465
H    1.0       20.4115485140       20.1411225375       22.2178958078
C    6.0       19.4605771274       19.2787063676       20.4227376039
H    1.0       18.5901164541       18.6334650703       20.2580162683
H    1.0       19.1570803884       20.2883297120       20.1180016271
C    6.0       20.6271923767       18.7904111574       19.5437484369
H    1.0       20.9093503366       17.7689820604       19.8189989357
H    1.0       20.3467451600       18.7971276144       18.4830470630
H    1.0       21.5090776528       19.4289547896       19.6707050752
 $end
