$$$$
! Edit this basic GAMESS input file as needed.
! Conformer was generated by a VeraChem VCPack run 
! and contains    151 atoms.
!
 $contrl scftyp=rhf runtyp=optimize nzvar=0
  maxit=200 icharg=0 $end
 $system mwords=50 $end
 $basis gbasis=pm3 $end
 $statpt nstep=200 $end
 $guess guess=huckel $end
 $data
VM2 Rank=1      G=504.819           E=307.411           -TS=197.408             
C1
C    6.0       16.3352320382       15.3015150756       20.7539236860
H    1.0       15.2894023685       15.1664915858       20.4495693051
O    8.0       16.5582317306       16.6071373635       21.3199029887
C    6.0       16.7373387944       14.2336683002       21.8058492949
H    1.0       16.5694907819       13.2485546917       21.3515151916
O    8.0       15.9440147843       14.3462941333       22.9956755472
H    1.0       16.3637710171       13.7260878960       23.6334345810
C    6.0       18.2378129073       14.3395998148       22.1699357059
H    1.0       18.3944618946       15.2856583471       22.7069597342
O    8.0       18.6073231105       13.2352136871       23.0054753620
H    1.0       19.5645905473       13.3539200509       23.2274360543
C    6.0       19.1215160037       14.3554440380       20.8991521069
H    1.0       19.1250055087       13.3549949755       20.4465784993
C    6.0       18.6130174025       15.3806101918       19.8534645263
H    1.0       18.7711127870       16.3909190595       20.2511326114
O    8.0       17.2029121355       15.1570953585       19.6097756761
C    6.0       19.3383595098       15.2753396393       18.4934425439
H    1.0       20.4097991411       15.4586672910       18.6395288585
H    1.0       18.9590151609       16.0634325963       17.8296065296
O    8.0       19.1348644036       13.9887380002       17.9020872876
H    1.0       18.1616089769       13.8541594119       17.8754025888
C    6.0       14.6644744390       20.2746301098       21.7904127202
H    1.0       13.9346526417       21.0876589593       21.8891606093
O    8.0       16.0152276085       20.7717230033       21.7258946262
C    6.0       14.5433836700       19.3055430750       22.9941936022
H    1.0       13.5211571395       18.9053605947       22.9873976031
O    8.0       14.7737510801       19.9810286094       24.2377812680
H    1.0       14.8421629519       19.2583168433       24.9017949352
C    6.0       15.5176027430       18.1132913584       22.8554146800
H    1.0       16.5424504114       18.4904684256       22.9696104059
O    8.0       15.2343727901       17.1476840452       23.8753686287
H    1.0       15.6674201273       16.3047684855       23.5934800985
C    6.0       15.3923293431       17.4401266953       21.4672914208
H    1.0       14.4659837939       16.8503228732       21.4567573614
C    6.0       15.3748472254       18.4677242446       20.2996298749
H    1.0       16.3800268510       18.8985694024       20.1976046660
O    8.0       14.4155971118       19.5166239476       20.5879412224
C    6.0       14.9885453001       17.8514783628       18.9365823583
H    1.0       15.7587003770       17.1299834541       18.6353130386
H    1.0       14.9776239823       18.6481721442       18.1807040488
O    8.0       13.7100121929       17.2125227063       19.0026879212
H    1.0       13.0755448456       17.8999855331       19.3045066881
C    6.0       18.3583522469       24.1550073983       21.3795749340
H    1.0       18.7609192807       25.1699600118       21.2714243176
O    8.0       19.3986095139       23.1566931488       21.3354844539
C    6.0       17.5973571505       24.0278739540       22.7222942339
H    1.0       16.7648993671       24.7430212724       22.6957539413
O    8.0       18.4425675321       24.3336688972       23.8392873639
H    1.0       17.9255630112       24.0462051664       24.6253738485
C    6.0       17.0011522067       22.6119078832       22.8825861436
H    1.0       17.8328343279       21.9038616725       22.9958165996
O    8.0       16.1659904681       22.5763066323       24.0461187862
H    1.0       15.7857473103       21.6637149683       24.0956833656
C    6.0       16.1785807899       22.1994515472       21.6360154893
H    1.0       15.2175955391       22.7303789100       21.6528583381
C    6.0       16.9045253231       22.5100256598       20.2971737709
H    1.0       17.7271691521       21.7978971767       20.1600278170
O    8.0       17.4150207752       23.8672296295       20.3254975897
C    6.0       15.9640162019       22.3936333762       19.0803030559
H    1.0       15.1537837639       23.1287214810       19.1756484849
H    1.0       15.5103223109       21.3942463353       19.0662361784
O    8.0       16.6983090140       22.6097599751       17.8736144584
H    1.0       17.1847106713       23.4555184043       17.9976142779
C    6.0       23.4558759688       22.6068174393       20.6744845860
H    1.0       24.5075513536       22.6947067786       20.3734750717
O    8.0       23.1468641197       21.2689535216       21.1137874333
C    6.0       23.1157079211       23.6210177799       21.8014204959
H    1.0       23.3023672733       24.6243360904       21.3979103078
O    8.0       23.9606344993       23.4200337252       22.9457270314
H    1.0       23.7023318423       22.5504969893       23.3417767301
C    6.0       21.6135099140       23.5396226568       22.1851460121
H    1.0       21.4393390917       22.5730735993       22.6783133088
O    8.0       21.2671156478       24.6112957270       23.0712253032
H    1.0       20.3335154583       24.4528407578       23.3566107202
C    6.0       20.7030135965       23.6151768080       20.9315206942
H    1.0       20.6805423267       24.6502667235       20.5659881559
C    6.0       21.1826216080       22.6922244397       19.7812958275
H    1.0       20.9954028778       21.6522160202       20.0712983446
O    8.0       22.5985180599       22.8975599388       19.5509947147
C    6.0       20.4451594093       22.9436807213       18.4479142450
H    1.0       19.3751070670       22.7470297718       18.5895979469
H    1.0       20.8132933230       22.2267560787       17.7018178029
O    8.0       20.6451136129       24.2847371218       17.9911820358
H    1.0       21.6183469612       24.4151037648       17.9495148552
C    6.0       24.9199408652       17.7154019927       22.2808729981
H    1.0       25.5859936317       16.9185443915       22.6353308361
O    8.0       23.7109382716       17.1823110846       21.7014837496
C    6.0       24.5408234613       18.6602098452       23.4501953598
H    1.0       25.4667836874       19.1259633007       23.8113772221
O    8.0       23.9522515180       17.9046855619       24.5204791071
H    1.0       23.2645728609       18.4750961469       24.9518033430
C    6.0       23.6074093854       19.7942316116       22.9508495971
H    1.0       22.6543965595       19.3462595345       22.6451268067
O    8.0       23.3811783844       20.7502018700       23.9957784061
H    1.0       22.7196920505       20.3384709912       24.6121395349
C    6.0       24.2147550661       20.5138466295       21.7178186702
H    1.0       25.0325130122       21.1621783827       22.0588213284
C    6.0       24.7439871794       19.5211420964       20.6440114665
H    1.0       23.8801030056       19.0440642219       20.1621489360
O    8.0       25.5746288620       18.5124931982       21.2715473732
C    6.0       25.5806018015       20.1920467494       19.5319005248
H    1.0       24.9341746374       20.8660304418       18.9543921402
H    1.0       25.9375881098       19.4150388685       18.8426848381
O    8.0       26.6864786222       20.9157255271       20.0793148009
H    1.0       27.2081706647       20.2669838596       20.6021215308
C    6.0       21.4783012328       13.7753992661       21.1989208691
H    1.0       21.0709195057       12.7732295759       21.0156318808
O    8.0       20.4362719140       14.7670257337       21.3161330049
C    6.0       22.3120825423       13.7753326667       22.5019867630
H    1.0       23.1483924356       13.0788581982       22.3580805015
O    8.0       21.5238050388       13.3436808696       23.6200650618
H    1.0       22.0831465648       13.5352310555       24.4061509321
C    6.0       22.9010759446       15.1771407069       22.7792428436
H    1.0       22.0651652261       15.8460255893       23.0214441608
O    8.0       23.7943457825       15.0967195871       23.8956110161
H    1.0       23.9230966798       16.0260122485       24.2103714943
C    6.0       23.6373266408       15.7532536081       21.5375194119
H    1.0       24.6343581875       15.3009765613       21.4533526985
C    6.0       22.8652800733       15.5247543212       20.2087330280
H    1.0       22.0251586559       16.2285856746       20.1777238416
O    8.0       22.3618750219       14.1684300196       20.1299075631
C    6.0       23.7351192599       15.7786482092       18.9578727487
H    1.0       24.1121360544       16.8097471696       18.9862228627
H    1.0       23.1045450156       15.6819676244       18.0638932048
O    8.0       24.8261412281       14.8556091047       18.8962239289
H    1.0       24.4270415276       13.9593702318       18.9614793728
C    6.0       20.6068743550       18.4739576644       25.2537204031
O    8.0       21.6179625580       19.1290637797       25.4336114266
O    8.0       19.9234090563       18.0216531607       26.1505635847
C    6.0       20.1695280289       18.2210484688       23.8142398504
H    1.0       19.4196807735       17.4210053130       23.8122718693
H    1.0       21.0398853804       17.8509744683       23.2651947745
C    6.0       19.5962736613       19.4914499920       23.1383770470
H    1.0       18.7331925583       19.8380536873       23.7224906018
H    1.0       20.3406833281       20.2985240503       23.1783728359
C    6.0       19.1549343855       19.2734557870       21.6742904734
H    1.0       18.6839974216       20.1985027911       21.3260769777
H    1.0       18.3886409982       18.4922201295       21.6270428316
C    6.0       20.3154018858       18.9114816378       20.7244230434
H    1.0       21.1609533813       19.5811726325       20.9129134157
H    1.0       20.6646987288       17.8937997423       20.9370354378
C    6.0       19.8960533879       19.0264418926       19.2431940243
H    1.0       19.4976295583       20.0313233255       19.0508839560
H    1.0       19.0812246119       18.3233507823       19.0305069159
C    6.0       21.0831929306       18.7621006850       18.2954902292
H    1.0       21.8883676033       19.4803088078       18.5042506730
H    1.0       21.4906780892       17.7612528047       18.4811989905
C    6.0       20.6646290436       18.8766300711       16.8169929084
H    1.0       20.2777054848       19.8797131624       16.5954596255
H    1.0       21.5214535298       18.6900500008       16.1569883273
H    1.0       19.8823767492       18.1466953214       16.5722609273
 $end
