$$$$
! Edit this basic GAMESS input file as needed.
! Conformer was generated by a VeraChem VCPack run 
! and contains    152 atoms.
!
 $contrl scftyp=rhf runtyp=optimize nzvar=0
  maxit=200 icharg=0 $end
 $system mwords=50 $end
 $basis gbasis=pm3 $end
 $statpt nstep=200 $end
 $guess guess=huckel $end
 $data
VM2 Rank=1      G=594.768           E=390.478           -TS=204.290             
C1
C    6.0       16.2610618945       15.3170882368       20.6721574012
H    1.0       15.2243399721       15.1230048827       20.3677526839
O    8.0       16.4324287221       16.6608030559       21.1582210243
C    6.0       16.7081910150       14.3394639050       21.7883443148
H    1.0       16.6278132186       13.3233273807       21.3806890938
O    8.0       15.8665982588       14.4451540662       22.9479153365
H    1.0       15.8440822115       15.3991368678       23.2147615266
C    6.0       18.1891100730       14.5826781858       22.1727418041
H    1.0       18.2600943511       15.5716995606       22.6459308991
O    8.0       18.5865158447       13.5705739924       23.1045140225
H    1.0       17.8101904864       13.4570141553       23.6994333324
C    6.0       19.1051598544       14.5821130662       20.9138766852
H    1.0       19.2059750861       13.5588917097       20.5279944969
C    6.0       18.5356535835       15.4842969377       19.7875138238
H    1.0       18.6181226833       16.5331508280       20.0978106856
O    8.0       17.1498656622       15.1364978520       19.5497480893
C    6.0       19.2974801482       15.3148287356       18.4566392258
H    1.0       19.1351339001       14.2993644504       18.0713450455
H    1.0       20.3735936972       15.4354613780       18.6360678753
O    8.0       18.8523040066       16.2901442175       17.5117382603
H    1.0       17.8768696389       16.1922957205       17.4570238647
C    6.0       14.5759146604       20.2240505537       21.8233401623
H    1.0       13.9325525190       21.0946297192       22.0052065150
O    8.0       15.9236889252       20.6094761163       21.4859035610
C    6.0       14.6265789206       19.3214985985       23.0796054574
H    1.0       13.6124949207       18.9391227132       23.2545084645
O    8.0       15.0588573910       20.0630781475       24.2314170230
H    1.0       15.4448445429       20.9128198498       23.9036216907
C    6.0       15.5607053655       18.1145863007       22.8364995618
H    1.0       16.5840298509       18.5007179782       22.7757464004
O    8.0       15.4662445712       17.2044061353       23.9361313587
H    1.0       15.5150353610       17.7723644856       24.7375492528
C    6.0       15.2348155602       17.3759927434       21.5115790308
H    1.0       14.3890216757       16.6989501070       21.6916761375
C    6.0       14.9168273251       18.3269370720       20.3196279522
H    1.0       15.8670380003       18.7317208504       19.9464810533
O    8.0       14.0611186771       19.4185217725       20.7437250300
C    6.0       14.2246131993       17.6195818233       19.1335016184
H    1.0       14.9103780090       16.8741545829       18.7098787186
H    1.0       14.0250869207       18.3608618968       18.3481115049
O    8.0       13.0066360122       16.9925719735       19.5447684714
H    1.0       12.4472085124       17.7027173218       19.9311962788
C    6.0       18.3844405275       23.8549777052       20.7865737177
H    1.0       18.8135033844       24.8235831227       20.5020108485
O    8.0       19.4193874267       22.8832985786       21.0563615181
C    6.0       17.4379921792       24.0088777675       22.0101782024
H    1.0       16.6332099164       24.6909199514       21.7062924473
O    8.0       18.1078879351       24.5684356017       23.1491082939
H    1.0       18.7760359728       23.8989896979       23.4433696638
C    6.0       16.7929707993       22.6521359891       22.3764048441
H    1.0       17.5887157598       21.9858404461       22.7368560083
O    8.0       15.8203575993       22.8438410510       23.4083481565
H    1.0       16.2379099146       23.4682417118       24.0434851153
C    6.0       16.1315545656       21.9899168657       21.1412152366
H    1.0       15.1913188079       22.5027835408       20.8980597771
C    6.0       17.0519185497       22.0059723207       19.8930945092
H    1.0       17.8609220099       21.2890852275       20.0599214099
O    8.0       17.5858596225       23.3398381658       19.7025492060
C    6.0       16.3072236281       21.5972762555       18.6034598228
H    1.0       15.6974874154       22.4424027218       18.2568629414
H    1.0       15.6234291291       20.7693147231       18.8296751442
O    8.0       17.2330846797       21.1900980795       17.5892211220
H    1.0       16.7063498019       20.9717209455       16.7898128996
C    6.0       23.4219219258       22.5672186152       22.1858376829
H    1.0       24.4353003156       22.7622875586       22.5598655251
O    8.0       23.3406718459       21.3000706850       21.5070234230
C    6.0       22.4021091160       22.5852946366       23.3549342884
H    1.0       22.4653876823       23.5765989661       23.8223536099
O    8.0       22.6977737786       21.5812910646       24.3394171004
H    1.0       23.6235359297       21.2761185434       24.1799828395
C    6.0       20.9609720887       22.3897645125       22.8332298856
H    1.0       20.8859058368       21.3655909337       22.4487191470
O    8.0       20.0473409930       22.5706336667       23.9190710826
H    1.0       20.4355470673       22.0464145514       24.6555652128
C    6.0       20.6303149258       23.3653346048       21.6752038678
H    1.0       20.5099879430       24.3773899873       22.0836895034
C    6.0       21.7456312710       23.3757598882       20.5948089688
H    1.0       21.7332559115       22.4132994796       20.0663253062
O    8.0       23.0273406056       23.5858262056       21.2420120360
C    6.0       21.5636058389       24.4968806418       19.5512268012
H    1.0       21.5908237373       25.4723883660       20.0549575294
H    1.0       20.5824380233       24.3910349275       19.0703178869
O    8.0       22.5930372407       24.4114630725       18.5644807071
H    1.0       23.4423108321       24.3976673979       19.0589776559
C    6.0       25.2956851839       17.7601041474       20.9958250766
H    1.0       25.9417534926       16.8991696978       20.7804716670
O    8.0       23.9120882136       17.3687022452       21.1371880915
C    6.0       25.7633734352       18.5186426166       22.2644833624
H    1.0       26.7513042590       18.9415234260       22.0396864245
O    8.0       25.8836307795       17.6527307716       23.4017568806
H    1.0       24.9729347499       17.3247738550       23.6110106279
C    6.0       24.8016189551       19.6927639872       22.5668701036
H    1.0       23.8297867484       19.2680120391       22.8553772742
O    8.0       25.3304508749       20.4656093500       23.6499334149
H    1.0       25.6861057190       19.8039057090       24.2859300618
C    6.0       24.5814369951       20.5941364836       21.3188262867
H    1.0       25.4280032522       21.2850506824       21.2083738724
C    6.0       24.4120224690       19.8032902478       19.9926326610
H    1.0       23.3930803588       19.4018705263       19.9581482232
O    8.0       25.3692091984       18.7173902982       19.9196585190
C    6.0       24.6173926829       20.7058332931       18.7573518824
H    1.0       25.6496365926       21.0804943672       18.7492759848
H    1.0       23.9473928771       21.5735981081       18.8284559260
O    8.0       24.3414124328       19.9742781573       17.5613979228
H    1.0       24.8895480689       19.1600692885       17.6075239475
C    6.0       21.3310268070       14.2330895343       21.8805715490
H    1.0       20.8646023941       13.2726238018       22.1328390285
O    8.0       20.3914919295       15.1355400426       21.2598675914
C    6.0       21.8987577166       14.9067775484       23.1551885635
H    1.0       22.6458776337       14.2223227364       23.5777381800
O    8.0       20.8701973103       15.1431656327       24.1305116676
H    1.0       20.1253698490       14.5302052791       23.9193253430
C    6.0       22.6043653749       16.2360997134       22.8028811263
H    1.0       21.8419143977       16.9408738683       22.4515138601
O    8.0       23.2256203924       16.7518648654       23.9825713079
H    1.0       22.5399089381       16.6561722066       24.6819334886
C    6.0       23.6426582288       16.0567263971       21.6656941408
H    1.0       24.5444308686       15.5816725259       22.0744140994
C    6.0       23.0844347362       15.2183057558       20.4814360266
H    1.0       22.3561838664       15.8345597656       19.9378957284
O    8.0       22.4317444674       14.0215503018       20.9712390420
C    6.0       24.1735562338       14.7863881827       19.4745508310
H    1.0       24.6058231375       15.6823113699       19.0092966823
H    1.0       23.7032755261       14.1976966626       18.6755460671
O    8.0       25.1980587695       14.0224609664       20.1172942641
H    1.0       24.7482679705       13.2543518303       20.5348111039
N    7.0       19.9944756060       20.9042309145       16.6302013688
H    1.0       19.1742740839       21.1083099279       17.2358462568
H    1.0       19.6492124821       21.0613462037       15.6717351295
C    6.0       20.4085793027       19.4478132432       16.7881253759
H    1.0       21.1977403871       19.2468672422       16.0593928976
H    1.0       19.5431455675       18.8321767685       16.5279135605
C    6.0       20.9013173997       19.0479338061       18.1947658403
H    1.0       21.1178536758       17.9717407125       18.1959000899
H    1.0       21.8457229641       19.5585552126       18.4041955820
C    6.0       19.8744571495       19.3766404738       19.2985394643
H    1.0       18.9053573237       18.9294540605       19.0348670801
H    1.0       19.7289520643       20.4631337217       19.3420484258
C    6.0       20.3186318937       18.8753058520       20.6899096498
H    1.0       20.5435011795       17.8020840944       20.6411659456
H    1.0       21.2458611742       19.3807425620       20.9921722691
C    6.0       19.2181098608       19.1277062932       21.7421942576
H    1.0       19.0035709229       20.2021527969       21.8068582176
H    1.0       18.2898682334       18.6442664099       21.4139905089
C    6.0       19.6068775514       18.6018344093       23.1389882540
H    1.0       19.7136215140       17.5100799916       23.1326853822
H    1.0       18.8349068476       18.8562506645       23.8765906811
H    1.0       20.5547754294       19.0394486570       23.4797103652
C    6.0       21.1537094761       21.8491298502       16.9293839883
H    1.0       21.9878347016       21.6164749629       16.2637153000
H    1.0       20.8293576964       22.8801028928       16.7710715009
H    1.0       21.4667142266       21.7208555878       17.9671236358
 $end
