$$$$
! Edit this basic GAMESS input file as needed.
! Conformer was generated by a VeraChem VCPack run 
! and contains    148 atoms.
!
 $contrl scftyp=rhf runtyp=optimize nzvar=0
  maxit=200 icharg=0 $end
 $system mwords=50 $end
 $basis gbasis=pm3 $end
 $statpt nstep=200 $end
 $guess guess=huckel $end
 $data
VM2 Rank=1      G=497.028           E=304.940           -TS=192.088             
C1
C    6.0       16.3395750659       15.1620685515       21.0179911342
H    1.0       15.2847555967       14.9669129352       20.7880219919
O    8.0       16.5623852612       16.5425368757       21.3701476490
C    6.0       16.7965683549       14.2699349781       22.2016634225
H    1.0       16.6212346859       13.2268716028       21.9078078177
O    8.0       16.0488121390       14.5531161059       23.3924264237
H    1.0       16.5153014192       14.0558821416       24.1015366452
C    6.0       18.3094327421       14.4337494152       22.4800417282
H    1.0       18.4829087448       15.4479698930       22.8657200451
O    8.0       18.7221890939       13.4593357133       23.4466210277
H    1.0       19.7024993190       13.5513123010       23.5468963953
C    6.0       19.1331726528       14.2610607584       21.1815134869
H    1.0       19.1034797155       13.2057208110       20.8795673881
C    6.0       18.5782299508       15.1286903077       20.0228343630
H    1.0       18.7400776686       16.1889213647       20.2568253554
O    8.0       17.1646793720       14.8447549348       19.8763152304
C    6.0       19.2559930167       14.8077833793       18.6737115901
H    1.0       19.1401623389       13.7380353461       18.4549009485
H    1.0       20.3296598687       15.0198463271       18.7477225526
O    8.0       18.6778317186       15.5942316915       17.6307302040
H    1.0       17.7080974825       15.4526861261       17.6942205071
C    6.0       14.7037944633       20.2762680321       21.2812624291
H    1.0       13.9834442585       21.0959530651       21.1652640825
O    8.0       16.0302912444       20.7648803587       21.5512555669
C    6.0       14.2866600314       19.3475465530       22.4507612497
H    1.0       13.2867513906       18.9585436534       22.2185689048
O    8.0       14.2386952037       20.0611335959       23.6945236583
H    1.0       14.1133585100       19.3623004153       24.3754342842
C    6.0       15.2487056698       18.1418954124       22.5778852176
H    1.0       16.2290493048       18.5137964252       22.9069902817
O    8.0       14.7256578918       17.2180530439       23.5403599155
H    1.0       15.2937158518       16.4087096381       23.4959002433
C    6.0       15.4323170429       17.4247322635       21.2184465094
H    1.0       14.5088497063       16.8768103535       20.9896621601
C    6.0       15.7370619431       18.4184234974       20.0641769506
H    1.0       16.7409745956       18.8357981543       20.2110841109
O    8.0       14.7549031370       19.4833341572       20.0756970838
C    6.0       15.6992768628       17.7672927840       18.6647274223
H    1.0       16.4894407626       17.0097024382       18.6027618556
H    1.0       15.9248935907       18.5347524731       17.9124141958
O    8.0       14.4230400304       17.1754960602       18.4038855160
H    1.0       13.7605945040       17.8915093050       18.5243213606
C    6.0       18.4104944380       24.1161339276       21.5394999563
H    1.0       18.8481110038       25.1224517136       21.5399591049
O    8.0       19.4134272504       23.0963485418       21.3522053678
C    6.0       17.6708643050       23.8611866327       22.8758965428
H    1.0       16.8577214769       24.5953334805       22.9462763011
O    8.0       18.5467213383       24.0210683536       23.9998635233
H    1.0       18.0433859997       23.6509315747       24.7596992500
C    6.0       17.0398963447       22.4517072956       22.8910897382
H    1.0       17.8548180777       21.7181383114       22.9115774555
O    8.0       16.2199078616       22.3021242410       24.0565571438
H    1.0       15.6986847287       21.4710614997       23.9294929401
C    6.0       16.1862426522       22.1933667192       21.6254042710
H    1.0       15.2243696847       22.7090725210       21.7461890053
C    6.0       16.8754796040       22.6588882169       20.3110105536
H    1.0       17.6742818573       21.9452455697       20.0703560271
O    8.0       17.4394138466       23.9841681467       20.4804907288
C    6.0       15.9163348084       22.7135577702       19.1013399068
H    1.0       15.5463960824       21.7024973871       18.8879508257
H    1.0       16.4801182330       23.0471804601       18.2198670950
O    8.0       14.8203330698       23.5981941191       19.3524738757
H    1.0       15.2177132280       24.4702133919       19.5721867627
C    6.0       23.4659727794       22.5668394559       20.6372007985
H    1.0       24.5124222245       22.6609745370       20.3201335200
O    8.0       23.1711314621       21.2274664292       21.0808794992
C    6.0       23.1361268122       23.5800364508       21.7682222130
H    1.0       23.3045499452       24.5845847776       21.3597757739
O    8.0       24.0045118986       23.3902905346       22.8965886437
H    1.0       23.7659322396       22.5170729770       23.2969258074
C    6.0       21.6416828010       23.4822705191       22.1775579864
H    1.0       21.4852336761       22.5098474432       22.6648704320
O    8.0       21.2989902248       24.5413528942       23.0802704267
H    1.0       20.3987647566       24.3309662978       23.4315332776
C    6.0       20.7126671880       23.5583331394       20.9369578881
H    1.0       20.6802555244       24.5930401793       20.5706385747
C    6.0       21.1789336342       22.6395016388       19.7778226324
H    1.0       20.9975830466       21.5966785417       20.0651843109
O    8.0       22.5906475634       22.8507392904       19.5268130085
C    6.0       20.4253192955       22.9014108304       18.4552524789
H    1.0       19.3512998836       22.7431964240       18.6153264647
H    1.0       20.7585348721       22.1666817506       17.7100181395
O    8.0       20.6622493814       24.2309069646       17.9829175599
H    1.0       21.6392317636       24.3346829734       17.9474278457
C    6.0       24.9841540647       17.6830383923       22.2094746818
H    1.0       25.6615269123       16.8885418457       22.5473855538
O    8.0       23.7610566558       17.1454395375       21.6639826971
C    6.0       24.6374340399       18.6327128370       23.3853319808
H    1.0       25.5725660322       19.1037561725       23.7146470874
O    8.0       24.0854921237       17.8838188573       24.4792462152
H    1.0       23.4055339278       18.4532200086       24.9243460345
C    6.0       23.6860017096       19.7609735285       22.9085387010
H    1.0       22.7261388376       19.3093768016       22.6298898616
O    8.0       23.4875535875       20.7206542890       23.9556518190
H    1.0       22.8463471627       20.3094174007       24.5935631409
C    6.0       24.2573365565       20.4778240412       21.6576733787
H    1.0       25.0815654753       21.1300961470       21.9749620433
C    6.0       24.7609636809       19.4838401359       20.5727118345
H    1.0       23.8860044963       19.0039337534       20.1138964133
O    8.0       25.6098801454       18.4780787408       21.1803488623
C    6.0       25.5675879052       20.1552536731       19.4389194074
H    1.0       24.9056252492       20.8286300053       18.8785610029
H    1.0       25.9071145880       19.3784224289       18.7407457277
O    8.0       26.6867607246       20.8801409922       19.9570673437
H    1.0       27.2223934072       20.2319633601       20.4663498404
C    6.0       21.5170108752       13.7192711399       21.3223226809
H    1.0       21.1132323511       12.7102224434       21.1728869175
O    8.0       20.4707824519       14.7013751027       21.4794237118
C    6.0       22.4155585236       13.7435164834       22.5811180189
H    1.0       23.2460573417       13.0472400768       22.4058857311
O    8.0       21.6869799525       13.3278595558       23.7445397662
H    1.0       22.2896352227       13.5227104783       24.4970976582
C    6.0       23.0129858859       15.1501173362       22.8087514870
H    1.0       22.1895604315       15.8198054077       23.0892812100
O    8.0       23.9660025043       15.0807877625       23.8753696379
H    1.0       24.0936967288       16.0109266091       24.1877598871
C    6.0       23.6785573673       15.7141164448       21.5223101656
H    1.0       24.6703380064       15.2622263062       21.3887444100
C    6.0       22.8352385770       15.4673023115       20.2402949701
H    1.0       21.9892353403       16.1652602972       20.2463772100
O    8.0       22.3388394396       14.1060054721       20.2032254126
C    6.0       23.6341909480       15.7130556471       18.9414277073
H    1.0       24.0043168793       16.7470651545       18.9385362093
H    1.0       22.9567719660       15.6028308289       18.0840939326
O    8.0       24.7270108328       14.7966071372       18.8299769976
H    1.0       24.3395498829       13.8985071194       18.9297121957
C    6.0       20.7514282450       18.4753397852       25.3023313998
O    8.0       20.0762568222       18.0484312965       26.2177229764
O    8.0       21.7795352427       19.1098370716       25.4554925754
C    6.0       20.2779146242       18.2185162426       23.8749640649
H    1.0       19.5099963977       17.4365760107       23.9003874075
H    1.0       21.1256809076       17.8215288043       23.3091455865
C    6.0       19.7165074309       19.4935186899       23.1970421385
H    1.0       18.8964364450       19.8813794162       23.8157095136
H    1.0       20.4881882701       20.2750064327       23.1810638161
C    6.0       19.1925379558       19.2556110695       21.7629727151
H    1.0       18.7345382798       20.1860260809       21.4064302954
H    1.0       18.3994234185       18.4990086723       21.7843846869
C    6.0       20.2901486333       18.8252657152       20.7666921809
H    1.0       21.1672797981       19.4711039112       20.8882230203
H    1.0       20.6145573468       17.8026066991       20.9940663349
C    6.0       19.7977339480       18.9064380422       19.3063937833
H    1.0       19.4278038000       19.9186299359       19.0964286274
H    1.0       18.9518485878       18.2229391565       19.1570390877
C    6.0       20.9201692427       18.5617114137       18.3089282210
H    1.0       21.7812496248       19.2303008997       18.4382489319
H    1.0       20.5612865212       18.6618195277       17.2766601497
H    1.0       21.2581530867       17.5282303242       18.4462819075
 $end
$$$$
! Edit this basic GAMESS input file as needed.
! Conformer was generated by a VeraChem VCPack run 
! and contains    148 atoms.
!
 $contrl scftyp=rhf runtyp=optimize nzvar=0
  maxit=200 icharg=0 $end
 $system mwords=50 $end
 $basis gbasis=pm3 $end
 $statpt nstep=200 $end
 $guess guess=huckel $end
 $data
VM2 Rank=2      G=497.185           E=305.150           -TS=192.035             
C1
C    6.0       16.3317870841       15.2290401690       21.5977161764
H    1.0       15.2545984456       15.0874731284       21.7522070049
O    8.0       16.6397457966       16.5862317935       21.2171053747
C    6.0       17.1095364518       14.8681143591       22.8883443073
H    1.0       16.9120148649       13.8090947432       23.0997311036
O    8.0       16.6838831765       15.6504402985       24.0110543052
H    1.0       17.3867760307       15.5092433733       24.6856010853
C    6.0       18.6317992612       15.0275433188       22.6815089126
H    1.0       18.8536060425       16.0912707018       22.5261356841
O    8.0       19.3059040672       14.5452827047       23.8491025985
H    1.0       20.2049919692       14.2555699624       23.5621843201
C    6.0       19.1137357534       14.2532312160       21.4304578567
H    1.0       19.1379818092       13.1808380711       21.6667777215
C    6.0       18.2066155510       14.5087132290       20.1932760163
H    1.0       18.3843870841       15.5344192544       19.8433257533
O    8.0       16.8099324090       14.3530329904       20.5534690745
C    6.0       18.4992403249       13.5544585082       19.0142692108
H    1.0       19.5217890142       13.7321510235       18.6552482240
H    1.0       17.8164081672       13.7944464770       18.1882199932
O    8.0       18.3445094991       12.1871111970       19.4059309262
H    1.0       17.4252152135       12.1009080810       19.7436649520
C    6.0       14.7763022656       20.3059803477       20.9064881896
H    1.0       14.0857752818       21.1297414380       20.6848227798
O    8.0       16.0477032649       20.7874012613       21.3788169227
C    6.0       14.1847407787       19.3746118468       21.9940896408
H    1.0       13.2316978675       18.9869568470       21.6113488027
O    8.0       13.9499463852       20.0884563011       23.2168607087
H    1.0       13.7105426766       19.3911856934       23.8679563423
C    6.0       15.1164711135       18.1683458567       22.2663683567
H    1.0       16.0341310257       18.5468057590       22.7385707115
O    8.0       14.4502233080       17.2638316267       23.1549032789
H    1.0       15.1563457935       16.6801227719       23.5288791229
C    6.0       15.5145546019       17.4479565884       20.9480731581
H    1.0       14.6579055196       16.8792171806       20.5627263166
C    6.0       15.9782189788       18.4497298202       19.8574039568
H    1.0       16.9480317588       18.8665913700       20.1559585190
O    8.0       15.0062005415       19.5151740709       19.7214854695
C    6.0       16.1516100604       17.7936251839       18.4696588370
H    1.0       16.8890502955       16.9836278695       18.5444158811
H    1.0       16.5541578367       18.5421447390       17.7742539104
O    8.0       14.9064999243       17.2836759724       17.9835505634
H    1.0       14.2699479118       18.0312155503       18.0343790714
C    6.0       18.3853435530       24.1550016025       21.6895173927
H    1.0       18.8069257720       25.1651427524       21.7668404379
O    8.0       19.4147689741       23.1561444212       21.5388995005
C    6.0       17.5553674640       23.8345736773       22.9565940137
H    1.0       16.7366476011       24.5641868060       23.0060257115
O    8.0       18.3562398562       23.9429902191       24.1417462281
H    1.0       17.8037341618       23.5463520095       24.8521237680
C    6.0       16.9301737755       22.4245229323       22.8631640496
H    1.0       17.7441620199       21.6922482951       22.9260788881
O    8.0       16.0151946693       22.2265773729       23.9478984849
H    1.0       15.4892702014       21.4191735638       23.7266943832
C    6.0       16.1835037139       22.2123261248       21.5224661290
H    1.0       15.2088343271       22.7141166454       21.5869730945
C    6.0       16.9710793325       22.7355505765       20.2877657495
H    1.0       17.7969846487       22.0398532285       20.0885343439
O    8.0       17.4994307698       24.0585409343       20.5552813565
C    6.0       16.1172013848       22.8295150792       19.0035906639
H    1.0       15.7947795248       21.8226249925       18.7092850400
H    1.0       16.7449058413       23.2199858855       18.1913846090
O    8.0       14.9800841147       23.6749790422       19.2006806245
H    1.0       15.3331932342       24.5459757223       19.4891940343
C    6.0       23.4821959119       22.6779590382       20.9038031985
H    1.0       24.5390925819       22.7895559849       20.6296326176
O    8.0       23.1666412109       21.3109972886       21.2354790443
C    6.0       23.1173220134       23.6012546461       22.0986510933
H    1.0       23.2896831584       24.6350215807       21.7731930554
O    8.0       23.9586748407       23.3287845269       23.2301765000
H    1.0       23.7382353477       22.4147608449       23.5394846548
C    6.0       21.6120367711       23.4632064467       22.4541882004
H    1.0       21.4460728463       22.4502107236       22.8460563661
O    8.0       21.2282347808       24.4339089183       23.4368190832
H    1.0       20.3014810708       24.2138563644       23.7026172957
C    6.0       20.7233925493       23.6495943032       21.1967514313
H    1.0       20.7027522414       24.7135232932       20.9256927994
C    6.0       21.2244572998       22.8370998211       19.9737170890
H    1.0       21.0247527635       21.7744571412       20.1556140360
O    8.0       22.6458392121       23.0543377934       19.7907297586
C    6.0       20.5223428489       23.2288475383       18.6549075268
H    1.0       19.4426878427       23.0643237050       18.7581615866
H    1.0       20.8806820226       22.5660356794       17.8559511900
O    8.0       20.7824175662       24.5952379322       18.3201366169
H    1.0       21.7605344466       24.6939787061       18.3281251207
C    6.0       24.9290280388       17.6523344921       22.0458005565
H    1.0       25.6010142594       16.8258756657       22.3096753731
O    8.0       23.6941673678       17.1714845952       21.4747295809
C    6.0       24.6068389894       18.5021308136       23.3023737120
H    1.0       25.5540735685       18.9177675463       23.6694978285
O    8.0       24.0374049338       17.6674051039       24.3239258143
H    1.0       23.4504289348       18.2332253667       24.8893865909
C    6.0       23.6816401485       19.6931888165       22.9377353805
H    1.0       22.7010394141       19.2920121794       22.6539202189
O    8.0       23.5455105972       20.5763778165       24.0591236401
H    1.0       22.9486401180       20.1230433106       24.7107266155
C    6.0       24.2443981795       20.4954737096       21.7346723682
H    1.0       25.0865251036       21.1055712061       22.0874416668
C    6.0       24.7097893478       19.5827473827       20.5656357048
H    1.0       23.8182309917       19.1544424821       20.0880679404
O    8.0       25.5525740537       18.5203562326       21.0763810520
C    6.0       25.5069276258       20.3297600771       19.4731384244
H    1.0       24.8475690826       21.0589345545       18.9839838709
H    1.0       25.8169381782       19.6065493158       18.7069641678
O    8.0       26.6504109410       20.9892092814       20.0246888058
H    1.0       27.1810126558       20.2921000240       20.4707108042
C    6.0       21.4498351531       13.7898242567       20.8290298242
H    1.0       21.0236415955       12.8131927103       20.5654959927
O    8.0       20.4217595600       14.7638888280       21.1091631421
C    6.0       22.3967087582       13.6782144883       22.0506896437
H    1.0       23.2348165470       13.0327957351       21.7567609491
O    8.0       21.7403126184       13.1022472626       23.1859411956
H    1.0       22.3966877189       13.1746143069       23.9155669574
C    6.0       22.9724793193       15.0654949402       22.4198600056
H    1.0       22.1432406539       15.6944086236       22.7725545983
O    8.0       23.9382554642       14.9102621854       23.4659038023
H    1.0       24.0540509132       15.8093479601       23.8632306138
C    6.0       23.6152381965       15.7614654557       21.1883825296
H    1.0       24.6072767789       15.3314033845       20.9969910702
C    6.0       22.7557627959       15.6369473326       19.8989245759
H    1.0       21.9117324047       16.3331182374       19.9795800475
O    8.0       22.2501151885       14.2881834181       19.7384955278
C    6.0       23.5476634976       15.9947941724       18.6215486813
H    1.0       23.9339082605       17.0186847212       18.7141735252
H    1.0       22.8613732873       15.9766320110       17.7644340249
O    8.0       24.6260760144       15.0782704432       18.4119584558
H    1.0       24.2255213165       14.1804622077       18.4276212699
C    6.0       20.8086384889       18.5343279915       25.5384442933
O    8.0       20.0613019137       18.3586388222       26.4802841376
O    8.0       21.9430727278       18.9628898360       25.6441387281
C    6.0       20.2892543755       18.2322412450       24.1365299985
H    1.0       19.5183832093       17.4594364149       24.2263470354
H    1.0       21.1119454578       17.8048175088       23.5539186572
C    6.0       19.7038386274       19.4839447756       23.4346100671
H    1.0       18.8692801308       19.8607548145       24.0413186026
H    1.0       20.4556313171       20.2843667658       23.4147285084
C    6.0       19.1954580357       19.2120971363       21.9997079376
H    1.0       18.6267984677       20.0880638362       21.6683071041
H    1.0       18.4954436069       18.3680896407       22.0043943047
C    6.0       20.3289868315       18.9589822307       20.9825704318
H    1.0       21.0812240745       19.7471064831       21.0892018647
H    1.0       20.8308919011       18.0084270723       21.2030093945
C    6.0       19.8032488999       18.9542655609       19.5311516753
H    1.0       19.1601877700       19.8295158202       19.3672201985
H    1.0       19.1822357774       18.0632271281       19.3693690118
C    6.0       20.9509643348       18.9869963300       18.5026244079
H    1.0       21.5706354115       19.8835930305       18.6334101097
H    1.0       20.5531042769       18.9953855681       17.4799185295
H    1.0       21.5970030793       18.1101886073       18.6067139669
 $end
$$$$
! Edit this basic GAMESS input file as needed.
! Conformer was generated by a VeraChem VCPack run 
! and contains    148 atoms.
!
 $contrl scftyp=rhf runtyp=optimize nzvar=0
  maxit=200 icharg=0 $end
 $system mwords=50 $end
 $basis gbasis=pm3 $end
 $statpt nstep=200 $end
 $guess guess=huckel $end
 $data
VM2 Rank=3      G=497.208           E=304.978           -TS=192.230             
C1
C    6.0       16.2007394835       15.0446178820       21.3288377431
H    1.0       15.1143649437       14.8977065074       21.2827829684
O    8.0       16.5536077493       16.4422896955       21.2974169267
C    6.0       16.7640642627       14.4120034294       22.6256249312
H    1.0       16.5440537274       13.3371910786       22.5866445263
O    8.0       16.1506200851       14.9742034584       23.7934633405
H    1.0       16.6982795871       14.6458298639       24.5418250635
C    6.0       18.2984476389       14.5780713204       22.7022780090
H    1.0       18.5203588358       15.6438008692       22.8404527611
O    8.0       18.8035687435       13.8272906805       23.8131150694
H    1.0       19.7878828566       13.8054173512       23.7171211346
C    6.0       18.9885962443       14.1018376216       21.4002875934
H    1.0       19.0161424139       13.0041467083       21.4039296141
C    6.0       18.2792368844       14.6065833137       20.1124229167
H    1.0       18.4890211056       15.6784384444       20.0000713259
O    8.0       16.8482734497       14.3957217744       20.2142881469
C    6.0       18.7650043720       13.8965787321       18.8294383618
H    1.0       19.8314492006       14.1105148681       18.6810341563
H    1.0       18.2251691925       14.3147893925       17.9693545124
O    8.0       18.5506801888       12.4843047345       18.9101309229
H    1.0       17.5909210336       12.3634973544       19.0858937023
C    6.0       14.9437625501       20.2492043784       20.8069197995
H    1.0       14.3014197516       21.1017921360       20.5514505886
O    8.0       16.2545106525       20.6819460315       21.2194131271
C    6.0       14.3081508782       19.4002504810       21.9403303042
H    1.0       13.3313041193       19.0543116128       21.5780640221
O    8.0       14.1201435002       20.1670286111       23.1369041076
H    1.0       13.8186434391       19.5125210760       23.8066994636
C    6.0       15.1664910722       18.1517024152       22.2533267028
H    1.0       16.1136970855       18.4885107013       22.6975802661
O    8.0       14.4643946712       17.3126907812       23.1785938724
H    1.0       15.0742778617       16.5655770528       23.4018049242
C    6.0       15.4934701126       17.3577665253       20.9642313293
H    1.0       14.5908922390       16.8364520456       20.6188379238
C    6.0       16.0103293217       18.2749792365       19.8249847114
H    1.0       17.0100406395       18.6371300840       20.0941223477
O    8.0       15.1075539287       19.3960042287       19.6545112272
C    6.0       16.1170679843       17.5498640994       18.4653709138
H    1.0       16.8063717830       16.7013925044       18.5627388591
H    1.0       16.5491375804       18.2419933117       17.7303522058
O    8.0       14.8345044453       17.0945600997       18.0243831290
H    1.0       14.2470126534       17.8826320601       18.0409195952
C    6.0       18.5089115509       24.0770398115       21.8593472449
H    1.0       18.9047565877       25.0797652072       22.0647334434
O    8.0       19.5361983023       23.1795576316       21.3967572666
C    6.0       17.8686239596       23.4809176435       23.1357382452
H    1.0       17.0298651603       24.1310253945       23.4167127796
O    8.0       18.8064083868       23.4304618189       24.2197246473
H    1.0       18.3780128499       22.8494758745       24.8881684705
C    6.0       17.3019888738       22.0708353564       22.8541540400
H    1.0       18.1438745732       21.3967574887       22.6482480113
O    8.0       16.5726616801       21.6195195805       24.0011033904
H    1.0       15.9167313544       20.9574560833       23.6749192351
C    6.0       16.3743700851       22.0622040650       21.6144743708
H    1.0       15.4047560156       22.4909190558       21.9020013335
C    6.0       16.9700741722       22.8450909758       20.4084526128
H    1.0       17.7886753963       22.2481489433       19.9847338808
O    8.0       17.4802372688       24.1300843897       20.8477436827
C    6.0       15.9536716317       23.1081229121       19.2750056392
H    1.0       15.6517558436       22.1492373547       18.8335282530
H    1.0       16.4495239321       23.6877021100       18.4847761818
O    8.0       14.8067672019       23.8117305016       19.7608139895
H    1.0       15.1435398586       24.6451914748       20.1588767823
C    6.0       23.5619350234       22.8145859628       20.7100905332
H    1.0       24.6184635950       22.8961858442       20.4239471821
O    8.0       23.2104150609       21.4549390749       21.0502381223
C    6.0       23.2253763246       23.7651241256       21.8909382234
H    1.0       23.3658376039       24.7918990794       21.5297402405
O    8.0       24.1113278282       23.5468144455       22.9987698897
H    1.0       23.8785375462       22.6637655537       23.3792232734
C    6.0       21.7340860567       23.6067720940       22.2934762901
H    1.0       21.5970619643       22.5923540199       22.6930269382
O    8.0       21.3687315483       24.5681564246       23.2909259807
H    1.0       20.5317209576       24.2344496343       23.6980423146
C    6.0       20.8029728163       23.7720910341       21.0599931065
H    1.0       20.7022931779       24.8372436839       20.8125579737
C    6.0       21.3025359769       23.0110722274       19.8036347929
H    1.0       21.0992954691       21.9457425914       19.9571380300
O    8.0       22.7237551063       23.2162440093       19.6082465084
C    6.0       20.5798735526       23.4436090007       18.5090342114
H    1.0       19.5008403187       23.2802756291       18.6284154497
H    1.0       20.9208782891       22.8031784405       17.6846575025
O    8.0       20.8407378117       24.8182101948       18.2104678827
H    1.0       21.8193803743       24.9125837285       18.2021830832
C    6.0       24.8114840570       17.7861125090       22.1332510438
H    1.0       25.4555660353       16.9611024298       22.4628424911
O    8.0       23.5698723232       17.2994866837       21.5826934067
C    6.0       24.4991383037       18.7265266666       23.3263292577
H    1.0       25.4569068855       19.1185585720       23.6920363675
O    8.0       23.8657434286       17.9836993601       24.3824781607
H    1.0       23.2689696998       18.5999562818       24.8818105926
C    6.0       23.6411885080       19.9367986679       22.8724018829
H    1.0       22.6406611915       19.5700498225       22.6115250040
O    8.0       23.5566144522       20.8956438903       23.9340333883
H    1.0       22.9618697428       20.5064742663       24.6264486431
C    6.0       24.2453793496       20.6303169556       21.6221715036
H    1.0       25.1129355557       21.2253847844       21.9368392763
C    6.0       24.6753747053       19.6193961288       20.5246858177
H    1.0       23.7684215317       19.1944326129       20.0743639357
O    8.0       25.4739000788       18.5642820401       21.1142759616
C    6.0       25.5031230023       20.2592011627       19.3879825988
H    1.0       24.8770072686       20.9882613681       18.8565519100
H    1.0       25.7758611686       19.4765542878       18.6673770477
O    8.0       26.6782028883       20.8964062571       19.8978032911
H    1.0       27.1724578957       20.2050569040       20.3920260289
C    6.0       21.4044223255       13.7863979267       21.1400251839
H    1.0       21.0598277158       12.7662584915       20.9285611495
O    8.0       20.3071183971       14.6779604941       21.4192768198
C    6.0       22.3606721548       13.7974248710       22.3587407951
H    1.0       23.2241316087       13.1684328777       22.1059509619
O    8.0       21.7205044452       13.2736583405       23.5305663136
H    1.0       22.3516304327       13.4631703589       24.2611160029
C    6.0       22.8776456247       15.2279228564       22.6407338621
H    1.0       22.0236502783       15.8366812085       22.9668407161
O    8.0       23.8580950137       15.1739868735       23.6836105121
H    1.0       23.9304547528       16.0974583646       24.0327810843
C    6.0       23.4730403819       15.8784826409       21.3615027742
H    1.0       24.4555656054       15.4386354286       21.1448965443
C    6.0       22.5558874557       15.6912773702       20.1216068920
H    1.0       21.6754117783       16.3372538107       20.2351161591
O    8.0       22.1354363900       14.3089086774       20.0117359541