$$$$
! Edit this basic GAMESS input file as needed.
! Conformer was generated by a VeraChem VCPack run 
! and contains    155 atoms.
!
 $contrl scftyp=rhf runtyp=optimize nzvar=0
  maxit=200 icharg=0 $end
 $system mwords=50 $end
 $basis gbasis=pm3 $end
 $statpt nstep=200 $end
 $guess guess=huckel $end
 $data
VM2 Rank=1      G=574.073           E=367.045           -TS=207.028             
C1
C    6.0       16.3533328845       15.1834747793       21.7413796640
H    1.0       15.2780425934       15.0764200447       21.9339398308
O    8.0       16.6859130723       16.5156148215       21.2998085062
C    6.0       17.1639168951       14.8596384360       23.0216443497
H    1.0       16.9555906412       13.8131424422       23.2798013323
O    8.0       16.7749538358       15.6985257418       24.1203709631
H    1.0       15.9714957168       16.1982687645       23.8354255127
C    6.0       18.6813859199       14.9957070219       22.7579771537
H    1.0       18.9015759310       16.0541300289       22.5803927843
O    8.0       19.3963630991       14.5507886269       23.9135579100
H    1.0       18.9281722808       14.9725782395       24.6692009132
C    6.0       19.1231131154       14.1949878210       21.5060333328
H    1.0       19.1945191195       13.1327106948       21.7754261759
C    6.0       18.1596120177       14.3776272520       20.2980778151
H    1.0       18.3264872878       15.3785669916       19.8789117161
O    8.0       16.7780490451       14.2551125418       20.7214628292
C    6.0       18.3997284668       13.3553363746       19.1650602552
H    1.0       19.4044580957       13.5104972212       18.7499335842
H    1.0       17.6800575784       13.5467170017       18.3578552904
O    8.0       18.2654596208       12.0135971372       19.6425673850
H    1.0       17.3610178441       11.9452476977       20.0219365280
C    6.0       14.8679190981       20.2366169033       20.8256509570
H    1.0       14.1913502397       21.0577940510       20.5553281314
O    8.0       16.1343526874       20.7233926851       21.3082851221
C    6.0       14.2465280946       19.3501638980       21.9347238254
H    1.0       13.2993250312       18.9557394952       21.5444353273
O    8.0       13.9832041542       20.1152390249       23.1220553915
H    1.0       14.7957196380       20.6462686760       23.3213074846
C    6.0       15.1647621800       18.1461099025       22.2634695181
H    1.0       16.0765615518       18.5336648060       22.7385292466
O    8.0       14.4785913710       17.2759564693       23.1694291064
H    1.0       14.0371809061       17.8774488250       23.8115938686
C    6.0       15.5803732002       17.3811093363       20.9764389553
H    1.0       14.7257683055       16.8123894079       20.5860936320
C    6.0       16.0849282700       18.3424869163       19.8694265563
H    1.0       17.0498496867       18.7618055751       20.1767765803
O    8.0       15.1155086637       19.3997487988       19.6766113250
C    6.0       16.2772047686       17.6302036917       18.5146093528
H    1.0       15.3013694662       17.2973748773       18.1364925351
H    1.0       16.9008556004       16.7386597950       18.6576580244
O    8.0       16.9042394765       18.5145563179       17.5837130107
H    1.0       16.3392924481       19.3162737196       17.5455333623
C    6.0       18.3601606854       24.1626539092       21.7536391813
H    1.0       18.7514708252       25.1818403904       21.8661052625
O    8.0       19.4156281586       23.1968260378       21.5726556877
C    6.0       17.5453982463       23.7645398314       23.0087947217
H    1.0       16.6922571382       24.4514625031       23.0824217777
O    8.0       18.3437849943       23.8733792467       24.1978820981
H    1.0       19.2925003437       23.8391278109       23.9183681410
C    6.0       16.9930552981       22.3291412804       22.8597307108
H    1.0       17.8492451061       21.6454538514       22.8744458540
O    8.0       16.1227731892       22.0326210838       23.9562367978
H    1.0       16.5990826870       22.3615431672       24.7511032345
C    6.0       16.2340796538       22.1437251110       21.5214341647
H    1.0       15.2464123165       22.6136893777       21.6196847170
C    6.0       16.9917925573       22.7447137479       20.3020568473
H    1.0       17.8411006282       22.0888148889       20.0687251904
O    8.0       17.4765838585       24.0752326334       20.6165347625
C    6.0       16.1250305132       22.8526778556       19.0277858232
H    1.0       15.8449594977       21.8444407285       18.6964495213
H    1.0       16.7283099161       23.3017153266       18.2273789284
O    8.0       14.9528104912       23.6372029931       19.2656938611
H    1.0       15.2671254697       24.5143618330       19.5790310554
C    6.0       23.4847697275       22.7626817150       20.9511081729
H    1.0       24.5450772548       22.8864503092       20.6954732434
O    8.0       23.1612936581       21.3780574147       21.1976988747
C    6.0       23.1020032378       23.6238648185       22.1858619496
H    1.0       23.2690883528       24.6731041827       21.9096151645
O    8.0       23.9078928457       23.3169133915       23.3329420000
H    1.0       23.7177881712       22.3757878171       23.5761453596
C    6.0       21.6001664975       23.4538447600       22.5160230351
H    1.0       21.4355872561       22.4149474293       22.8348085761
O    8.0       21.2355500901       24.3477261211       23.5720417230
H    1.0       21.9688080027       24.2872357020       24.2247802920
C    6.0       20.7198077300       23.7242359887       21.2700302366
H    1.0       20.6942098686       24.8035825996       21.0690007612
C    6.0       21.2332869827       22.9908097665       20.0026751288
H    1.0       21.0198799893       21.9215092744       20.1057763403
O    8.0       22.6592822001       23.2122281775       19.8550538704
C    6.0       20.5476336295       23.4962654888       18.7163531469
H    1.0       20.8046926050       24.5521901001       18.5586329075
H    1.0       19.4587365431       23.4324558848       18.8349529310
O    8.0       20.9605862461       22.7069291678       17.5993420832
H    1.0       21.9423075693       22.7259485891       17.6021984430
C    6.0       24.8249693429       17.6848722410       22.0729089920
H    1.0       25.4725208585       16.8482397115       22.3653330681
O    8.0       23.6202135407       17.2243302780       21.4282316961
C    6.0       24.4465653583       18.5320322174       23.3160656441
H    1.0       25.3825331689       18.9117419866       23.7461553065
O    8.0       23.7559673959       17.7502854746       24.3042492829
H    1.0       23.8846939011       16.7995937564       24.0684792369
C    6.0       23.5750422918       19.7416259387       22.9123673260
H    1.0       22.6117797440       19.3478665536       22.5735313912
O    8.0       23.3746047191       20.5744983655       24.0576395562
H    1.0       23.1560660035       19.9459427914       24.7823920574
C    6.0       24.2065872911       20.5527522578       21.7514284261
H    1.0       25.0348853472       21.1524396367       22.1515133237
C    6.0       24.7233128023       19.6404990358       20.6031496269
H    1.0       23.8543821200       19.2338594216       20.0691186051
O    8.0       25.5132812098       18.5530051135       21.1472507945
C    6.0       25.5946902603       20.3869939963       19.5687543651
H    1.0       24.9779683078       21.1373559130       19.0565034503
H    1.0       25.9335906180       19.6700162685       18.8089875173
O    8.0       26.7170488903       21.0155134225       20.1942655907
H    1.0       27.2143473915       20.3011687992       20.6512673346
C    6.0       21.4404061995       13.7889498469       20.8014926516
H    1.0       21.0351764278       12.8040995304       20.5350739304
O    8.0       20.3938191556       14.7362820594       21.0981667758
C    6.0       22.3989478033       13.6954781320       22.0154483794
H    1.0       23.2494006505       13.0731398549       21.7077005071
O    8.0       21.7683331471       13.0856810018       23.1512684254
H    1.0       20.9771587687       13.6365736761       23.3798295448
C    6.0       22.9436038123       15.0981053304       22.3795139917
H    1.0       22.1043621451       15.7041046865       22.7494071262
O    8.0       23.9307250864       14.9589405815       23.4072098853
H    1.0       23.5672617369       14.2771154017       24.0172534432
C    6.0       23.5485809780       15.8143000524       21.1387456887
H    1.0       24.5417934866       15.3982669705       20.9226317445
C    6.0       22.6718759146       15.6825532052       19.8627448949
H    1.0       21.8106803776       16.3568235239       19.9517014795
O    8.0       22.2177825786       14.3155791230       19.7068982777
C    6.0       23.4591003792       16.0608947311       18.5899342147
H    1.0       24.2675028176       15.3340131850       18.4344100309
H    1.0       23.9209747174       17.0473513589       18.7297194470
O    8.0       22.5857314148       16.0885625569       17.4593373520
H    1.0       22.1241148741       15.2216039156       17.4493405414
C    6.0       18.6138706401       18.9670466615       24.5308100589
H    1.0       18.0733769317       18.0188078148       24.4246194175
H    1.0       19.0057052215       19.0173786695       25.5546145372
H    1.0       17.8938509831       19.7848919089       24.4042299469
C    6.0       19.7606374897       19.0658545312       23.5042286938
H    1.0       20.4702963711       18.2427252019       23.6711598640
H    1.0       20.3150838924       20.0013401446       23.6646874422
C    6.0       19.2332168203       19.0155163018       22.0546677249
H    1.0       18.6519069644       18.1007316546       21.9020731245
H    1.0       18.5495771255       19.8526145469       21.8809929340
C    6.0       20.3774495391       19.0756685575       21.0270764665
H    1.0       21.0538415387       18.2247500897       21.1813293047
H    1.0       20.9597457143       19.9870572029       21.1998309485
C    6.0       19.8593401107       19.0708423664       19.5751201525
H    1.0       19.3051881518       18.1411954178       19.3849802075
H    1.0       19.1542992248       19.9008013175       19.4284860391
C    6.0       21.0174407878       19.1975311567       18.5641273975
H    1.0       21.7235721707       18.3721656485       18.7110517940
H    1.0       21.5752435163       20.1252945091       18.7482372834
C    6.0       20.5074584159       19.1841699460       17.1093200787
H    1.0       19.9278243993       18.2688130459       16.9282080065
H    1.0       19.8296903059       20.0336467484       16.9488816177
C    6.0       21.6759170494       19.2582790467       16.1132296968
H    1.0       22.3331833102       18.3952066199       16.2551858553
H    1.0       22.2537944693       20.1688222376       16.2929002652
N    7.0       21.2203552406       19.2703529345       14.6692517347
H    1.0       20.6882966849       18.4261352711       14.4346215563
H    1.0       22.0130196333       19.3180538792       14.0204107382
H    1.0       20.6175434861       20.0755391294       14.4707801288
 $end
