$$$$
! Edit this basic GAMESS input file as needed.
! Conformer was generated by a VeraChem VCPack run 
! and contains    149 atoms.
!
 $contrl scftyp=rhf runtyp=optimize nzvar=0
  maxit=200 icharg=0 $end
 $system mwords=50 $end
 $basis gbasis=pm3 $end
 $statpt nstep=200 $end
 $guess guess=huckel $end
 $data
VM2 Rank=1      G=557.081           E=360.326           -TS=196.755             
C1
C    6.0       16.4274171287       15.4165661033       21.7530101253
H    1.0       15.3789256825       15.2735936613       22.0430520802
O    8.0       16.6324433906       16.6944872286       21.1178800550
C    6.0       17.3508959374       15.3173127302       22.9963091129
H    1.0       17.1935685458       14.3233266585       23.4350050400
O    8.0       17.0355516872       16.3194300674       23.9765218800
H    1.0       16.0965275364       16.5846744050       23.8273944339
C    6.0       18.8383052868       15.4362606481       22.5930460171
H    1.0       19.0084844403       16.4563573653       22.2299992634
O    8.0       19.6477125076       15.1922550782       23.7466840344
H    1.0       19.2247764405       15.7244213242       24.4581329672
C    6.0       19.2019941964       14.4540502551       21.4518241971
H    1.0       19.2514763847       13.4370071281       21.8628043383
C    6.0       18.1694557828       14.5019392050       20.2918280229
H    1.0       18.2797400919       15.4615737949       19.7693418085
O    8.0       16.8258262298       14.3868235482       20.8224683747
C    6.0       18.3641644428       13.3765325323       19.2512636962
H    1.0       19.3336342352       13.5133057609       18.7539110035
H    1.0       17.5865329794       13.4685480723       18.4812302588
O    8.0       18.3041897036       12.0863279944       19.8663240805
H    1.0       17.4290807531       12.0333661440       20.3112122488
C    6.0       14.6664216678       20.3288387561       20.7794567319
H    1.0       13.9874621095       21.1625072350       20.5578334609
O    8.0       15.9628972604       20.7895716251       21.2047128999
C    6.0       14.0914946533       19.4135757217       21.8887206859
H    1.0       13.1498714453       18.9957128712       21.5092677496
O    8.0       13.8237017193       20.1487762998       23.0932113004
H    1.0       14.6576263930       20.6193855362       23.3479087748
C    6.0       15.0549730070       18.2351450997       22.1766196847
H    1.0       15.9689841873       18.6464678839       22.6274019359
O    8.0       14.4186153640       17.3457039142       23.1009530764
H    1.0       13.9564661009       17.9346532889       23.7406339232
C    6.0       15.4546724893       17.4901037784       20.8682372091
H    1.0       14.6185528598       16.8654413667       20.5266210432
C    6.0       15.8465061466       18.4662534085       19.7266933876
H    1.0       16.8225513237       18.9063503402       19.9620606319
O    8.0       14.8497163407       19.5097287490       19.6057913469
C    6.0       15.9601114141       17.7547064387       18.3621785119
H    1.0       14.9616290537       17.4388195911       18.0315138656
H    1.0       16.5752643915       16.8520045143       18.4742865452
O    8.0       16.5583926893       18.6294522617       17.4031365662
H    1.0       16.0072032563       19.4422239620       17.3901766062
C    6.0       18.3238951416       24.0132528303       21.9585335576
H    1.0       18.8076817163       24.9744767882       22.1754088851
O    8.0       19.2766582853       23.0220801454       21.5177014960
C    6.0       17.5933839170       23.4886865415       23.2193808763
H    1.0       16.8112133818       24.2167504628       23.4709939089
O    8.0       18.4949239838       23.3606586104       24.3303747538
H    1.0       19.3961006869       23.6041764560       24.0037894706
C    6.0       16.9125828094       22.1326747779       22.9301599749
H    1.0       17.7073868982       21.3905105856       22.8063183433
O    8.0       16.0956092747       21.7601033032       24.0435316475
H    1.0       16.6585691919       21.9260298772       24.8329191838
C    6.0       16.0605230034       22.1589829506       21.6340590488
H    1.0       15.0781650233       22.5896718805       21.8698950073
C    6.0       16.7217426872       22.9363059766       20.4587883951
H    1.0       17.4948287623       22.2910220272       20.0221952307
O    8.0       17.3291756698       24.1667192028       20.9260635403
C    6.0       15.7328381446       23.2963969449       19.3280560937
H    1.0       15.3522712715       22.3709656435       18.8760075154
H    1.0       16.2755058199       23.8423989444       18.5447392092
O    8.0       14.6478130801       24.0862266749       19.8227415383
H    1.0       15.0514422329       24.8825812459       20.2345623238
C    6.0       23.3667128882       22.6125359657       20.8199108604
H    1.0       24.4102478570       22.7714988018       20.5191417728
O    8.0       23.1207758931       21.2313330083       21.1505758311
C    6.0       22.9888973169       23.5217569737       22.0226145663
H    1.0       23.1332347331       24.5595914390       21.6952066748
O    8.0       23.8215239751       23.2797759975       23.1667687847
H    1.0       23.6668203072       22.3415192392       23.4447119661
C    6.0       21.4980966160       23.3487568397       22.4002857468
H    1.0       21.3622250372       22.3308283882       22.7908617895
O    8.0       21.1536481521       24.3057360097       23.4073886878
H    1.0       21.9181680695       24.3106828812       24.0269993106
C    6.0       20.5811607357       23.5168348138       21.1606523522
H    1.0       20.5463109193       24.5736165643       20.8634244433
C    6.0       21.0769705507       22.6801613909       19.9526765010
H    1.0       20.9175669223       21.6171567937       20.1694181884
O    8.0       22.4836401530       22.9523037615       19.7303712072
C    6.0       20.3292134034       23.0256948980       18.6485269527
H    1.0       20.5588880141       24.0604597268       18.3612470355
H    1.0       19.2478036349       22.9601469191       18.8186168004
O    8.0       20.7135469179       22.1187368475       17.6133661211
H    1.0       21.6935951063       22.1594470225       17.5682700009
C    6.0       24.9657326309       17.6567352947       22.0545284901
H    1.0       25.6307875179       16.8328008674       22.3439763025
O    8.0       23.7580408719       17.1782208935       21.4291259442
C    6.0       24.5887750251       18.5123294917       23.2914339132
H    1.0       25.5175812994       18.9478736719       23.6823954425
O    8.0       23.9690562828       17.7262330520       24.3216070142
H    1.0       23.9447920790       16.7902034241       24.0051701534
C    6.0       23.6517252516       19.6687688983       22.8802076917
H    1.0       22.7031965490       19.2235069372       22.5567805564
O    8.0       23.4291605726       20.5189146233       24.0095897959
H    1.0       23.2550203883       19.8988591531       24.7533716498
C    6.0       24.2274464226       20.4880441969       21.6984114950
H    1.0       25.0174799569       21.1474941277       22.0812796401
C    6.0       24.7945342167       19.5899089987       20.5606803751
H    1.0       23.9484322254       19.1455067458       20.0201403952
O    8.0       25.6226538316       18.5362921541       21.1168610350
C    6.0       25.6454586033       20.3625587312       19.5284323357
H    1.0       25.0027153386       21.0767143548       18.9970645446
H    1.0       26.0275767132       19.6518851223       18.7833134846
O    8.0       26.7293179836       21.0497737486       20.1599036647
H    1.0       27.2558010162       20.3642245756       20.6282624704
C    6.0       21.4746542089       13.8583375017       20.7287156437
H    1.0       21.0233588753       12.8935614011       20.4630804390
O    8.0       20.4688299515       14.8798724247       20.9105942185
C    6.0       22.3530408888       13.7356523279       22.0023784867
H    1.0       23.1788443190       13.0549735916       21.7572993562
O    8.0       21.6256869551       13.1941129801       23.1144070736
H    1.0       20.9313248638       13.8592082395       23.3520190168
C    6.0       22.9634785785       15.1081032380       22.3720592804
H    1.0       22.1428200734       15.7709387157       22.6804785842
O    8.0       23.8802858528       14.9361019550       23.4573472004
H    1.0       23.4416944561       14.2970818701       24.0640021780
C    6.0       23.6831741542       15.7650153788       21.1631756761
H    1.0       24.6795638625       15.3204439752       21.0385575260
C    6.0       22.8993309935       15.6297528138       19.8282707850
H    1.0       22.0792774497       16.3559071093       19.8423414511
O    8.0       22.3546701387       14.2958278249       19.6736620718
C    6.0       23.7707981635       15.9335118652       18.5897468802
H    1.0       24.1732162595       16.9517922264       18.6755118034
H    1.0       23.1359779912       15.9025773746       17.6943797726
O    8.0       24.8393567769       14.9903756983       18.4704613980
H    1.0       24.4206357068       14.1007451102       18.4785340009
N    7.0       21.0729382763       18.5420698784       15.6114129137
H    1.0       20.6411609610       18.7204302515       14.6986802940
H    1.0       21.3829576823       17.5657299992       15.6108604756
H    1.0       21.9095788885       19.1312956941       15.6649080612
C    6.0       20.1122398641       18.8317184741       16.7463820892
H    1.0       19.2260892307       18.2041032810       16.6137567057
H    1.0       19.8042573018       19.8786393043       16.6680767615
C    6.0       20.7229973799       18.5815217447       18.1358587485
H    1.0       21.0499713426       17.5378313476       18.2104531677
H    1.0       21.6083478841       19.2184476055       18.2652447039
C    6.0       19.6953387995       18.8873557693       19.2431956302
H    1.0       18.8475096133       18.1962792620       19.1496730834
H    1.0       19.2974502602       19.9005677916       19.0884414854
C    6.0       20.2930846858       18.7809183943       20.6636986675
H    1.0       21.2072105278       19.3843730367       20.7256826438
H    1.0       20.5817790853       17.7433990125       20.8764891499
C    6.0       19.2816634199       19.2696372014       21.7211602510
H    1.0       18.3854253892       18.6371759933       21.6996778739
H    1.0       18.9567117662       20.2841077732       21.4602718220
C    6.0       19.8673472690       19.2708190259       23.1476905683
H    1.0       19.0914860204       19.5223501829       23.8824286133
H    1.0       20.6672404595       20.0149345835       23.2429189653
H    1.0       20.2756547597       18.2866878619       23.4128738547
 $end
$$$$
! Edit this basic GAMESS input file as needed.
! Conformer was generated by a VeraChem VCPack run 
! and contains    149 atoms.
!
 $contrl scftyp=rhf runtyp=optimize nzvar=0
  maxit=200 icharg=0 $end
 $system mwords=50 $end
 $basis gbasis=pm3 $end
 $statpt nstep=200 $end
 $guess guess=huckel $end
 $data
VM2 Rank=2      G=557.161           E=359.305           -TS=197.856             
C1
C    6.0       16.4603786211       15.3047944344       21.8387118235
H    1.0       15.4071135558       15.1961421980       22.1258440718
O    8.0       16.7139197173       16.5804960617       21.2160410875
C    6.0       17.3781994503       15.1654575747       23.0812066267
H    1.0       17.1936568404       14.1711181705       23.5083026574
O    8.0       17.0854070874       16.1659827585       24.0703169370
H    1.0       16.1590585321       16.4673493921       23.9106999629
C    6.0       18.8693736235       15.2502418640       22.6807842753
H    1.0       19.0718554641       16.2739241802       22.3447818430
O    8.0       19.6726167629       14.9559523202       23.8270300800
H    1.0       19.2707126606       15.4879427635       24.5505655945
C    6.0       19.2151235862       14.2912664248       21.5136067046
H    1.0       19.2916344651       13.2673812594       21.9028728096
C    6.0       18.1682667200       14.3489035614       20.3659825510
H    1.0       18.2922761943       15.3021193836       19.8351343048
O    8.0       16.8263649242       14.2661209591       20.9057160165
C    6.0       18.3326894287       13.2143846306       19.3302602332
H    1.0       19.3004608949       13.3296484895       18.8243288926
H    1.0       17.5507604084       13.3174613204       18.5659961999
O    8.0       18.2523133626       11.9289774463       19.9528822648
H    1.0       17.3805622797       11.8962189466       20.4063230709
C    6.0       14.7779279660       20.2541643649       20.8365345807
H    1.0       14.0821592360       21.0664159647       20.5891111245
O    8.0       16.0395386267       20.7540787352       21.3183743728
C    6.0       14.1904234423       19.3379671182       21.9380221981
H    1.0       13.2529644341       18.9189539679       21.5497313724
O    8.0       13.9127093713       20.0826523806       23.1352328791
H    1.0       14.7020879827       20.6512184735       23.3229036383
C    6.0       15.1491931798       18.1599964080       22.2460180557
H    1.0       16.0556394203       18.5722416018       22.7104439991
O    8.0       14.4975407264       17.2749124593       23.1635869159
H    1.0       14.0328190757       17.8679769369       23.7976206889
C    6.0       15.5688521198       17.4149852075       20.9442678990
H    1.0       14.7265203691       16.8207893165       20.5656892415
C    6.0       16.0237581180       18.4026480092       19.8374788730
H    1.0       16.9816521651       18.8456265893       20.1332976573
O    8.0       15.0265797479       19.4382880181       19.6723731641
C    6.0       16.2194615274       17.7103926889       18.4726218138
H    1.0       15.2452665743       17.3805894647       18.0875967070
H    1.0       16.8453228489       16.8181293948       18.6044683095
O    8.0       16.8490226505       18.6088454031       17.5565637605
H    1.0       16.2711415871       19.4008902923       17.5074485411
C    6.0       18.3064338517       24.1468597229       21.7480518902
H    1.0       18.7257272782       25.1558481588       21.8513413678
O    8.0       19.3373734834       23.1486631881       21.5957898509
C    6.0       17.4611622402       23.7960613338       22.9970041407
H    1.0       16.6303064838       24.5118895393       23.0461402600
O    8.0       18.2472462556       23.9010615267       24.1945573538
H    1.0       19.1977426928       23.8296836515       23.9278872144
C    6.0       16.8627385800       22.3771996309       22.8670293526
H    1.0       17.6926251285       21.6654496827       22.9315338070
O    8.0       15.9510854520       22.1371176486       23.9432892080
H    1.0       16.4220033016       22.4501141184       24.7478525309
C    6.0       16.1362251750       22.1768342028       21.5115507228
H    1.0       15.1480006063       22.6510087435       21.5786508138
C    6.0       16.9206883487       22.7496452426       20.2958549317
H    1.0       17.7554492185       22.0706609475       20.0770374733
O    8.0       17.4360037939       24.0701259667       20.6009432358
C    6.0       16.0690414355       22.8654692952       19.0121425920
H    1.0       15.7613911323       21.8616416081       18.6922222809
H    1.0       16.6925917104       23.2850452632       18.2112820667
O    8.0       14.9190651368       23.6881600939       19.2284065845
H    1.0       15.2569048895       24.5585908913       19.5361712337
C    6.0       23.4237352696       22.6881962389       20.9657036315
H    1.0       24.4799184705       22.8319060010       20.7036678131
O    8.0       23.1306240033       21.2986786850       21.2180857132
C    6.0       23.0335385138       23.5458718538       22.2017489420
H    1.0       23.1995038598       24.5959398747       21.9280280184
O    8.0       23.8362568054       23.2381438756       23.3511083940
H    1.0       23.6544511904       22.2933961353       23.5868823335
C    6.0       21.5315079537       23.3744133608       22.5310073528
H    1.0       21.3680056169       22.3361017905       22.8516302296
O    8.0       21.1649277388       24.2712321866       23.5840953648
H    1.0       21.8968222297       24.2121223346       24.2384811648
C    6.0       20.6539734390       23.6407156674       21.2829337869
H    1.0       20.6517673443       24.7165434400       21.0622854097
C    6.0       21.1616186159       22.8762234112       20.0323172546
H    1.0       20.9610731392       21.8078771783       20.1668432569
O    8.0       22.5836861596       23.1120009516       19.8701234169
C    6.0       20.4645942320       23.3366991065       18.7355186845
H    1.0       20.7323016519       24.3816987389       18.5297790071
H    1.0       19.3770861852       23.2923721332       18.8698784268
O    8.0       20.8517250016       22.4939142384       17.6484991332
H    1.0       21.8329124195       22.5222094615       17.6183964999
C    6.0       24.8816715236       17.6416189650       22.0575572880
H    1.0       25.5420795493       16.8124741761       22.3425959068
O    8.0       23.6927738258       17.1704613902       21.3907240938
C    6.0       24.4787323152       18.4660630778       23.3089810002
H    1.0       25.4036685167       18.8668808279       23.7438057579
O    8.0       23.8080573846       17.6603904326       24.2911910494
H    1.0       23.9275910150       16.7155136512       24.0287616319
C    6.0       23.5774571129       19.6561109911       22.9136853259
H    1.0       22.6265336333       19.2396233290       22.5650022812
O    8.0       23.3489117024       20.4734810556       24.0651968829
H    1.0       23.1420239152       19.8329235829       24.7828212878
C    6.0       24.1963858656       20.4970542028       21.7675518340
H    1.0       25.0026746941       21.1156814480       22.1833663400
C    6.0       24.7526205117       19.6149624621       20.6133849781
H    1.0       23.9019472821       19.1959427686       20.0599601599
O    8.0       25.5610003224       18.5378922585       21.1523533745
C    6.0       25.6212181129       20.3968893823       19.6030300025
H    1.0       24.9935864707       21.1365366003       19.0885946947
H    1.0       25.9920943172       19.6983507974       18.8410099364
O    8.0       26.7156950794       21.0474809741       20.2547776436
H    1.0       27.2262414947       20.3409745809       20.7093794215
C    6.0       21.4907745937       13.7725872732       20.7214923248
H    1.0       21.0650969212       12.7969515278       20.4534102470
O    8.0       20.4601216940       14.7556143544       20.9585095579
C    6.0       22.4145346344       13.6648012241       21.9629876793
H    1.0       23.2539272696       13.0156837503       21.6812280683
O    8.0       21.7429474512       13.0843871610       23.0904532011
H    1.0       21.0246876472       13.7141606816       23.3524056846
C    6.0       22.9910886867       15.0531042796       22.3315979021
H    1.0       22.1619418949       15.6796909800       22.6895548798
O    8.0       23.9605763774       14.8900852311       23.3723560893
H    1.0       23.5714325561       14.2214748634       23.9810651489
C    6.0       23.6319782635       15.7590549811       21.1035996958
H    1.0       24.6303803162       15.3416449953       20.9160522012
C    6.0       22.7890030063       15.6262187277       19.8058245592
H    1.0       21.9332371464       16.3071815372       19.8779205763
O    8.0       22.3196199877       14.2644747430       19.6478252479
C    6.0       23.6039416352       15.9998719343       18.5482193893
H    1.0       24.4054219229       15.2629811318       18.4040588962
H    1.0       24.0766782753       16.9790683353       18.7030151715
O    8.0       22.7519776678       16.0465986419       17.4003262302
H    1.0       22.2983961773       15.1743999186       17.3676560887
N    7.0       21.6710891039       18.5330979986       16.1960204051
H    1.0       22.1497947288       17.6634622158       16.4862695922
H    1.0       22.3750365747       19.2762596978       16.1741225841
H    1.0       21.3442763212       18.3914987076       15.2353420020
C    6.0       20.5321483528       18.8599619668       17.1388724161
H    1.0       19.8053371086       18.0451987562       17.0761538821
H    1.0       20.0490080699       19.7815418910       16.8016755367
C    6.0       21.0052705081       19.0161013683       18.5923793406
H    1.0       21.6826801243       18.1940146874       18.8404524875
H    1.0       21.5843201401       19.9431376785       18.6955630263
C    6.0       19.8200252530       19.0153364780       19.5782209290
H    1.0       19.1956401671       18.1275423963       19.4060429892
H    1.0       19.1888286177       19.8942580326       19.3854707546
C    6.0       20.3081324665       19.0192711292       21.0419437777
H    1.0       21.0175242446       19.8407080250       21.1812550486
H    1.0       20.8491480859       18.0873110712       21.2583419661
C    6.0       19.1505151706       19.1948682638       22.0409682965
H    1.0       18.4372363497       18.3699993437       21.9393804830
H    1.0       18.6065101804       20.1128355564       21.7951614793
C    6.0       19.6530011681       19.2610453514       23.4975865199
H    1.0       18.8096942976       19.3699596481       24.1919085868
H    1.0       20.3256552339       20.1160394646       23.6453682393
H    1.0       20.1966503488       18.3463310743       23.7691794411
 $end
$$$$
! Edit this basic GAMESS input file as needed.
! Conformer was generated by a VeraChem VCPack run 
! and contains    149 atoms.
!
 $contrl scftyp=rhf runtyp=optimize nzvar=0
  maxit=200 icharg=0 $end
 $system mwords=50 $end
 $basis gbasis=pm3 $end
 $statpt nstep=200 $end
 $guess guess=huckel $end
 $data
VM2 Rank=3      G=557.266           E=358.425           -TS=198.841             
C1
C    6.0       16.2591721987       15.3546814906       21.7793083243
H    1.0       15.2193475581       15.1583830026       22.0708146711
O    8.0       16.3879009747       16.6125548252       21.0884421137
C    6.0       17.1845801180       15.3525998854       23.0270337193
H    1.0       17.1016258321       14.3591368211       23.4867955778
O    8.0       16.8014426148       16.3472259828       23.9899393829
H    1.0       15.8702983297       16.6073923059       23.7898653735
C    6.0       18.6583600659       15.5716120901       22.6193882785
H    1.0       18.7454032760       16.5920558710       22.2262089270
O    8.0       19.4893025822       15.4200789344       23.7746585264
H    1.0       19.0343849146       15.9432589190       24.4726536294
C    6.0       19.0947697224       14.5842266748       21.5099193867
H    1.0       19.2059485985       13.5859909945       21.9528141372
C    6.0       18.0655967306       14.5215585067       20.3468791354
H    1.0       18.1075228495       15.4699096308       19.7946956093
O    8.0       16.7322491443       14.3238351391       20.8846032902
C    6.0       18.3407901020       13.3833775717       19.3390015777
H    1.0       19.2930672215       13.5800247299       18.8289185578
H    1.0       17.5535820175       13.3917090008       18.5732365072
O    8.0       18.3850448992       12.1113567125       19.9919147635
H    1.0       17.5186837094       12.0024881279       20.4435725806
C    6.0       14.5524981470       20.2256585445       20.6093772200
H    1.0       13.9417295301       21.1100696963       20.3862229771
O    8.0       15.9293088464       20.5794455221       20.8702289504
C    6.0       13.9751213639       19.4246623087       21.8042623458
H    1.0       12.9921929992       19.0481990186       21.4920015967
O    8.0       13.8044788187       20.2408177139       22.9717437376
H    1.0       14.7088060157       20.5284229630       23.2555853631
C    6.0       14.8730668003       18.2036988389       22.1187808897
H    1.0       15.8288511310       18.5820767108       22.5081243190
O    8.0       14.2279577008       17.4007815695       23.1136066614
H    1.0       13.8342316360       18.0452805949       23.7451303741
C    6.0       15.1744734701       17.3543382152       20.8495958793
H    1.0       14.3281063008       16.6871539178       20.6385850401
C    6.0       15.4646685279       18.2080962685       19.5851668648
H    1.0       16.4872118082       18.5872782631       19.6691636225
O    8.0       14.5383847067       19.3180245576       19.4891116636
C    6.0       15.3617062607       17.3832381534       18.2836793823
H    1.0       14.3352370025       17.0088478211       18.1730315014
H    1.0       16.0285025434       16.5133543023       18.3556645599
O    8.0       15.7247268862       18.1877497015       17.1573839596
H    1.0       15.1530509650       18.9868033262       17.2101986889
C    6.0       18.4589459005       23.6835626249       21.9376469397
H    1.0       18.8889722948       24.6352469734       22.2740969355
O    8.0       19.4574573268       22.8318420929       21.3383396782
C    6.0       17.8144393561       22.9341623920       23.1316985502
H    1.0       17.0343049528       23.5893248922       23.5407764086
O    8.0       18.7781753253       22.6510836081       24.1593888273
H    1.0       19.5257357427       23.2844753217       24.0373129592
C    6.0       17.1453285564       21.6222515570       22.6610461986
H    1.0       17.9348528935       20.9424410127       22.3195211703
O    8.0       16.4507393973       21.0380873699       23.7659775162
H    1.0       17.0898756812       21.0905162998       24.5123221709
C    6.0       16.1808464433       21.8633058863       21.4724716018
H    1.0       15.2606622918       22.3310385397       21.8471773124
C    6.0       16.8218085382       22.7516690491       20.3697940133
H    1.0       17.5945556408       22.1621595805       19.8587657557
O    8.0       17.4241692956       23.9290764120       20.9613011785
C    6.0       15.8101638956       23.2230176341       19.3015415507
H    1.0       15.4242850664       22.3469364387       18.7634266155
H    1.0       16.3355043065       23.8508075680       18.5694096384
O    8.0       14.7311802655       23.9500644803       19.8962129257
H    1.0       15.1393542985       24.7015983846       20.3811684157
C    6.0       23.6117733670       22.7086210069       21.0383418233
H    1.0       24.6699383773       22.9091852344       20.8257837759
O    8.0       23.3936792951       21.3389460749       21.4260192422
C    6.0       23.0830350208       23.6253528671       22.1704768333
H    1.0       23.1838025121       24.6615690162       21.8222021331
O    8.0       23.8431848435       23.4643598365       23.3783999591
H    1.0       23.8480895718       22.4989544321       23.6017263076
C    6.0       21.5805899893       23.3562784363       22.4355868243
H    1.0       21.4853983739       22.3422965178       22.8466413450
O    8.0       21.1085670560       24.3116295352       23.3921228128
H    1.0       21.8396935780       24.3958217945       24.0461903549
C    6.0       20.7540581772       23.4251680078       21.1178999420
H    1.0       20.6604617550       24.4704896503       20.7944307513
C    6.0       21.4126942877       22.6099361471       19.9733312704
H    1.0       21.3120263802       21.5401806915       20.1943454654
O    8.0       22.8119465202       22.9692055082       19.8660340534
C    6.0       20.7508991763       22.8848602021       18.6073156566
H    1.0       20.9260404954       23.9309196599       18.3224945791
H    1.0       19.6661638812       22.7392079803       18.6933978295
O    8.0       21.2823120753       21.9984560381       17.6209760822
H    1.0       22.2585402449       22.0994157348       17.6605389782
C    6.0       25.1482255021       17.7177474748       22.0914943338
H    1.0       25.7723859948       16.8362762859       22.2871285450
O    8.0       23.8248228122       17.3536499400       21.6470119143
C    6.0       25.0242166356       18.5823460235       23.3702205615
H    1.0       26.0292733374       18.9460011043       23.6208649861
O    8.0       24.5117639882       17.8171749721       24.4722716725
H    1.0       24.1553759298       16.9718678814       24.1019053690
C    6.0       24.1234075894       19.8092958364       23.1065359119
H    1.0       23.1026600024       19.4409008748       22.9594839181
O    8.0       24.1519809011       20.6757606611       24.2442260201
H    1.0       24.0468745751       20.0768425269       25.0174107353
C    6.0       24.5513044578       20.5885485915       21.8355257652
H    1.0       25.3951472015       21.2415470127       22.0956610969
C    6.0       24.9316033879       19.6715359030       20.6355058254
H    1.0       24.0019170101       19.2949844926       20.1887086335
O    8.0       25.7422203691       18.5519565153       21.0757717771
C    6.0       25.7087675934       20.4084084672       19.5223253766
H    1.0       25.0646159347       21.1846234385       19.0885768405
H    1.0       25.9417003009       19.6936709473       18.7216356188
O    8.0       26.9109887693       20.9926486041       20.0314513472
H    1.0       27.4304682880       20.2564301603       20.4248608140
C    6.0       21.3920603589       14.1106571747       20.7763477111
H    1.0       20.9832655231       13.1423108010       20.4603511423
O    8.0       20.3405976087       15.0800006936       20.9772498910
C    6.0       22.2502401338       13.9572008091       22.0648828770
H    1.0       23.0681771688       13.2669033633       21.8207030114
O    8.0       21.5004662456       13.4113826168       23.1602592427
H    1.0       20.8075002352       14.0802163814       23.3920524386
C    6.0       22.8807597620       15.3087092783       22.4753314887
H    1.0       22.0692003781       15.9784375559       22.7914750458
O    8.0       23.7862226156       15.0989410500       23.5629568027
H    1.0       23.3244435271       14.4718340382       24.1642304125
C    6.0       23.6226187536       15.9745898790       21.2887117885
H    1.0       24.5710600760       15.4538060108       21.1004627448
C    6.0       22.7798740069       15.9663748824       19.9876450958