$$$$
! Edit this basic GAMESS input file as needed.
! Conformer was generated by a VeraChem VCPack run 
! and contains    145 atoms.
!
 $contrl scftyp=rhf runtyp=optimize nzvar=0
  maxit=200 icharg=0 $end
 $system mwords=50 $end
 $basis gbasis=pm3 $end
 $statpt nstep=200 $end
 $guess guess=huckel $end
 $data
VM2 Rank=1      G=488.790           E=301.578           -TS=187.212             
C1
C    6.0       16.1912946611       15.2920639859       21.7213601867
H    1.0       15.1214459301       15.1209922685       21.8957408672
O    8.0       16.4429170739       16.6140304519       21.2062349043
C    6.0       16.9857321789       15.0989738760       23.0368608007
H    1.0       16.8369705081       14.0592354803       23.3561695443
O    8.0       16.5210315387       15.9737951912       24.0732332593
H    1.0       17.2215379677       15.9287449729       24.7626698845
C    6.0       18.4992070110       15.3066518762       22.8051451785
H    1.0       18.6724521155       16.3627742408       22.5577873299
O    8.0       19.2042308825       14.9523409629       24.0003643175
H    1.0       20.1034690862       14.6573055637       23.7198765064
C    6.0       19.0134257281       14.4468088515       21.6250508592
H    1.0       19.0881395449       13.4036433138       21.9610410934
C    6.0       18.0917280864       14.5386982260       20.3745913609
H    1.0       18.2140821622       15.5350451174       19.9294779202
O    8.0       16.7068057296       14.3440649757       20.7617396372
C    6.0       18.4233822106       13.4977667972       19.2821990167
H    1.0       19.4249800837       13.7041451370       18.8823338995
H    1.0       17.7121058037       13.6170760810       18.4539803432
O    8.0       18.3626918730       12.1657924812       19.8007219066
H    1.0       17.4558227464       12.0526095981       20.1630119711
C    6.0       14.6550506996       20.2391439611       20.4947443348
H    1.0       14.0457350769       21.1021604171       20.1969386758
O    8.0       15.9893551570       20.6368365226       20.8774009068
C    6.0       13.9892305713       19.4519388753       21.6534282913
H    1.0       13.0495140012       19.0384542807       21.2655590713
O    8.0       13.6854669718       20.3164163067       22.7583301481
H    1.0       14.5497058705       20.5773421961       23.1630566296
C    6.0       14.8921420520       18.2605663642       22.0732271153
H    1.0       15.8109298091       18.6692862460       22.5166307611
O    8.0       14.2193409535       17.4369302983       23.0326492582
H    1.0       14.9282881701       16.9267333671       23.4961711074
C    6.0       15.2894490806       17.3949863879       20.8426791568
H    1.0       14.4435145191       16.7552384750       20.5576783024
C    6.0       15.7108958703       18.2279209616       19.6017186027
H    1.0       16.7212955424       18.6218789601       19.7646921868
O    8.0       14.7763726740       19.3159269542       19.3934246536
C    6.0       15.7316606728       17.3725759968       18.3180009316
H    1.0       14.7159468072       17.0130757595       18.1057394307
H    1.0       16.3710039047       16.4943158676       18.4793187762
O    8.0       16.2291492667       18.1439357166       17.2231176010
H    1.0       15.7254889671       18.9881555210       17.2358405562
C    6.0       18.3786232065       23.7890100252       21.9972113549
H    1.0       18.8161483638       24.7416059677       22.3208772923
O    8.0       19.3822570452       22.8926271056       21.4726583402
C    6.0       17.6716887589       23.0947465272       23.1874884293
H    1.0       16.8644011066       23.7582221565       23.5233799864
O    8.0       18.6064399216       22.9123813357       24.2652367813
H    1.0       18.3395341939       22.1027872657       24.7739027654
C    6.0       17.0253639667       21.7582346581       22.7351308581
H    1.0       17.8284837868       21.0495205400       22.4975473288
O    8.0       16.2046901391       21.2328725617       23.7858405597
H    1.0       16.8194410915       20.9017336117       24.4918714894
C    6.0       16.1538723723       21.9426818933       21.4620291744
H    1.0       15.1923529628       22.3851182000       21.7543548221
C    6.0       16.8315907048       22.8232899920       20.3756501874
H    1.0       17.6329191254       22.2344925493       19.9109204236
O    8.0       17.3897837184       24.0175748215       20.9728281162
C    6.0       15.8685647109       23.2635605266       19.2507387769
H    1.0       15.5213290108       22.3741539709       18.7084643918
H    1.0       16.4235412217       23.8856575076       18.5356829844
O    8.0       14.7526862560       23.9875418988       19.7772809705
H    1.0       15.1289653937       24.7449783284       20.2786136360
C    6.0       23.5426541150       22.7200230475       21.1147634651
H    1.0       24.5936767453       22.9410884316       20.8888637858
O    8.0       23.3591560156       21.3496431852       21.5150461661
C    6.0       23.0228790931       23.6302354069       22.2570048881
H    1.0       23.1279450876       24.6707089540       21.9232489655
O    8.0       23.7792321429       23.4400758892       23.4612126363
H    1.0       23.2834296740       23.9443221024       24.1451903564
C    6.0       21.5236746928       23.3666047468       22.5366189551
H    1.0       21.4305259421       22.3471737685       22.9337290177
O    8.0       21.0567730469       24.3064663020       23.5118816917
H    1.0       20.2274521233       23.9156765620       23.8854483325
C    6.0       20.6866772848       23.4546434029       21.2292602766
H    1.0       20.6137916929       24.5003400559       20.9023531266
C    6.0       21.3219050958       22.6134707512       20.0892775461
H    1.0       21.2185040402       21.5492983432       20.3410364734
O    8.0       22.7232878886       22.9561805714       19.9506646356
C    6.0       20.6501637155       22.8416357682       18.7170425038
H    1.0       19.5902292141       22.5658674482       18.7849060803
H    1.0       21.1164792064       22.1721377442       17.9820874097
O    8.0       20.7808550048       24.2038123383       18.2994847847
H    1.0       21.7407652387       24.4103834802       18.3473801823
C    6.0       25.1915198108       17.6848493813       21.7391270482
H    1.0       25.8636993113       16.8193706003       21.7948923966
O    8.0       23.8162558664       17.2881086229       21.5667624054
C    6.0       25.3065718740       18.5319137753       23.0297285625
H    1.0       26.3380638428       18.9028806475       23.0892282968
O    8.0       25.0189991441       17.7499486710       24.1969154696
H    1.0       24.9284863196       18.4106862872       24.9201744047
C    6.0       24.3641016963       19.7544147836       22.9649517626
H    1.0       23.3305528338       19.3871266563       22.9984249014
O    8.0       24.6138943088       20.6138776221       24.0837493736
H    1.0       24.1691639172       21.4738276772       23.8826945172
C    6.0       24.5496828404       20.5540929613       21.6518500722
H    1.0       25.4512531490       21.1736819561       21.7480188555
C    6.0       24.6534840647       19.6527879443       20.3880406968
H    1.0       23.6499201035       19.2728143615       20.1546686911
O    8.0       25.5505396157       18.5400840790       20.6336775447
C    6.0       25.1704230839       20.4020525863       19.1398551251
H    1.0       24.4521124694       21.1860054335       18.8668779338
H    1.0       25.2173699144       19.6963417433       18.2996847682
O    8.0       26.4595829405       20.9744501490       19.3789096541
H    1.0       27.0432820552       20.2310798126       19.6497181255
C    6.0       21.3317479558       14.0238206812       20.9614836386
H    1.0       20.9055805894       13.0466742223       20.7001541396
O    8.0       20.3003319313       14.9848294204       21.2632421174
C    6.0       22.2927423641       13.9013026868       22.1744004374
H    1.0       23.0939050574       13.2086835254       21.8852923930
O    8.0       21.6257240864       13.3874761884       23.3341350225
H    1.0       22.2931702989       13.4515476444       24.0541336752
C    6.0       22.9430898768       15.2644360615       22.5083340740
H    1.0       22.1556822696       15.9393228966       22.8722492042
O    8.0       23.9370244129       15.0838813207       23.5245505313
H    1.0       24.2578595043       15.9879713053       23.7686009205
C    6.0       23.5837045379       15.9040222925       21.2512177663
H    1.0       24.5127579183       15.3740458901       21.0028085046
C    6.0       22.6381157435       15.8704671462       20.0220162775
H    1.0       21.8249365660       16.5863158946       20.1927730467
O    8.0       22.0969405895       14.5366882556       19.8509973329
C    6.0       23.3452912900       16.2598715412       18.7052243380
H    1.0       23.7541492946       17.2737746229       18.8020103763
H    1.0       22.6003193015       16.2807834292       17.8986687609
O    8.0       24.3908521266       15.3351450530       18.3912572237
H    1.0       23.9763465611       14.4437013351       18.4035775628
C    6.0       18.9572148673       19.4761474700       25.4667368423
O    8.0       19.5484503364       19.0336134821       26.4315016939
O    8.0       18.2053219480       20.4320996528       25.5133819186
C    6.0       19.1820321491       18.8122782885       24.1121346274
H    1.0       18.2254164800       18.8042289296       23.5785711247
H    1.0       19.4622717513       17.7687668499       24.2936877948
C    6.0       20.2810183587       19.5140754778       23.2728683828
H    1.0       20.0181306850       20.5693146343       23.1302062066
H    1.0       21.2136345452       19.5045285735       23.8516944368
C    6.0       20.5315485784       18.8485636013       21.8987801863
H    1.0       20.7067249307       17.7737233829       22.0363311917
H    1.0       21.4535025531       19.2623340085       21.4711240465
C    6.0       19.3762963356       19.0717055751       20.8984111911
H    1.0       18.4512475157       18.6314223017       21.2905709285
H    1.0       19.1927276779       20.1476041860       20.7815204139
C    6.0       19.6878695205       18.4584173756       19.5187305939
H    1.0       18.8891573210       18.6889243073       18.8023168121
H    1.0       20.6286451856       18.8541763354       19.1154807802
H    1.0       19.7713801497       17.3672316578       19.5883603025
 $end
$$$$
! Edit this basic GAMESS input file as needed.
! Conformer was generated by a VeraChem VCPack run 
! and contains    145 atoms.
!
 $contrl scftyp=rhf runtyp=optimize nzvar=0
  maxit=200 icharg=0 $end
 $system mwords=50 $end
 $basis gbasis=pm3 $end
 $statpt nstep=200 $end
 $guess guess=huckel $end
 $data
VM2 Rank=2      G=488.891           E=301.500           -TS=187.391             
C1
C    6.0       16.2071424690       15.3142725832       21.6586767249
H    1.0       15.1354330389       15.1456936409       21.8238227070
O    8.0       16.4661504989       16.6361680390       21.1458126114
C    6.0       16.9902064041       15.1193965040       22.9807679376
H    1.0       16.8366567614       14.0798685749       23.2984880282
O    8.0       16.5192479493       15.9947186948       24.0139259440
H    1.0       17.2141394007       15.9478009267       24.7088725582
C    6.0       18.5060656532       15.3237054194       22.7611657088
H    1.0       18.6832584671       16.3796570232       22.5160622621
O    8.0       19.2010334595       14.9670205479       23.9615796996
H    1.0       20.1014795344       14.6695196755       23.6877436381
C    6.0       19.0288171595       14.4640364466       21.5845516131
H    1.0       19.1025811795       13.4210859197       21.9214168569
C    6.0       18.1156301926       14.5541716569       20.3278965114
H    1.0       18.2416433357       15.5493715164       19.8816762517
O    8.0       16.7286506468       14.3622064992       20.7064830017
C    6.0       18.4524625404       13.5105397786       19.2396620707
H    1.0       19.4557823631       13.7160961095       18.8437545101
H    1.0       17.7446025939       13.6276854679       18.4081484293
O    8.0       18.3897224094       12.1797859357       19.7610423152
H    1.0       17.4806063739       12.0669091813       20.1177981987
C    6.0       14.6986795191       20.2719434506       20.4364808752
H    1.0       14.0960245765       21.1399123915       20.1395016209
O    8.0       16.0296546152       20.6621919858       20.8376093526
C    6.0       14.0158340522       19.4777531670       21.5808603736
H    1.0       13.0797277865       19.0700033060       21.1784443374
O    8.0       13.7017730108       20.3360536224       22.6878513254
H    1.0       14.5619218529       20.5897770748       23.1056941734
C    6.0       14.9091142605       18.2805834095       22.0046738375
H    1.0       15.8258552756       18.6840508065       22.4569498795
O    8.0       14.2253436339       17.4579746894       22.9573732067
H    1.0       14.9287443037       16.9443138358       23.4253453706
C    6.0       15.3139146553       17.4171894201       20.7752145004
H    1.0       14.4704047434       16.7767217270       20.4851992703
C    6.0       15.7451408958       18.2566641185       19.5405636069
H    1.0       16.7537329409       18.6462199141       19.7223960264
O    8.0       14.8308109082       19.3608107437       19.3269549569
C    6.0       15.7973621906       17.4254613975       18.2398605582
H    1.0       16.4963318604       16.5896202599       18.3771603941
H    1.0       16.1931205676       18.0573996625       17.4336934271
O    8.0       14.4999995553       16.9325142818       17.8920659011
H    1.0       13.9082554208       17.7175024798       17.8714679725
C    6.0       18.4086928828       23.8054426095       22.0041076466
H    1.0       18.8435061198       24.7553187835       22.3392410188
O    8.0       19.4169966697       22.9124767623       21.4826004480
C    6.0       17.6894438017       23.1028372429       23.1820822154
H    1.0       16.8792391373       23.7643611359       23.5147871884
O    8.0       18.6132928032       22.9119761906       24.2676620119
H    1.0       18.3406562702       22.0989233507       24.7677009489
C    6.0       17.0468494861       21.7700756508       22.7135588054
H    1.0       17.8517977205       21.0623897546       22.4794043507
O    8.0       16.2143098735       21.2377854992       23.7514201589
H    1.0       16.8212154218       20.9004217738       24.4612904382
C    6.0       16.1890309912       21.9640649018       21.4328401623
H    1.0       15.2248588788       22.4049273802       21.7187802195
C    6.0       16.8776514513       22.8527372136       20.3599139447
H    1.0       17.6833835595       22.2673398522       19.8986163922
O    8.0       17.4302414056       24.0422051613       20.9716796986
C    6.0       15.9259264111       23.3021754056       19.2289834685
H    1.0       15.5840324298       22.4172560516       18.6760245350
H    1.0       16.4880439719       23.9299769877       18.5245678297
O    8.0       14.8049095599       24.0220750443       19.7501564631
H    1.0       15.1761820672       24.7756506050       20.2609621323
C    6.0       23.5799402816       22.7374350263       21.1636911031
H    1.0       24.6336136208       22.9582097814       20.9502018559
O    8.0       23.3895322516       21.3639304208       21.5499631588
C    6.0       23.0505343211       23.6389664772       22.3084104449
H    1.0       23.1604373081       24.6820020339       21.9843416583
O    8.0       23.7948565614       23.4376632786       23.5182562144
H    1.0       23.2933514946       23.9372399627       24.2015095322
C    6.0       21.5482749959       23.3754755476       22.5712439342
H    1.0       21.4497688508       22.3529776968       22.9590402552
O    8.0       21.0732056194       24.3079962082       23.5495958304
H    1.0       20.2395850550       23.9155603925       23.9116874882
C    6.0       20.7240754598       23.4757142694       21.2566609337
H    1.0       20.6550549650       24.5243516034       20.9384392590
C    6.0       21.3694320050       22.6442881881       20.1152116658
H    1.0       21.2616903638       21.5779832872       20.3558806623
O    8.0       22.7727215388       22.9855990448       19.9936624413
C    6.0       20.7118254854       22.8866869913       18.7385930686
H    1.0       19.6507198004       22.6126055308       18.7934163411
H    1.0       21.1841326135       22.2231725268       18.0020437343
O    8.0       20.8492794015       24.2524070991       18.3351086642
H    1.0       21.8090569061       24.4566345666       18.3945496241
C    6.0       25.2107773244       17.6930294590       21.7650768796
H    1.0       25.8803859715       16.8255581685       21.8207911728
O    8.0       23.8360956490       17.3007936968       21.5776930306
C    6.0       25.3167502269       18.5311610475       23.0623006137
H    1.0       26.3485353004       18.8993378132       23.1330290053
O    8.0       25.0175024732       17.7424117666       24.2219155261
H    1.0       24.9220870345       18.3987794122       24.9485375622
C    6.0       24.3777097390       19.7562228258       22.9976549862
H    1.0       23.3431202835       19.3910517912       23.0190193530
O    8.0       24.6193642351       20.6070522178       24.1248066544
H    1.0       24.1781148082       21.4693833989       23.9262465521
C    6.0       24.5769477825       20.5645912622       21.6919502644
H    1.0       25.4791167009       21.1812648849       21.8004464318
C    6.0       24.6898797196       19.6717757201       20.4229000198
H    1.0       23.6875216716       19.2960842534       20.1777681703
O    8.0       25.5817177401       18.5549095330       20.6687346840
C    6.0       25.2200490747       20.4285471933       19.1848446000
H    1.0       24.5065505261       21.2167342175       18.9114047787
H    1.0       25.2722659421       19.7288804022       18.3399441083
O    8.0       26.5087781380       20.9951802779       19.4394551347
H    1.0       27.0877440169       20.2480720314       19.7101533905
C    6.0       21.3509385377       14.0433998337       20.9335987426
H    1.0       20.9264398764       13.0679846174       20.6632670929
O    8.0       20.3173840477       15.0035350215       21.2306818988
C    6.0       22.3006699314       13.9134994879       22.1546183923
H    1.0       23.1032451272       13.2209253483       21.8693419666
O    8.0       21.6224892368       13.3951244363       23.3058505307
H    1.0       22.2838511060       13.4538803407       24.0318922277
C    6.0       22.9504002109       15.2737196451       22.5012929597
H    1.0       22.1611188780       15.9481087717       22.8620710574
O    8.0       23.9351865903       15.0854501267       23.5249586558
H    1.0       24.2559022702       15.9874326964       23.7768317768
C    6.0       23.6030074435       15.9187963161       21.2531672618
H    1.0       24.5329400667       15.3880568647       21.0097251906
C    6.0       22.6677805307       15.8936129343       20.0158640398
H    1.0       21.8539858388       16.6095343508       20.1836048904
O    8.0       22.1264242685       14.5615191814       19.8326947101
C    6.0       23.3868141315       16.2895332218       18.7074478622
H    1.0       23.7964584820       17.3021928656       18.8136743926
H    1.0       22.6488478617       16.3163558976       17.8946663058
O    8.0       24.4335530309       15.3649581701       18.3970174369
H    1.0       24.0176054911       14.4741043003       18.4007201872
C    6.0       18.9559680201       19.4713053803       25.4415955025
O    8.0       19.5477363225       19.0277001270       26.4055307681
O    8.0       18.1983357152       20.4225414174       25.4911751617
C    6.0       19.1878456800       18.8153581718       24.0843157497
H    1.0       18.2342846368       18.8107211281       23.5452439953
H    1.0       19.4665882288       17.7708193658       24.2618346613
C    6.0       20.2921974316       19.5208679568       23.2553165463
H    1.0       20.0314565386       20.5771971653       23.1171987349
H    1.0       21.2211499946       19.5070557760       23.8398327773
C    6.0       20.5504513442       18.8626542170       21.8790835952
H    1.0       20.7213797172       17.7865442600       22.0119060443
H    1.0       21.4769085180       19.2760359391       21.4607702116
C    6.0       19.4030524261       19.0951806841       20.8717030143
H    1.0       18.4736300152       18.6572111807       21.2561560627
H    1.0       19.2251869066       20.1725539894       20.7591508830
C    6.0       19.7217734078       18.4870164669       19.4912627403
H    1.0       18.9317333436       18.7281435897       18.7695765188
H    1.0       20.6690772867       18.8784447806       19.0989576758
H    1.0       19.7981589470       17.3948629416       19.5563430897
 $end
$$$$
! Edit this basic GAMESS input file as needed.
! Conformer was generated by a VeraChem VCPack run 
! and contains    145 atoms.
!
 $contrl scftyp=rhf runtyp=optimize nzvar=0
  maxit=200 icharg=0 $end
 $system mwords=50 $end
 $basis gbasis=pm3 $end
 $statpt nstep=200 $end
 $guess guess=huckel $end
 $data
VM2 Rank=3      G=489.269           E=302.139           -TS=187.130             
C1
C    6.0       16.1689726743       15.0329829440       21.3640892283
H    1.0       15.0826573890       14.8784641387       21.3571590207
O    8.0       16.5144440055       16.4295974640       21.2718373464
C    6.0       16.7806484770       14.4534976378       22.6626504814
H    1.0       16.5884792348       13.3726559385       22.6627177496
O    8.0       16.1852411108       15.0372924201       23.8292501250
H    1.0       16.7673326548       14.7545852150       24.5703326420
C    6.0       18.3110209218       14.6641807367       22.6865666404
H    1.0       18.5039336688       15.7405502356       22.7790778542
O    8.0       18.8713195739       13.9689219936       23.8068859994
H    1.0       19.8476789224       13.9296468370       23.6552982387
C    6.0       18.9796729087       14.1636597425       21.3820912128
H    1.0       19.0631930063       13.0698614989       21.4329613590
C    6.0       18.2116096029       14.5803052031       20.0950929625
H    1.0       18.3917159868       15.6493110842       19.9195209283
O    8.0       16.7895208756       14.3463028490       20.2568692008
C    6.0       18.6707111657       13.8165812494       18.8331837394
H    1.0       19.7218938807       14.0583348607       18.6285722532
H    1.0       18.0822221785       14.1678958095       17.9750619570
O    8.0       18.5116090095       12.4044629048       18.9986486973
H    1.0       17.5631729946       12.2591376018       19.2131406968
C    6.0       14.9381448943       20.2338822616       20.7857545326
H    1.0       14.3150890640       21.1023889605       20.5363212617
O    8.0       16.2644820331       20.6338616107       21.1845263476
C    6.0       14.2900715641       19.3960029491       21.9203705161
H    1.0       13.3095577089       19.0612995751       21.5574180866
O    8.0       14.1089773728       20.1658967318       23.1155693706
H    1.0       13.7945141034       19.5167278669       23.7846525168
C    6.0       15.1335374353       18.1378488175       22.2338847247
H    1.0       16.0872752258       18.4654441846       22.6709380040
O    8.0       14.4284995029       17.3114278279       23.1682205459
H    1.0       15.0435870869       16.5755751258       23.4132939024
C    6.0       15.4439060706       17.3338679875       20.9463828806
H    1.0       14.5401692657       16.8041244187       20.6172022121
C    6.0       15.9491540461       18.2371727760       19.7910870283
H    1.0       16.9619778784       18.5778497696       20.0378501865
O    8.0       15.0674535206       19.3767022940       19.6323954040
C    6.0       16.0125946644       17.5025831570       18.4338740555
H    1.0       16.4438192383       18.1815153155       17.6861770611
H    1.0       16.6855265750       16.6400372046       18.5222714446
O    8.0       14.7118304577       17.0722367660       18.0219084199
H    1.0       14.1417690165       17.8729227440       18.0458779293
C    6.0       18.5382171942       24.0114837643       21.9551400616
H    1.0       18.9115958563       25.0123762959       22.2062768847
O    8.0       19.5863836465       23.1629110685       21.4479495217
C    6.0       17.9083204326       23.3471596774       23.2040525001
H    1.0       17.0644499463       23.9762025803       23.5160105301
O    8.0       18.8448030164       23.2556211228       24.2858538984
H    1.0       18.4233420673       22.6343661879       24.9217435914
C    6.0       17.3500409967       21.9471634875       22.8635081843
H    1.0       18.1929017841       21.2849409057       22.6235470760
O    8.0       16.6295053317       21.4467984880       23.9955925166
H    1.0       15.9436506533       20.8307585912       23.6428509666
C    6.0       16.4130745786       21.9954386357       21.6320885431
H    1.0       15.4527007380       22.4294861946       21.9418405510
C    6.0       17.0149989258       22.8179965064       20.4562101489
H    1.0       17.8417825095       22.2411499682       20.0209348190
O    8.0       17.5118347931       24.0916152394       20.9426026947
C    6.0       16.0059131560       23.1105900918       19.3235283892
H    1.0       15.7104087269       22.1635772552       18.8528759727
H    1.0       16.5053094313       23.7138888409       18.5536354683
O    8.0       14.8532389056       23.7963155088       19.8213119761
H    1.0       15.1846794936       24.6171261543       20.2489707060
C    6.0       23.6471037157       22.9626010728       20.8891550797
H    1.0       24.7086006822       23.0868685131       20.6417210192
O    8.0       23.3243896432       21.5834284227       21.1746745024
C    6.0       23.2417295728       23.8646951007       22.0832534675
H    1.0       23.3527268346       24.9056649841       21.7536647103
O    8.0       24.1062663042       23.6503858484       23.2083222199
H    1.0       23.8855143245       22.7570289237       23.5712714416
C    6.0       21.7462023785       23.6385464002       22.4331787442
H    1.0       21.6344976292       22.6119395235       22.8090485161
O    8.0       21.3189498175       24.5678830939       23.4358020109
H    1.0       20.5016609787       24.1798781255       23.8349841093
C    6.0       20.8490657043       23.7958467829       21.1716459806
H    1.0       20.7236426211       24.8628211425       20.9436476602
C    6.0       21.4157188189       23.0908625865       19.9092015138
H    1.0       21.2534162247       22.0102818950       20.0025242584
O    8.0       22.8306310718       23.3755611959       19.7748343846
C    6.0       20.7147692494       23.5715736504       18.6217281978
H    1.0       20.9169313018       24.6412348527       18.4770738307
H    1.0       19.6292772097       23.4480204458       18.7333277846
O    8.0       21.1787159047       22.8177649261       17.5002695394
H    1.0       22.1603321184       22.8248719687       17.5558733100
C    6.0       24.8067123368       17.8842802699       22.2222718355
H    1.0       25.4061155521       17.0224143907       22.5412676454
O    8.0       23.5559001306       17.4733850208       21.6312721449
C    6.0       24.5040634337       18.7990492491       23.4335743529
H    1.0       25.4659579290       19.1507651797       23.8282379739
O    8.0       23.8294298775       18.0411275381       24.4529145941
H    1.0       23.2380476282       18.6580329583       24.9578660613
C    6.0       23.6930882057       20.0458073430       22.9898207987
H    1.0       22.6880471935       19.7168484140       22.6973128448
O    8.0       23.6056537697       20.9764271027       24.0752470181
H    1.0       22.9771029552       20.5857788811       24.7376271010
C    6.0       24.3426789043       20.7524875529       21.7659045789
H    1.0       25.2062883109       21.3389919473       22.1068237115
C    6.0       24.7886934325       19.7584750885       20.6588883580
H    1.0       23.8919362006       19.3812427839       20.1500737744
O    8.0       25.5309053848       18.6662707438       21.2522736170
C    6.0       25.7015702722       20.4104369793       19.6002504434
H    1.0       26.6310940528       20.7457510495       20.0795040743
H    1.0       25.2012521290       21.2918807515       19.1786826046
O    8.0       25.9820460897       19.4724754475       18.5593614854
H    1.0       26.2230759196       18.6298720266       19.0073665941
C    6.0       21.3872353162       13.9715432324       20.9767471166
H    1.0       21.0690239018       12.9612340755       20.6894485205
O    8.0       20.2676981321       14.8029334634       21.3351920138
C    6.0       22.3590007566       13.9201405250       22.1836434481
H    1.0       23.2325856553       13.3292679013       21.8790828844
O    8.0       21.7456011866       13.3046014158       23.3247960560
H    1.0       22.3838054003       13.4557435159       24.0582232711
C    6.0       22.8480507810       15.3397176384       22.5569941838
H    1.0       21.9818176142       15.9094735627       22.9184005756
O    8.0       23.8275358241       15.2429607833       23.5981459426
H    1.0       23.8829350679       16.1459979364       24.0001362025
C    6.0       23.4267914868       16.0741911588       21.3159364922
H    1.0       24.3959067784       15.6360564505       21.0429128581
C    6.0       22.4722988284       15.9836414481       20.0948575612
H    1.0       21.5856852725       16.5999786669       20.2970160120
O    8.0       22.0785833596       14.6050895301       19.8797405735
C    6.0       23.1171579068       16.4922163258       18.7858839665
H    1.0       23.4058128001       17.5438074396       18.9100246134
H    1.0       22.3671748935       16.4507222011       17.9849276118
O    8.0       24.2600095387       15.7052311481       18.4362398839
H    1.0       23.9524953664       14.7717290822       18.4255095043
C    6.0       20.6297765319       19.3794231246       25.5527941718