$$$$
! Edit this basic GAMESS input file as needed.
! Conformer was generated by a VeraChem VCPack run 
! and contains    146 atoms.
!
 $contrl scftyp=rhf runtyp=optimize nzvar=0
  maxit=200 icharg=0 $end
 $system mwords=50 $end
 $basis gbasis=pm3 $end
 $statpt nstep=200 $end
 $guess guess=huckel $end
 $data
VM2 Rank=1      G=525.190           E=332.847           -TS=192.343             
C1
C    6.0       16.3702505465       15.2601376104       20.8260667761
H    1.0       15.3221830761       15.1223169506       20.5301469359
O    8.0       16.6323571440       16.6194189902       21.2304097064
C    6.0       16.7426349927       14.3063394138       21.9917832748
H    1.0       16.5673418739       13.2803730444       21.6426794148
O    8.0       15.9389874736       14.5531232433       23.1531947856
H    1.0       16.3176087182       13.9681356293       23.8476255668
C    6.0       18.2395864605       14.4351666099       22.3601212284
H    1.0       18.3944792063       15.4285352750       22.8017471856
O    8.0       18.5845294819       13.4232334158       23.3133359880
H    1.0       19.4966805848       13.6350844361       23.6337337512
C    6.0       19.1435549598       14.3166482302       21.1057717890
H    1.0       19.1740262856       13.2713407561       20.7699584810
C    6.0       18.6480676503       15.1990870811       19.9311689451
H    1.0       18.8228110867       16.2549643501       20.1745707188
O    8.0       17.2375603642       14.9540259429       19.7144011244
C    6.0       19.3815897021       14.8737837147       18.6136848219
H    1.0       19.1457291321       13.8445860792       18.3115202735
H    1.0       20.4654370063       14.9330876965       18.7750631093
O    8.0       18.9900674996       15.7979466205       17.5972995902
H    1.0       18.0077114214       15.7774370095       17.5739060488
C    6.0       14.7871169778       20.2916393188       21.6385532451
H    1.0       14.0959170151       21.1334910858       21.7723755160
O    8.0       16.1093360907       20.7381597396       21.2766695499
C    6.0       14.8693301738       19.4598446739       22.9421199410
H    1.0       13.8620296894       19.0739395944       23.1463516582
O    8.0       15.2995330081       20.2578668373       24.0529600801
H    1.0       15.4689374110       19.6069263037       24.7703612509
C    6.0       15.8129662121       18.2497829790       22.7691875078
H    1.0       16.8374972590       18.6281243497       22.6626629142
O    8.0       15.7150154789       17.4100897568       23.9256438826
H    1.0       15.9556393224       16.4964407682       23.6361507930
C    6.0       15.4714124236       17.4288668067       21.5024101784
H    1.0       14.5858347479       16.8152138253       21.7167348840
C    6.0       15.2126067273       18.3192382563       20.2523025492
H    1.0       16.1760831988       18.7202416717       19.9102876855
O    8.0       14.3219005776       19.4127295381       20.5924280859
C    6.0       14.5821458572       17.5539972287       19.0673452481
H    1.0       15.2945223244       16.8006785866       18.7063546059
H    1.0       14.4099614638       18.2592932855       18.2432763390
O    8.0       13.3539279789       16.9284056070       19.4499776253
H    1.0       12.7689986762       17.6470984251       19.7784202148
C    6.0       18.4054531133       24.1118693756       20.7000407121
H    1.0       18.8364774627       25.0873826537       20.4405981757
O    8.0       19.4266984182       23.1582648995       21.0598876918
C    6.0       17.3752414365       24.2386851010       21.8531294023
H    1.0       16.5539893397       24.8687014239       21.4870074973
O    8.0       17.9406649068       24.8461104545       23.0208064690
H    1.0       17.2261953365       24.8021495653       23.6962789305
C    6.0       16.7871275677       22.8529310142       22.2082102819
H    1.0       17.5932866064       22.2372054572       22.6304473017
O    8.0       15.7443498729       23.0119924832       23.1767582264
H    1.0       15.5622508262       22.1090602570       23.5387992363
C    6.0       16.2413143370       22.1329998848       20.9462455011
H    1.0       15.2799440274       22.5775131542       20.6555047733
C    6.0       17.2067262562       22.2096555473       19.7326872515
H    1.0       18.0469244471       21.5241438754       19.9015185229
O    8.0       17.6893246092       23.5680081693       19.5710777040
C    6.0       16.5084382268       21.8003318319       18.4195331502
H    1.0       15.7159079314       22.5248261767       18.1889043098
H    1.0       16.0350369840       20.8182898528       18.5512710798
O    8.0       17.4614335253       21.7431536824       17.3568788797
H    1.0       17.9385563879       22.6028667452       17.3717419155
C    6.0       23.3561228830       22.6382417969       22.1337201399
H    1.0       24.3972251554       22.7316310474       22.4672036436
O    8.0       23.1103410263       21.3595365674       21.5109562455
C    6.0       22.3920720562       22.7959013475       23.3365969562
H    1.0       22.5744116916       23.7862171406       23.7732767251
O    8.0       22.6495198652       21.7862848417       24.3282426252
H    1.0       23.5886383198       21.5042016689       24.2146972158
C    6.0       20.9157290336       22.7385782546       22.8700635754
H    1.0       20.7076582029       21.7169049093       22.5356644443
O    8.0       20.0478492061       23.0714759700       23.9595344121
H    1.0       19.2819848532       23.5612346791       23.5759154551
C    6.0       20.6300210270       23.6695095041       21.6651108177
H    1.0       20.5090455086       24.6998576110       22.0259763638
C    6.0       21.7360161719       23.6045922314       20.5743907642
H    1.0       21.6337059258       22.6515884910       20.0387208754
O    8.0       23.0485187599       23.6775166213       21.1813172262
C    6.0       21.6343024692       24.7373313758       19.5287952557
H    1.0       20.6944987031       24.6269977190       18.9718146407
H    1.0       22.4552989869       24.6270171503       18.8077152708
O    8.0       21.6902776816       26.0238948192       20.1514417696
H    1.0       22.5352871506       26.0508392262       20.6533536949
C    6.0       25.0469773668       17.6938614664       21.1140127916
H    1.0       25.7473164619       16.8829374386       20.8757127674
O    8.0       23.7567493590       17.1869339985       21.5056475053
C    6.0       25.5902483907       18.5750517153       22.2691012245
H    1.0       26.5497415121       18.9953030048       21.9397195671
O    8.0       25.7903728005       17.8047357856       23.4676470934
H    1.0       26.5631318481       17.2195927022       23.3171976306
C    6.0       24.6272957646       19.7527751957       22.5587243477
H    1.0       23.7026570283       19.3311237662       22.9721912426
O    8.0       25.2383729927       20.6122695912       23.5272585449
H    1.0       25.6243383745       19.9994419961       24.1939415754
C    6.0       24.2667786695       20.5339372741       21.2616199094
H    1.0       25.1255272787       21.1402168407       20.9438227595
C    6.0       23.8702022541       19.5856431781       20.0998446293
H    1.0       22.8856237877       19.1496517010       20.3150749414
O    8.0       24.8677658206       18.5446423310       19.9634614771
C    6.0       23.7877280462       20.3282792419       18.7501542189
H    1.0       24.7794305493       20.7233462133       18.4920800791
H    1.0       23.1030525549       21.1810769006       18.8460426040
O    8.0       23.3205669828       19.4408170683       17.7326963047
H    1.0       23.9069822808       18.6531430177       17.7694178217
C    6.0       21.4571531038       13.7983150113       21.7157928134
H    1.0       21.0257506090       12.7911848119       21.7784718246
O    8.0       20.4474029590       14.8014958675       21.4749491472
C    6.0       22.2026619901       14.1387476280       23.0290583746
H    1.0       23.0269861562       13.4219749681       23.1384796923
O    8.0       21.3326264838       14.0379869036       24.1644365348
H    1.0       21.8456730377       14.4328565432       24.9050480608
C    6.0       22.8071713962       15.5568761457       22.9532505355
H    1.0       21.9735473417       16.2658705294       22.9267159029
O    8.0       23.6187555179       15.8041206784       24.1077368436
H    1.0       24.1384164435       16.6236219017       23.9224826633
C    6.0       23.6495305658       15.7606080629       21.6703254989
H    1.0       24.6289541133       15.2872801296       21.8204925441
C    6.0       22.9707339686       15.1939302892       20.3891349631
H    1.0       22.1625447778       15.8781840295       20.0990729369
O    8.0       22.4212298509       13.8756044473       20.6445818468
C    6.0       23.9322550833       15.0762317983       19.1857278355
H    1.0       24.2663760614       16.0800454485       18.8931163431
H    1.0       23.3819161898       14.6553995565       18.3335385063
O    8.0       25.0594004024       14.2547389327       19.5035765789
H    1.0       24.6970227762       13.3811062152       19.7719733520
N    7.0       20.2480994802       20.3972455340       25.2440847922
H    1.0       19.5218615121       20.8118089100       25.8328294299
H    1.0       20.7537893851       21.1894144791       24.8046676080
H    1.0       20.9193575986       19.9223807239       25.8510442430
C    6.0       19.6668944964       19.4716234184       24.2107990019
H    1.0       18.9712763284       20.0737884387       23.6188033291
C    6.0       18.8840460685       18.3379059363       24.8959772214
H    1.0       19.5377324077       17.7386813473       25.5416372796
H    1.0       18.4285364937       17.6635719046       24.1637676929
H    1.0       18.0740015714       18.7448947645       25.5134387832
C    6.0       20.7579052683       18.9116873206       23.2687043472
H    1.0       21.4487466495       19.7150184388       22.9933024906
H    1.0       21.3621874016       18.1798415927       23.8181971129
C    6.0       20.2149516787       18.2785557057       21.9622074652
H    1.0       19.5391326318       17.4455630807       22.1916265383
H    1.0       21.0526433472       17.8418415888       21.4021575043
C    6.0       19.4959483541       19.3000669461       21.0530066056
H    1.0       18.6222019974       19.7381759565       21.5490839825
H    1.0       20.1713113536       20.1169242272       20.7659121600
H    1.0       19.1458915328       18.8171589820       20.1313073588
 $end
