$$$$
! Edit this basic GAMESS input file as needed.
! Conformer was generated by a VeraChem VCPack run 
! and contains    152 atoms.
!
 $contrl scftyp=rhf runtyp=optimize nzvar=0
  maxit=200 icharg=0 $end
 $system mwords=50 $end
 $basis gbasis=pm3 $end
 $statpt nstep=200 $end
 $guess guess=huckel $end
 $data
VM2 Rank=1      G=565.640           E=364.079           -TS=201.562             
C1
C    6.0       16.2434793772       15.2979249426       21.7477998463
H    1.0       15.1838526892       15.1319312852       21.9813017036
O    8.0       16.4624265790       16.5951727649       21.1579008855
C    6.0       17.1058566740       15.1665404570       23.0306772318
H    1.0       16.9707883217       14.1446028816       23.4083238091
O    8.0       16.7038765273       16.0999549156       24.0460716813
H    1.0       15.8512810406       16.5044302475       23.7534841106
C    6.0       18.6025000892       15.3659114786       22.7063064405
H    1.0       18.7349826841       16.4131875483       22.4137452419
O    8.0       19.3743814352       15.0940368028       23.8795275957
H    1.0       18.8953411877       15.5609609965       24.6010606574
C    6.0       19.0648707052       14.4650099551       21.5321182123
H    1.0       19.1736170834       13.4366598098       21.9014501674
C    6.0       18.0728497228       14.4913165472       20.3344204731
H    1.0       18.1617556679       15.4653340728       19.8351408957
O    8.0       16.7139686110       14.3082320297       20.8078614830
C    6.0       18.3551666275       13.4020645367       19.2759061582
H    1.0       19.3319285595       13.5969347077       18.8136562079
H    1.0       17.5990933963       13.4757664502       18.4827521072
O    8.0       18.3376282165       12.0959932830       19.8588586225
H    1.0       17.4515910133       11.9893466654       20.2711864713
C    6.0       14.6490896554       20.2267357791       20.5509119547
H    1.0       14.0266434796       21.0922043593       20.2892547250
O    8.0       16.0025981466       20.6200174104       20.8622364452
C    6.0       14.0424881603       19.4318913161       21.7368424150
H    1.0       13.0760712243       19.0376640035       21.3963494796
O    8.0       13.8211112809       20.2587640219       22.8884603515
H    1.0       14.7114599014       20.5587052215       23.2021573917
C    6.0       14.9453122990       18.2280024535       22.0982279110
H    1.0       15.8865038693       18.6207118915       22.5083351800
O    8.0       14.2817105457       17.4300157041       23.0842894471
H    1.0       13.8719199425       18.0770747724       23.7026047565
C    6.0       15.2858692482       17.3675164402       20.8494749062
H    1.0       14.4323711978       16.7221832276       20.6018249783
C    6.0       15.6466753526       18.2111378158       19.5962695364
H    1.0       16.6641835203       18.6020020924       19.7177434046
O    8.0       14.7103015981       19.3066397615       19.4417286870
C    6.0       15.6033104552       17.3664057318       18.3053475647
H    1.0       14.5705597816       17.0435377570       18.1176028454
H    1.0       16.2150735275       16.4647124110       18.4427203678
O    8.0       16.0997952449       18.1271536315       17.2023343247
H    1.0       15.5901798960       18.9671730166       17.1984575055
C    6.0       18.4261226959       23.7745138089       21.9749676189
H    1.0       18.8455986332       24.7286581187       22.3176010680
O    8.0       19.4305757325       22.9401200421       21.3632709657
C    6.0       17.7908276805       23.0041567820       23.1618149322
H    1.0       17.0014912640       23.6449059275       23.5760129504
O    8.0       18.7558850999       22.7214547884       24.1882775698
H    1.0       19.4930630412       23.3687181592       24.0780295763
C    6.0       17.1404438806       21.6861095949       22.6819175726
H    1.0       17.9414049396       21.0119534995       22.3576092820
O    8.0       16.4332746346       21.0957594715       23.7759914427
H    1.0       17.0618529930       21.1501337369       24.5309830470
C    6.0       16.1921288638       21.9086479000       21.4767308345
H    1.0       15.2484785898       22.3373106321       21.8393576807
C    6.0       16.8141199635       22.8310132670       20.3909385498
H    1.0       17.6017972005       22.2684483150       19.8723160695
O    8.0       17.3860334813       24.0131574583       21.0031094782
C    6.0       15.7956793921       23.2950564817       19.3259096008
H    1.0       15.4361372882       22.4192654642       18.7695382756
H    1.0       16.3082599400       23.9495707949       18.6082708078
O    8.0       14.6947662970       23.9828648877       19.9269806820
H    1.0       15.0804346011       24.7358425324       20.4278826859
C    6.0       23.5887838780       22.7720772235       21.1584462072
H    1.0       24.6516380097       22.9700120893       20.9681255495
O    8.0       23.3590008051       21.4092106981       21.5637730263
C    6.0       23.0464460791       23.6909156159       22.2805545698
H    1.0       23.1744371053       24.7280642351       21.9442281379
O    8.0       23.7759161092       23.5002609428       23.5037222762
H    1.0       23.8538162296       22.5242428359       23.6557512303
C    6.0       21.5336155825       23.4467089503       22.5105351891
H    1.0       21.4112195863       22.4361672723       22.9244565737
O    8.0       21.0578329273       24.4149935260       23.4518855495
H    1.0       21.7750434044       24.4865177189       24.1228429929
C    6.0       20.7370634384       23.5216504783       21.1744924698
H    1.0       20.6618783235       24.5658796515       20.8430646963
C    6.0       21.4100941177       22.6872899701       20.0524972959
H    1.0       21.2948091139       21.6227129374       20.2871533060
O    8.0       22.8136809981       23.0298541558       19.9690540553
C    6.0       20.7781513796       22.9434640952       18.6685958289
H    1.0       20.9823365941       23.9775468187       18.3603873915
H    1.0       19.6890074882       22.8250346511       18.7393873272
O    8.0       21.3034111213       22.0182855711       17.7144137966
H    1.0       22.2786157908       22.1279426682       17.7354297537
C    6.0       25.1453378810       17.7293802511       21.9324748817
H    1.0       25.8078136792       16.8602234277       22.0336022500
O    8.0       23.7773393909       17.3383813644       21.6932705234
C    6.0       25.1944516783       18.5837606079       23.2228558874
H    1.0       26.2241562300       18.9455456101       23.3410121797
O    8.0       24.8342514511       17.8002098141       24.3715075746
H    1.0       24.3173043926       17.0221398215       24.0444129795
C    6.0       24.2674309693       19.8137841739       23.0960149717
H    1.0       23.2351351652       19.4475338190       23.0884153600
O    8.0       24.4547635001       20.6758515059       24.2224446957
H    1.0       24.4479756721       20.0769328288       25.0024081279
C    6.0       24.5283843364       20.6002607251       21.7852348209
H    1.0       25.4303421726       21.2107779408       21.9255148731
C    6.0       24.6934110072       19.6860900401       20.5370060589
H    1.0       23.7010101510       19.3104563378       20.2544564678
O    8.0       25.5678192227       18.5696656790       20.8392643986
C    6.0       25.2781578805       20.4192265451       19.3093284921
H    1.0       24.5759162856       21.1990330605       18.9875828572
H    1.0       25.3707864158       19.7034224395       18.4815182750
O    8.0       26.5516314177       20.9964315914       19.6113218682
H    1.0       27.1235503607       20.2574821958       19.9168208039
C    6.0       21.3798030761       14.0601841231       20.8146385239
H    1.0       20.9845975405       13.0876719393       20.4938594411
O    8.0       20.3168460831       15.0035339160       21.0608144750
C    6.0       22.2624433081       13.9134616847       22.0850056642
H    1.0       23.1023422463       13.2590498578       21.8177468069
O    8.0       21.5466886061       13.3191355460       23.1778414951
H    1.0       20.8095929545       13.9382038962       23.4115260115
C    6.0       22.8446975645       15.2850282293       22.5014749621
H    1.0       22.0116805733       15.9307231105       22.8129004789
O    8.0       23.7562413018       15.1092695137       23.5904694629
H    1.0       23.3114114343       14.4768774562       24.1983946130
C    6.0       23.5685270894       15.9656106734       21.3132465802
H    1.0       24.5141744780       15.4428550430       21.1168593088
C    6.0       22.7166370904       15.9572904249       20.0164837407
H    1.0       21.8863204132       16.6628681003       20.1338196017
O    8.0       22.2172838372       14.6162424626       19.7781526828
C    6.0       23.5339324016       16.3731156636       18.7757504691
H    1.0       24.3308328704       15.6376302700       18.6026809354
H    1.0       24.0109965046       17.3431665446       18.9611622820
O    8.0       22.6788001969       16.4640819760       17.6349460852
H    1.0       22.2138031163       15.6013163243       17.5755454827
C    6.0       20.0806542401       18.9272418071       23.4684862793
H    1.0       20.5478226749       19.5652642297       24.2298975579
H    1.0       18.9991380535       18.9124936351       23.6585546596
H    1.0       20.4659378234       17.9076007636       23.5991673727
C    6.0       20.3880854828       19.4588023871       22.0538872474
H    1.0       21.4706952318       19.4602963145       21.8879878331
H    1.0       20.0585554834       20.5003043774       21.9756881851
C    6.0       19.7162051099       18.6081624883       20.9602527757
H    1.0       20.0519820615       17.5718267324       21.0674567326
H    1.0       18.6264857013       18.6093964195       21.1004258464
C    6.0       20.0665456711       19.1082292055       19.5435623508
H    1.0       21.1546562477       19.2306229048       19.4503141146
H    1.0       19.6178624979       20.0980865568       19.3819496106
C    6.0       19.5762057777       18.1285486818       18.4574058222
H    1.0       20.0344354207       17.1423207080       18.6137583336
H    1.0       18.4927329167       17.9904237025       18.5457363259
C    6.0       19.9154332606       18.6337168275       17.0405125311
H    1.0       21.0036995617       18.7450486571       16.9399445702
H    1.0       19.4738091055       19.6274148895       16.8853903970
C    6.0       19.3935135291       17.6642842431       15.9673171912
H    1.0       19.8351330333       16.6759315805       16.1203866454
H    1.0       18.3063122346       17.5749433470       16.0510145439
N    7.0       19.7224298221       18.1104284946       14.5579897952
H    1.0       19.3648498105       17.4526006669       13.8574237937
H    1.0       20.7343220239       18.1865157888       14.4125390471
H    1.0       19.3149398205       19.0268404315       14.3466536785
 $end
$$$$
! Edit this basic GAMESS input file as needed.
! Conformer was generated by a VeraChem VCPack run 
! and contains    152 atoms.
!
 $contrl scftyp=rhf runtyp=optimize nzvar=0
  maxit=200 icharg=0 $end
 $system mwords=50 $end
 $basis gbasis=pm3 $end
 $statpt nstep=200 $end
 $guess guess=huckel $end
 $data
VM2 Rank=2      G=565.762           E=364.632           -TS=201.131             
C1
C    6.0       16.3029836002       15.2716932547       21.8216157278
H    1.0       15.2455593812       15.1015747427       22.0620791281
O    8.0       16.5145563425       16.5742571186       21.2411536610
C    6.0       17.1738157900       15.1307998215       23.0968788954
H    1.0       17.0306077993       14.1100401870       23.4746771995
O    8.0       16.7866106561       16.0675515018       24.1150365319
H    1.0       15.9358125042       16.4796349108       23.8274154902
C    6.0       18.6708631559       15.3148031699       22.7635104816
H    1.0       18.8127247157       16.3635568876       22.4816542666
O    8.0       19.4434323921       15.0258405898       23.9313837499
H    1.0       18.9750732491       15.4969993641       24.6573337397
C    6.0       19.1180268757       14.4211559894       21.5752061340
H    1.0       19.2089772478       13.3834723002       21.9231570324
C    6.0       18.1215552980       14.4869600613       20.3839754471
H    1.0       18.2150058531       15.4691487312       19.9025359477
O    8.0       16.7692747903       14.2907642649       20.8715234406
C    6.0       18.3910477133       13.4076016782       19.3157512734
H    1.0       18.2746293786       12.4123252116       19.7652578065
H    1.0       19.4250041087       13.4987827991       18.9584484427
O    8.0       17.4884564391       13.5742359851       18.2209697987
H    1.0       16.5871707053       13.5953859008       18.6129480602
C    6.0       14.6511293245       20.1803812831       20.6095916587
H    1.0       14.0136268013       21.0335206652       20.3437222132
O    8.0       15.9995690269       20.5968920109       20.9104133432
C    6.0       14.0654909102       19.3879977869       21.8074178971
H    1.0       13.1028886922       18.9751884088       21.4783566929
O    8.0       13.8400636692       20.2235462331       22.9520223742
H    1.0       14.7262547869       20.5517915620       23.2487585725
C    6.0       14.9904461663       18.2022559109       22.1730790090
H    1.0       15.9295840946       18.6138955347       22.5691830706
O    8.0       14.3504105178       17.4042880908       23.1746402275
H    1.0       13.9385148743       18.0512876620       23.7915470590
C    6.0       15.3309153249       17.3342156373       20.9296220302
H    1.0       14.4810978737       16.6799235044       20.6930717859
C    6.0       15.6743199837       18.1707406584       19.6664840877
H    1.0       16.6875424188       18.5768113411       19.7767307494
O    8.0       14.7209298169       19.2513135303       19.5084595974
C    6.0       15.6324684814       17.3154160644       18.3822405014
H    1.0       14.6039457646       16.9723955021       18.2078103635
H    1.0       16.2624707058       16.4257720359       18.5175583018
O    8.0       16.1020266199       18.0794475764       17.2696871637
H    1.0       15.5796411259       18.9113838073       17.2700485751
C    6.0       18.4109230535       23.7852015102       21.9169077329
H    1.0       18.8383679846       24.7469245322       22.2270323420
O    8.0       19.4047696350       22.9280653017       21.3190190249
C    6.0       17.7835921581       23.0531808817       23.1318205512
H    1.0       16.9979378877       23.7074778215       23.5315885273
O    8.0       18.7558984692       22.8013467481       24.1594426809
H    1.0       19.5000446718       23.4337949708       24.0146606696
C    6.0       17.1284238401       21.7216089829       22.6978430069
H    1.0       17.9270702874       21.0359768494       22.3935150854
O    8.0       16.4254267203       21.1670609226       23.8130829120
H    1.0       17.0571646257       21.2446441031       24.5634102507
C    6.0       16.1749767485       21.9036136993       21.4896084118
H    1.0       15.2272936194       22.3302309648       21.8441395538
C    6.0       16.7820670216       22.8021464480       20.3752472750
H    1.0       17.5639341871       22.2284411023       19.8600653472
O    8.0       17.3606782667       23.9995256432       20.9505377964
C    6.0       15.7498560354       23.2388159614       19.3119369419
H    1.0       15.3844859280       22.3492799228       18.7817969265
H    1.0       16.2526413678       23.8759457626       18.5720652988
O    8.0       14.6557586804       23.9402725404       19.9096499161
H    1.0       15.0468101129       24.7055835101       20.3871640555
C    6.0       23.5607941872       22.7334603968       21.0631602253
H    1.0       24.6215117828       22.9220255901       20.8522769352
O    8.0       23.3332871669       21.3817902643       21.5049251924
C    6.0       23.0357793045       23.6847687654       22.1667586349
H    1.0       23.1617134904       24.7114972610       21.7991429996
O    8.0       23.7804267146       23.5286069223       23.3855392749
H    1.0       23.8301738729       22.5588220344       23.5829762534
C    6.0       21.5254750494       23.4517347102       22.4232249135
H    1.0       21.4048308550       22.4523764064       22.8642351095
O    8.0       21.0652685331       24.4459419585       23.3451179519
H    1.0       21.7919974596       24.5335234168       24.0038109677
C    6.0       20.7119321206       23.4958105362       21.0963600878
H    1.0       20.6382244638       24.5313074352       20.7382801016
C    6.0       21.3660641385       22.6280305887       19.9880041112
H    1.0       21.2483370235       21.5700536699       20.2498868500
O    8.0       22.7704561262       22.9611759651       19.8773140700
C    6.0       20.7172539002       22.8507218006       18.6062641580
H    1.0       20.9277296304       23.8731487626       18.2651368268
H    1.0       19.6280832696       22.7458931927       18.6954593029
O    8.0       21.2194446100       21.8922436582       17.6727416830
H    1.0       22.1966572050       21.9859319083       17.6831077199
C    6.0       25.1456102522       17.7346675157       22.0360051924
H    1.0       25.8122617676       16.8753735119       22.1837239660
O    8.0       23.7917402084       17.3227619099       21.7556481341
C    6.0       25.1360830125       18.6203165170       23.3057738587
H    1.0       26.1566666033       18.9961959359       23.4549831180
O    8.0       24.7387309776       17.8598709633       24.4578547250
H    1.0       24.2629065218       17.0573197082       24.1280754554
C    6.0       24.2015995206       19.8361527979       23.1130706833
H    1.0       23.1749610600       19.4564324015       23.0751392224
O    8.0       24.3359274428       20.7263888185       24.2249617019
H    1.0       24.3042580556       20.1457348618       25.0180114763
C    6.0       24.5030547235       20.5943607160       21.7938778220
H    1.0       25.3909114705       21.2208516735       21.9527555920
C    6.0       24.7265635536       19.6515127321       20.5763596788
H    1.0       23.7497050629       19.2571899416       20.2662237337
O    8.0       25.6008014981       18.5531144941       20.9392399903
C    6.0       25.3484742477       20.3610876017       19.3530579743
H    1.0       24.6478897005       21.1211288476       18.9835008689
H    1.0       25.4838059269       19.6253278579       18.5489600405
O    8.0       26.6005676104       20.9659305458       19.6884703169
H    1.0       27.1718180212       20.2440175001       20.0334240901
C    6.0       21.4518066026       14.0087506635       20.8844776229
H    1.0       21.0697379640       13.0295555712       20.5702620540
O    8.0       20.3771695738       14.9466574073       21.1056071637
C    6.0       22.3260601480       13.8801557238       22.1615246325
H    1.0       23.1790833495       13.2396694144       21.9020269318
O    8.0       21.6115511595       13.2721438201       23.2469089902
H    1.0       20.8715687505       13.8857103762       23.4853448268
C    6.0       22.8830068906       15.2628945521       22.5754952804
H    1.0       22.0370422619       15.8995624703       22.8702128304
O    8.0       23.7827111667       15.1101498759       23.6777240586
H    1.0       23.3409445515       14.4747881751       24.2847182064
C    6.0       23.6132549784       15.9421324883       21.3897578991
H    1.0       24.5711503292       15.4346112928       21.2136263672
C    6.0       22.7829486381       15.9060483899       20.0792273832
H    1.0       21.9463353145       16.6072857386       20.1725109082
O    8.0       22.2959679290       14.5585622101       19.8510203534
C    6.0       23.6169952425       16.3100913896       18.8459622524
H    1.0       24.4147799851       15.5718551564       18.6893940860
H    1.0       24.0934844842       17.2808035869       19.0292980846
O    8.0       22.7764292486       16.3929664437       17.6938047014
H    1.0       22.3090827640       15.5313329626       17.6358725998
C    6.0       20.1301631579       19.0097133312       23.4577905733
H    1.0       20.5745010011       19.7189951392       24.1682347978
H    1.0       19.0553492609       18.9452499773       23.6737468357
H    1.0       20.5761074619       18.0230932957       23.6402092533
C    6.0       20.3770300951       19.4702370024       22.0067554336
H    1.0       21.4533509137       19.5327691496       21.8161318562
H    1.0       19.9760783181       20.4794539462       21.8701052992
C    6.0       19.7445353975       18.5103733433       20.9842118900
H    1.0       20.1489836044       17.5075087876       21.1528002055
H    1.0       18.6597676822       18.4529345101       21.1478157494
C    6.0       20.0357228438       18.9338055830       19.5295972291
H    1.0       21.1147556024       19.0937766321       19.3956023867
H    1.0       19.5420218621       19.8928196441       19.3189675564
C    6.0       19.5542667281       17.8634788506       18.5275369109
H    1.0       20.0687605084       16.9127815263       18.7235495605
H    1.0       18.4843888856       17.6766066762       18.6734851623
C    6.0       19.8038276714       18.2897012654       17.0672433076
H    1.0       20.8791259030       18.4474792417       16.9073001549
H    1.0       19.3027696781       19.2470902076       16.8702755294
C    6.0       19.2834733200       17.2255846413       16.0866276424
H    1.0       19.7812567874       16.2717849460       16.2812313020
H    1.0       18.2073917489       17.0898710724       16.2306268347
N    7.0       19.5211313645       17.5915285418       14.6364431405
H    1.0       19.1681268615       16.8695651212       13.9996420098
H    1.0       20.5190504811       17.7112260447       14.4350050889
H    1.0       19.0523240195       18.4682198430       14.3870637138
 $end
$$$$
! Edit this basic GAMESS input file as needed.
! Conformer was generated by a VeraChem VCPack run 
! and contains    152 atoms.
!
 $contrl scftyp=rhf runtyp=optimize nzvar=0
  maxit=200 icharg=0 $end
 $system mwords=50 $end
 $basis gbasis=pm3 $end
 $statpt nstep=200 $end
 $guess guess=huckel $end
 $data
VM2 Rank=3      G=565.897           E=363.763           -TS=202.133             
C1
C    6.0       16.1691542983       15.1637765441       21.8227603391
H    1.0       15.1158358239       14.9775315773       22.0691659887
O    8.0       16.3722457411       16.4858853527       21.2876724592
C    6.0       17.0614775478       14.9930371961       23.0784465050
H    1.0       16.9785110490       13.9466642494       23.4000670441
O    8.0       16.6417074064       15.8485806385       24.1531682184
H    1.0       15.9144915914       16.4222579081       23.8077398180
C    6.0       18.5398309065       15.2707480743       22.7270646865
H    1.0       18.6243880899       16.3325577868       22.4649525828
O    8.0       19.3565956993       14.9840315677       23.8665945340
H    1.0       18.8809219933       15.3986062566       24.6214014793
C    6.0       19.0065853956       14.4347438734       21.5094155381
H    1.0       19.1737587261       13.4008398691       21.8393269657
C    6.0       17.9830670657       14.4555489714       20.3363337545
H    1.0       18.0307198416       15.4423816214       19.8567997312
O    8.0       16.6399047647       14.2212456636       20.8354322327
C    6.0       18.2707671535       13.4002639367       19.2454116383
H    1.0       19.2262814078       13.6384683105       18.7598216917
H    1.0       17.4899049859       13.4660125497       18.4758983303
O    8.0       18.3133086473       12.0816528695       19.7979985958
H    1.0       17.4424094712       11.9345958318       20.2297095302
C    6.0       14.6807854901       20.1451186853       20.6350132685
H    1.0       14.0825733856       21.0282472811       20.3757316805
O    8.0       16.0685232409       20.4910802053       20.8491165425
C    6.0       14.1057365932       19.4233101888       21.8828029380
H    1.0       13.1063753162       19.0598912108       21.6098557928
O    8.0       13.9819518015       20.2997670679       23.0118216004
H    1.0       14.9018406214       20.5535443692       23.2766601595
C    6.0       14.9757432672       18.1952476745       22.2402229965
H    1.0       15.9572118698       18.5612098621       22.5729455241
O    8.0       14.3486756027       17.4634168232       23.2974858723
H    1.0       14.0152171717       18.1480188761       23.9208994900
C    6.0       15.1982270783       17.2702985797       21.0136809314
H    1.0       14.3116086190       16.6420070388       20.8545287849
C    6.0       15.5087472347       18.0411062792       19.7026596229
H    1.0       16.5512980017       18.3740713714       19.7404073475
O    8.0       14.6275808310       19.1830978808       19.5615379406
C    6.0       15.3319781767       17.1476072598       18.4569837501
H    1.0       14.2824557629       16.8329827524       18.3826634554
H    1.0       15.9444928413       16.2432527346       18.5714359818
O    8.0       15.7249938767       17.8578540100       17.2813602996
H    1.0       15.2169680373       18.6987726344       17.2921389032
C    6.0       18.5352144145       23.7057778062       21.8660010494
H    1.0       18.9093858127       24.6811617333       22.2017792960
O    8.0       19.5766969277       22.9265098729       21.2442357589
C    6.0       17.9498267067       22.9112652714       23.0645285434
H    1.0       17.1473622107       23.5249848497       23.4941941741
O    8.0       18.9391743980       22.6587097295       24.0752587167
H    1.0       19.6396613630       23.3467468021       23.9735840642
C    6.0       17.3336069096       21.5730146529       22.5979819285
H    1.0       18.1489501653       20.9350310240       22.2383386342
O    8.0       16.6896586732       20.9534463830       23.7145060042
H    1.0       17.3411838827       21.0364959276       24.4473429399
C    6.0       16.3344755450       21.7832244690       21.4327548409
H    1.0       15.4224139689       22.2496286222       21.8281347206
C    6.0       16.9376958872       22.6778642474       20.3153491960
H    1.0       17.7381408146       22.1162131085       19.8152016236
O    8.0       17.4798739756       23.8899647987       20.8970910522
C    6.0       15.9088813088       23.0895701195       19.2387241549
H    1.0       15.5658855468       22.1903130901       18.7098496892
H    1.0       16.4072728292       23.7322609660       18.5007217576
O    8.0       14.7951535878       23.7727843030       19.8213718376
H    1.0       15.1664546525       24.5477885905       20.2988271092
C    6.0       23.7130241650       22.8480300402       21.0712011032
H    1.0       24.7838292860       23.0246228844       20.9061506835
O    8.0       23.4400701200       21.4738838487       21.4059885557
C    6.0       23.1603827795       23.7465711392       22.2051650244
H    1.0       23.2822178771       24.7883626081       21.8809759339
O    8.0       23.8807166572       23.5542507086       23.4325010337
H    1.0       23.8436528143       22.5886603035       23.6517431256
C    6.0       21.6479068149       23.4873260731       22.4175215378
H    1.0       21.5308245770       22.4702391413       22.8172432782
O    8.0       21.1549866920       24.4403141581       23.3659122600
H    1.0       21.8677274098       24.5168001840       24.0410140719
C    6.0       20.8560257892       23.5748627488       21.0789051643
H    1.0       20.7331460113       24.6274784269       20.7909244872
C    6.0       21.5595845691       22.8224428352       19.9174153976
H    1.0       21.4458165701       21.7439537778       20.0777205641
O    8.0       22.9651823274       23.1703582733       19.8802406441
C    6.0       20.9466854125       23.1703566592       18.5448761076
H    1.0       21.1622739786       24.2202408948       18.3054781144
H    1.0       19.8555639289       23.0566795474       18.5960076835
O    8.0       21.4762309558       22.3039560237       17.5396881842
H    1.0       22.4536489696       22.3801753463       17.5987058419
C    6.0       24.9843588636       17.7786038451       22.1183968722
H    1.0       25.5571327138       16.8679261723       22.3364443475
O    8.0       23.6811278556       17.4742781046       21.5771658827
C    6.0       24.8120660017       18.6225485608       23.4054973211
H    1.0       25.8151427039       18.9191149032       23.7387353637
O    8.0       24.1722564185       17.8663370376       24.4460045538
H    1.0       24.0077551137       16.9596473354       24.0876270102
C    6.0       24.0033536529       19.9052671448       23.1108061840
H    1.0       22.9746876145       19.5985415457       22.8972844872
O    8.0       24.0105180982       20.7491720394       24.2655432515
H    1.0       23.8162741241       20.1444628642       25.0167364640
C    6.0       24.5429717091       20.6815286580       21.8810457584
H    1.0       25.3910231900       21.3016592519       22.2009513871
C    6.0       24.9608215661       19.7660659657       20.6935688351
H    1.0       24.0461612297       19.4425946567       20.1802159861
O    8.0       25.6851478048       18.6017882848       21.1639350698
C    6.0       25.8439725653       20.4834944110       19.6488954965
H    1.0       25.2679799574       21.2990538931       19.1919754868
H    1.0       26.0935468092       19.7729337429       18.8495255385
O    8.0       27.0374911381       20.9972252091       20.2468164077
H    1.0       27.4923314595       20.2290476097       20.6587972521
C    6.0       21.3024483381       14.1667985431       20.6890526837
H    1.0       20.9273730549       13.1972033887       20.3369940687
O    8.0       20.2200269882       15.0530774873       21.0370911682
C    6.0       22.2512572943       13.9874064811       21.9065849280
H    1.0       23.0859085745       13.3586201639       21.5702533492
O    8.0       21.5995524033       13.3372046510       23.0081560876
H    1.0       20.8508263152       13.9222418756       23.2888241991
C    6.0       22.8367288318       15.3472507189       22.3578381413