$$$$
! Edit this basic GAMESS input file as needed.
! Conformer was generated by a VeraChem VCPack run 
! and contains    142 atoms.
!
 $contrl scftyp=rhf runtyp=optimize nzvar=0
  maxit=200 icharg=0 $end
 $system mwords=50 $end
 $basis gbasis=pm3 $end
 $statpt nstep=200 $end
 $guess guess=huckel $end
 $data
VM2 Rank=1      G=549.364           E=365.041           -TS=184.323             
C1
C    6.0       16.2803308200       15.1188919200       21.2173640229
H    1.0       15.1949161471       14.9575062163       21.1870757740
O    8.0       16.6076653277       16.5079861053       21.4244412097
C    6.0       16.9321613906       14.2863388695       22.3514887908
H    1.0       16.7291469059       13.2291378469       22.1367009588
O    8.0       16.3724346823       14.6170216415       23.6321128014
H    1.0       16.3961115345       15.6034690011       23.7232408017
C    6.0       18.4683355455       14.4807378915       22.3610483837
H    1.0       18.6817797696       15.5166427042       22.6500059098
O    8.0       19.0549129097       13.5818544712       23.3083129154
H    1.0       18.5158447437       13.6829592271       24.1237615323
C    6.0       19.0782787676       14.2358230272       20.9587520283
H    1.0       19.0959069101       13.1533222704       20.7754477962
C    6.0       18.2908344560       14.9535587671       19.8272465450
H    1.0       18.4801284056       16.0327560109       19.9025680971
O    8.0       16.8729282739       14.6964637408       19.9712776921
C    6.0       18.7058354398       14.5015241280       18.4091939208
H    1.0       19.7524449392       14.7826436919       18.2346532419
H    1.0       18.0962356755       15.0431572864       17.6736417991
O    8.0       18.5405732992       13.0895555408       18.2475422994
H    1.0       17.5963270467       12.8995211395       18.4444047305
C    6.0       14.8926115415       20.2475726616       21.9008677734
H    1.0       14.2323719667       21.1072598018       22.0736954193
O    8.0       16.1728879803       20.6550967528       21.3760630006
C    6.0       15.1085344539       19.4603140017       23.2186798343
H    1.0       14.1275369770       19.0793500349       23.5312858253
O    8.0       15.6351379778       20.2942372450       24.2623271564
H    1.0       15.6631197428       21.2179545419       23.9125813246
C    6.0       16.0360439228       18.2476708171       22.9779070988
H    1.0       17.0286530869       18.6261942377       22.7054029520
O    8.0       16.1208126484       17.4791110905       24.1811523120
H    1.0       16.2341665114       18.1506295020       24.8911950246
C    6.0       15.5181087311       17.3671570581       21.8147434508
H    1.0       14.6533403653       16.7946470609       22.1758449326
C    6.0       15.1180195012       18.2037584907       20.5649970741
H    1.0       16.0376230697       18.5653798977       20.0858674131
O    8.0       14.2962354394       19.3352650282       20.9538399238
C    6.0       14.3301727665       17.3915250724       19.5129756216
H    1.0       14.9736263389       16.5931641364       19.1201566797
H    1.0       14.0796242468       18.0517597088       18.6719116818
O    8.0       13.1401043108       16.8328914667       20.0774014556
H    1.0       12.6215677881       17.5898360666       20.4305844869
C    6.0       18.4181188007       24.0683186275       20.6921497618
H    1.0       18.8019172979       25.0527701232       20.3957801630
O    8.0       19.4686799137       23.1919743215       21.1495187824
C    6.0       17.3922280892       24.2103666516       21.8421980554
H    1.0       16.5625125106       24.8246695625       21.4689382294
O    8.0       17.9820020675       24.8573471863       22.9811455268
H    1.0       18.9072900746       24.5142089772       23.0701249558
C    6.0       16.8209629877       22.8276919793       22.2406419812
H    1.0       17.6330644256       22.2483530449       22.6982166608
O    8.0       15.7671696753       23.0192667067       23.1898243562
H    1.0       16.1002776666       23.7191715324       23.7967744369
C    6.0       16.3048409018       22.0411921615       21.0037897333
H    1.0       15.3453828485       22.4612603674       20.6734748713
C    6.0       17.2974185161       22.0808390387       19.8102924400
H    1.0       18.1577122445       21.4378392617       20.0331317663
O    8.0       17.7364825545       23.4420413569       19.5858299749
C    6.0       16.6455866117       21.5795349848       18.5050231599
H    1.0       15.8086500471       22.2395879382       18.2403830075
H    1.0       16.2381200109       20.5729681427       18.6679751346
O    8.0       17.6130787141       21.5507468590       17.4537992043
H    1.0       17.9928243397       22.4561579783       17.4105563483
C    6.0       23.5911318731       22.7438663443       21.2692354397
H    1.0       24.6805754107       22.8590758174       21.1990926773
O    8.0       23.2184044699       21.3754401869       21.5296446304
C    6.0       22.9997050441       23.6553340236       22.3773994799
H    1.0       23.2093241674       24.6936199156       22.0890703424
O    8.0       23.5996955495       23.4012310941       23.6562353235
H    1.0       23.4354821914       22.4486654107       23.8737884925
C    6.0       21.4632307795       23.4833052827       22.4493762573
H    1.0       21.2509182420       22.4567241212       22.7737014923
O    8.0       20.9184560859       24.4127917050       23.3916049374
H    1.0       21.5155104714       24.3667825821       24.1713902563
C    6.0       20.8131196950       23.7012159305       21.0602682476
H    1.0       20.8325058912       24.7758859272       20.8365466512
C    6.0       21.5423747836       22.9194215012       19.9315995734
H    1.0       21.3199527789       21.8503252113       20.0486806075
O    8.0       22.9737826218       23.1351151017       20.0242800423
C    6.0       21.0999906681       23.3391532309       18.5123180397
H    1.0       20.0368284672       23.1015078793       18.3831345132
H    1.0       21.6583523516       22.7431925178       17.7781020505
O    8.0       21.3246202311       24.7350118727       18.2925204758
H    1.0       22.2816857003       24.8876755181       18.4570473058
C    6.0       24.6560235712       17.6444608431       22.5506932351
H    1.0       25.2276628613       16.7746244068       22.8977556507
O    8.0       23.4634270657       17.2458936749       21.8446970782
C    6.0       24.2593302929       18.5311960702       23.7577610558
H    1.0       25.1912793794       18.8772409091       24.2232001064
O    8.0       23.5031357452       17.7927375395       24.7284512775
H    1.0       22.6920351354       17.4501194490       24.2751837339
C    6.0       23.4688635648       19.7758709938       23.2973630645
H    1.0       22.5030678679       19.4339602492       22.9073368737
O    8.0       23.2635932360       20.6383690361       24.4202538250
H    1.0       22.9817346765       20.0415207615       25.1483642127
C    6.0       24.2047518365       20.5412902029       22.1696442918
H    1.0       25.0175671481       21.1305540467       22.6148859974
C    6.0       24.7676212333       19.5960542017       21.0716074693
H    1.0       23.9166508078       19.2439479657       20.4769576093
O    8.0       25.4515561182       18.4605346201       21.6632259914
C    6.0       25.7540432346       20.2927410199       20.1083093988
H    1.0       25.2212211361       21.0781346683       19.5559068961
H    1.0       26.1072421755       19.5585044224       19.3719230331
O    8.0       26.8605832816       20.8543374935       20.8198132116
H    1.0       27.2784086498       20.1118349296       21.3105225297
C    6.0       21.4518664605       13.9900132998       20.4160165303
H    1.0       21.0601292807       13.0860240762       19.9320688168
O    8.0       20.4016583770       14.8001741266       20.9791958723
C    6.0       22.4412613790       13.6268761862       21.5464323303
H    1.0       23.2785349779       13.0852861645       21.0874968648
O    8.0       21.8135446667       12.7839295324       22.5259522867
H    1.0       20.9545422897       13.2120800692       22.7741237634
C    6.0       23.0064138481       14.9045524118       22.2139477583
H    1.0       22.1925118906       15.3597612937       22.7911362798
O    8.0       24.0707532177       14.5275544697       23.0931017113
H    1.0       23.6992535099       13.8121552390       23.6544110074
C    6.0       23.5070004991       15.9615456676       21.1854798941
H    1.0       24.5270112580       15.7088598673       20.8662553120
C    6.0       22.6066899344       16.0888812522       19.9223833112
H    1.0       21.7316404045       16.7049268522       20.1684837879
O    8.0       22.1838872716       14.7827892982       19.4642632494
C    6.0       23.3535795619       16.7452150677       18.7425078730
H    1.0       24.1713363428       16.0858446177       18.4218427966
H    1.0       23.8012308659       17.6896272043       19.0689772580
O    8.0       22.4503747840       16.9834210570       17.6614685504
H    1.0       22.0144291748       16.1218637504       17.4779131915
C    6.0       19.6850046998       19.7750761869       22.3113752460
H    1.0       20.5978479463       20.2744352501       21.9630326631
H    1.0       18.8771847723       20.0393573078       21.6194952786
C    6.0       19.3480292121       20.2169170476       23.7470107010
H    1.0       18.2606314311       20.2941063956       23.8617660187
H    1.0       19.7812211926       21.1933898547       23.9988322208
C    6.0       19.8735331856       19.0989932477       24.6594335242
H    1.0       19.2997448600       19.0326236289       25.5923567546
H    1.0       20.9213527306       19.2930840826       24.9154194353
C    6.0       19.7627644706       17.8130722890       23.8308735532
H    1.0       18.7668030748       17.3749369173       23.9802861701
C    6.0       19.9024604732       18.2468614091       22.3601276083
H    1.0       20.8957120684       17.9932554361       21.9722913203
H    1.0       19.1639777536       17.7258191277       21.7387909522
O    8.0       20.7860342492       16.8981829676       24.1957866345
H    1.0       20.5616373486       16.5738892270       25.0911879827
 $end
$$$$
! Edit this basic GAMESS input file as needed.
! Conformer was generated by a VeraChem VCPack run 
! and contains    142 atoms.
!
 $contrl scftyp=rhf runtyp=optimize nzvar=0
  maxit=200 icharg=0 $end
 $system mwords=50 $end
 $basis gbasis=pm3 $end
 $statpt nstep=200 $end
 $guess guess=huckel $end
 $data
VM2 Rank=2      G=549.421           E=365.203           -TS=184.218             
C1
C    6.0       16.2101594174       15.0935333822       21.0395557789
H    1.0       15.1265028354       14.9449552354       20.9457638642
O    8.0       16.5407208322       16.4802515222       21.2587780777
C    6.0       16.7930138502       14.2477041658       22.2016796438
H    1.0       16.6172472911       13.1924457301       21.9554136168
O    8.0       16.1501975249       14.5449808628       23.4503685560
H    1.0       16.2374201545       15.5197339356       23.6047991817
C    6.0       18.3222495653       14.4619275338       22.3077604112
H    1.0       18.5029979918       15.5031105499       22.6000892519
O    8.0       18.8634231601       13.5780192570       23.2951872077
H    1.0       18.2556419641       13.6497074090       24.0644231796
C    6.0       19.0190533491       14.2172682872       20.9471308609
H    1.0       19.0563161720       13.1338218998       20.7725911788
C    6.0       18.2959189891       14.9206558520       19.7634996815
H    1.0       18.4820761971       16.0007098637       19.8355836684
O    8.0       16.8704977047       14.6664199040       19.8295502514
C    6.0       18.7879330815       14.4507650770       18.3762433731
H    1.0       19.8416898224       14.7316560929       18.2543933496
H    1.0       18.2184243443       14.9814908912       17.6016245217
O    8.0       18.6334082657       13.0364927356       18.2243763501
H    1.0       17.6793185054       12.8475163194       18.3673611288
C    6.0       14.9172056760       20.2144614474       21.9376173526
H    1.0       14.2882156211       21.0841413833       22.1667956044
O    8.0       16.1690827280       20.6043082114       21.3368121117
C    6.0       15.2061720221       19.4006340669       23.2248354485
H    1.0       14.2396215570       19.0461549920       23.6060194279
O    8.0       15.8405960161       20.2021369924       24.2335788626
H    1.0       15.7749298424       21.1431872377       23.9415323433
C    6.0       16.0783144602       18.1656750560       22.9043174393
H    1.0       17.0667257782       18.5230261129       22.5917177640
O    8.0       16.2025716938       17.3687315433       24.0852910052
H    1.0       16.3582942534       18.0225545926       24.8034048517
C    6.0       15.4806110012       17.3244499060       21.7489832677
H    1.0       14.6390271628       16.7397887522       22.1439943745
C    6.0       15.0082972976       18.1968967806       20.5503462674
H    1.0       15.8984031327       18.5549722368       20.0162269054
O    8.0       14.2370255140       19.3319998944       21.0197174259
C    6.0       14.1375117209       17.4218194159       19.5363770783
H    1.0       14.7412814625       16.6259179972       19.0803787594
H    1.0       13.8386640659       18.1063472074       18.7312533864
O    8.0       12.9817406965       16.8632849456       20.1679578542
H    1.0       12.4987707375       17.6169867429       20.5745847889
C    6.0       18.4241564693       24.0447078638       20.7283428832
H    1.0       18.7892423152       25.0391169172       20.4417953828
O    8.0       19.4898959542       23.1895504824       21.1881666301
C    6.0       17.3880821743       24.1593127967       21.8725808390
H    1.0       16.5565342750       24.7723489824       21.5013037741
O    8.0       17.9633138038       24.7958775293       23.0249061582
H    1.0       18.8991884606       24.4796815534       23.1009458324
C    6.0       16.8220174143       22.7678907611       22.2492375738
H    1.0       17.6320504476       22.1845903260       22.7051413263
O    8.0       15.7624831882       22.9476350731       23.1947982451
H    1.0       16.0882118681       23.6479865693       23.8054567151
C    6.0       16.3208300687       21.9965484269       20.9956652020
H    1.0       15.3717443625       22.4275785462       20.6500377929
C    6.0       17.3425769395       22.0435201423       19.8280913702
H    1.0       18.2041059972       21.4101585984       20.0780221915
O    8.0       17.7673559247       23.4106242843       19.6117210048
C    6.0       16.7308549223       21.5328685294       18.5068641904
H    1.0       15.8868648111       22.1766283086       18.2250634286
H    1.0       16.3404554991       20.5177922714       18.6574790876
O    8.0       17.7219673961       21.5270548959       17.4774582982
H    1.0       18.0819774060       22.4408194305       17.4438719135
C    6.0       23.6145108056       22.7960243107       21.3034260640
H    1.0       24.7027380321       22.9215835304       21.2318529538
O    8.0       23.2537702095       21.4286897686       21.5842377098
C    6.0       23.0157097849       23.7096174018       22.4047427666
H    1.0       23.2180899301       24.7480166178       22.1117370540
O    8.0       23.6176477189       23.4632544857       23.6845044901
H    1.0       23.5099781289       22.4982646811       23.8823665374
C    6.0       21.4803764778       23.5269707135       22.4777666998
H    1.0       21.2751565855       22.5035804391       22.8143546201
O    8.0       20.9277774009       24.4628400623       23.4089753538
H    1.0       21.5226558937       24.4273401738       24.1909500911
C    6.0       20.8256332078       23.7201155850       21.0874230114
H    1.0       20.8269658548       24.7926777930       20.8530800744
C    6.0       21.5644347090       22.9391845010       19.9638857247
H    1.0       21.3543404232       21.8685995709       20.0861847069
O    8.0       22.9931415968       23.1695954225       20.0553072018
C    6.0       21.1193606518       23.3455684030       18.5416730509
H    1.0       20.0587906256       23.0971222842       18.4132012635
H    1.0       21.6839124094       22.7501571007       17.8117578595
O    8.0       21.3311016942       24.7419624585       18.3129207620
H    1.0       22.2862412446       24.9048893922       18.4787863202
C    6.0       24.7504815514       17.6869856773       22.4665683431
H    1.0       25.3410051425       16.8105645446       22.7625212493
O    8.0       23.5045125345       17.3012060601       21.8510390050
C    6.0       24.4591701964       18.5694365308       23.7057765026
H    1.0       25.4278123240       18.9123935453       24.0917616184
O    8.0       23.7872045096       17.8297699435       24.7346165911
H    1.0       22.9146043822       17.5439745828       24.3641761743
C    6.0       23.6351086246       19.8158037654       23.3156682716
H    1.0       22.6409653503       19.4777488117       22.9971567197
O    8.0       23.5204694294       20.6710217095       24.4571390379
H    1.0       23.2628014402       20.0731900417       25.1940849423
C    6.0       24.2837750727       20.5870247648       22.1399353353
H    1.0       25.1297391509       21.1707303079       22.5269156007
C    6.0       24.7585076841       19.6483775316       20.9951914644
H    1.0       23.8640155479       19.3049884953       20.4620006553
O    8.0       25.4794077106       18.5044459837       21.5246237736
C    6.0       25.6742620101       20.3498208175       19.9677071944
H    1.0       25.1071153090       21.1451721711       19.4660237513
H    1.0       25.9653922236       19.6219156852       19.1986144784
O    8.0       26.8355032502       20.8957394931       20.5999259757
H    1.0       27.2827630157       20.1448766424       21.0503107302
C    6.0       21.4188172124       13.9912721495       20.5448230834
H    1.0       21.0619322253       13.0589465813       20.0885171174
O    8.0       20.3345694591       14.7915254493       21.0538454199
C    6.0       22.3826577161       13.6923809380       21.7165173513
H    1.0       23.2304609141       13.1284087702       21.3064784721
O    8.0       21.7315302781       12.8998556726       22.7230240727
H    1.0       20.8446138593       13.3085939093       22.8913107102
C    6.0       22.9348509592       15.0027342495       22.3307737729
H    1.0       22.1102817382       15.4986796839       22.8599915930
O    8.0       23.9761219130       14.6680115970       23.2533683094
H    1.0       23.5850632195       13.9926526000       23.8495385053
C    6.0       23.4713309022       15.9879690547       21.2529828482
H    1.0       24.4708846080       15.6689154655       20.9284857120
C    6.0       22.5537675940       16.0898710865       20.0027287272
H    1.0       21.6739234552       16.6981242986       20.2514346457
O    8.0       22.1491155934       14.7673704676       19.5769871590
C    6.0       23.2777862724       16.7348730031       18.8025554911
H    1.0       24.1087765476       16.0874728041       18.4917398900
H    1.0       23.7048437813       17.6969867566       19.1042441433
O    8.0       22.3623464474       16.9266733180       17.7225427344
H    1.0       21.9517582600       16.0494197026       17.5568331244
C    6.0       19.7165092366       19.8494956631       22.3759814553
H    1.0       20.4177734566       20.3685773758       21.7102615259
H    1.0       18.7002834606       20.0448584333       22.0146638764
C    6.0       19.8429106323       20.3270056726       23.8305389183
H    1.0       19.2404549289       21.2214447551       24.0343337357
H    1.0       20.8876915069       20.5674203518       24.0545383552
C    6.0       19.4071227591       19.1256576118       24.6820645399
H    1.0       18.3216172617       19.1617684511       24.8302234520
H    1.0       19.8790238963       19.1381920060       25.6729490552
C    6.0       19.7667441684       17.8676560630       23.8710343579
H    1.0       18.9430326241       17.1443917385       23.9330497055
C    6.0       19.9698924242       18.3283771577       22.4123989022
H    1.0       20.9917746572       18.1095183975       22.0825639041
H    1.0       19.2874173134       17.7998357176       21.7349586460
O    8.0       20.9669917173       17.2949130833       24.3758453729
H    1.0       20.7660563838       16.9985985886       25.2861970838
 $end
$$$$
! Edit this basic GAMESS input file as needed.
! Conformer was generated by a VeraChem VCPack run 
! and contains    142 atoms.
!
 $contrl scftyp=rhf runtyp=optimize nzvar=0
  maxit=200 icharg=0 $end
 $system mwords=50 $end
 $basis gbasis=pm3 $end
 $statpt nstep=200 $end
 $guess guess=huckel $end
 $data
VM2 Rank=3      G=549.501           E=365.007           -TS=184.494             
C1
C    6.0       16.1699629079       15.1871659142       20.9979403438
H    1.0       15.0838432195       15.0684577898       20.8913920742
O    8.0       16.5299802503       16.5554935823       21.2778949560
C    6.0       16.7287839878       14.2717366874       22.1190649680
H    1.0       16.5415730670       13.2339841720       21.8138368953
O    8.0       16.0783571771       14.5068562230       23.3765056732
H    1.0       16.2162488829       15.4608940895       23.6053841593
C    6.0       18.2595665321       14.4599921630       22.2480470410
H    1.0       18.4486783279       15.4866804211       22.5851811125
O    8.0       18.7792064260       13.5312933376       23.2049333216
H    1.0       18.1526757664       13.5661743636       23.9618709884
C    6.0       18.9621078155       14.2561067452       20.8822874761
H    1.0       18.9695096691       13.1810777816       20.6593474889
C    6.0       18.2618585267       15.0248037597       19.7260165886
H    1.0       18.4732164450       16.0962266382       19.8426966762
O    8.0       16.8293163086       14.8019370355       19.7730273217
C    6.0       18.7517916171       14.5962837637       18.3247328575
H    1.0       19.8191340564       14.8329345968       18.2277813360
H    1.0       18.2170878008       15.1864610553       17.5685746836
O    8.0       18.5341573795       13.1987923664       18.1077853549
H    1.0       17.5723818966       13.0472152471       18.2438515799
C    6.0       15.0578902686       20.2840588182       22.2589013410
H    1.0       14.4714895378       21.1533318694       22.5815340773
O    8.0       16.2936802452       20.6820599984       21.6306400874
C    6.0       15.3761672725       19.3806470852       23.4765645675
H    1.0       14.4159000382       19.0333491187       23.8793043225
O    8.0       16.0738620388       20.1026407024       24.5019922537
H    1.0       16.9139005338       20.4463422443       24.1059567744
C    6.0       16.1876092220       18.1378804363       23.0486878530
H    1.0       17.1758078485       18.4792246583       22.7189409811
O    8.0       16.3238067671       17.2634612112       24.1725581455
H    1.0       16.5602534175       17.8525804945       24.9228595720
C    6.0       15.5141918615       17.3886208680       21.8718590202
H    1.0       14.6739914996       16.7994951101       22.2631943997
C    6.0       15.0201392811       18.3489575307       20.7538386473
H    1.0       15.9051432546       18.7015027721       20.2115500565
O    8.0       14.3109102927       19.4834749453       21.3167793202
C    6.0       14.0855376252       17.6674086288       19.7299703120
H    1.0       14.6429423116       16.8808685260       19.2040292188
H    1.0       13.7817875000       18.4095689103       18.9796100143
O    8.0       12.9349631966       17.1108711348       20.3722971868
H    1.0       12.4964750501       17.8536162752       20.8442741083
C    6.0       18.4055573811       23.9622985829       20.4032987808
H    1.0       18.8281146844       24.8738205844       19.9611522882
O    8.0       19.4158171875       23.1466677778       21.0278717107
C    6.0       17.3362132809       24.3064407155       21.4649556722
H    1.0       16.5328233360       24.8533307371       20.9546080628
O    8.0       17.8882847065       25.1360271958       22.4998462624
H    1.0       18.7220449112       24.6999239632       22.8120836761
C    6.0       16.7274286217       23.0180304018       22.0709226835
H    1.0       17.4987517679       22.5536908969       22.6974822332
O    8.0       15.6030535061       23.3823365198       22.8776887217
H    1.0       15.9327168324       24.0906140526       23.4731628352
C    6.0       16.3027079327       21.9776848241       20.9922039113
H    1.0       15.3102999151       22.2383653096       20.6006613445
C    6.0       17.2964114280       21.8677618244       19.7995427273
H    1.0       18.1528431383       21.2520328393       20.1045243797
O    8.0       17.7471905320       23.1807696266       19.3901453310
C    6.0       16.6450748901       21.2211766742       18.5592994538
H    1.0       15.8506287444       21.8802246076       18.1840332867
H    1.0       16.1792950747       20.2710886452       18.8410785511
O    8.0       17.6296792904       20.9984893837       17.5481823338
H    1.0       18.0753128549       21.8634382795       17.4090194945
C    6.0       23.5016327619       22.8418912793       21.5921102067
H    1.0       24.5852642284       23.0044756715       21.6582023723
O    8.0       23.1616933867       21.4464412186       21.7215819052
C    6.0       22.7556040058       23.6310478366       22.6984332090
H    1.0       22.9718672182       24.6957487207       22.5414135208
O    8.0       23.2089544659       23.2509314092       24.0072719535
H    1.0       23.1935290964       22.2612336455       24.0537679827
C    6.0       21.2246634938       23.4352088403       22.5740523660
H    1.0       20.9928624716       22.3900219065       22.8094519060
O    8.0       20.5585867604       24.3001854630       23.5000055274
H    1.0       21.0265943139       24.1685858045       24.3540271119
C    6.0       20.7288433582       23.7251686448       21.1356935844
H    1.0       20.7120076465       24.8133647809       20.9897135901
C    6.0       21.6130068329       23.0553907165       20.0469279332
H    1.0       21.4251054952       21.9734620526       20.0644682165
O    8.0       23.0124207386       23.3104615141       20.3180281877
C    6.0       21.3138963073       23.5606693183       18.6176999052
H    1.0       20.2874496261       23.2821866243       18.3459098577
H    1.0       21.9865314685       23.0508025674       17.9151325362
O    8.0       21.4814267427       24.9785234291       18.5248826668
H    1.0       22.4046576851       25.1648336668       18.8067273168
C    6.0       24.8307143282       17.6841785685       22.1521106630
H    1.0       25.4739857721       16.8125906460       22.3292126105
O    8.0       23.5826909432       17.3092893780       21.5326481755
C    6.0       24.5364082019       18.4171726500       23.4858483956
H    1.0       25.4975023957       18.7780999866       23.8747268778
O    8.0       23.9420521913       17.5437026923       24.4583371750
H    1.0       23.9361785505       16.6350975733       24.0699382373
C    6.0       23.6308246124       19.6450838048       23.2378047341
H    1.0       22.6557060712       19.2840581591       22.8890353038
O    8.0       23.4734552484       20.3657479492       24.4632620065
H    1.0       23.3123992419       19.6675015074       25.1373363535
C    6.0       24.2235246849       20.5692132453       22.1461062178
H    1.0       25.0635240448       21.1239880323       22.5849233066
C    6.0       24.7029221778       19.7828031783       20.8917939978
H    1.0       23.8164328319       19.4464832340       20.3380344610
O    8.0       25.4926240170       18.6317078102       21.2869986020
C    6.0       25.5622547933       20.6324119860       19.9290899422
H    1.0       24.9494469536       21.4501028338       19.5272314680
H    1.0       25.8663034764       20.0050832917       19.0804335899
O    8.0       26.7138263619       21.1601361997       20.5941878841
H    1.0       27.2049756655       20.3858759803       20.9490169073
C    6.0       21.3704919563       13.9373887374       20.5727087740
H    1.0       21.0050035271       12.9682809531       20.2098966149
O    8.0       20.2942211307       14.7890773034       21.0161600735
C    6.0       22.3400964281       13.7404336317       21.7635248113
H    1.0       23.1900920077       13.1479449313       21.4007423852
O    8.0       21.6997191209       13.0348645008       22.8386107746
H    1.0       20.7781862769       13.3901043854       22.9196999731
C    6.0       22.8852557091       15.1021816469       22.2585217975
H    1.0       22.0470368540       15.6625360424       22.6927161026
O    8.0       23.8799677592       14.8656138032       23.2601574150
H    1.0       23.5143505779       14.1344580919       23.8087621007
C    6.0       23.4731696229       15.9412503891       21.0904821996
H    1.0       24.4510202258       15.5346284583       20.8000617210
C    6.0       22.5473866264       15.9567463350       19.8422305912
H    1.0       21.6788731395       16.5917448847       20.0544323338
O    8.0       22.0990044291       14.6159831907       19.5292355800
C    6.0       23.2461431240       16.5216280207       18.5855767080
H    1.0       23.5852352199       17.5452397945       18.7925740599
H    1.0       22.5139338005       16.5751471633       17.7689291716
O    8.0       24.3552519217       15.7032388454       18.2026338110
H    1.0       24.0020265699       14.7892738730       18.1202373634
C    6.0       20.0300370496       18.1473403872       22.3103091381
H    1.0       19.1439480215       17.6574330111       21.8872749463
H    1.0       20.8849270926       17.8959096749       21.6728572140
C    6.0       20.2660238468       17.6750819618       23.7565038851
H    1.0       21.3426933249       17.5848054592       23.9418421166
H    1.0       19.8092024853       16.6981463454       23.9598493421
C    6.0       19.6892245419       18.7798818022       24.6540555528