$$$$
! Edit this basic GAMESS input file as needed.
! Conformer was generated by a VeraChem VCPack run 
! and contains    142 atoms.
!
 $contrl scftyp=rhf runtyp=optimize nzvar=0
  maxit=200 icharg=0 $end
 $system mwords=50 $end
 $basis gbasis=pm3 $end
 $statpt nstep=200 $end
 $guess guess=huckel $end
 $data
VM2 Rank=1      G=481.869           E=296.405           -TS=185.464             
C1
C    6.0       16.3438760738       15.2804190377       20.7374402397
H    1.0       15.2927227860       15.1484270786       20.4507152291
O    8.0       16.6393698071       16.6626979788       21.0199089645
C    6.0       16.6946875031       14.4036919767       21.9718727990
H    1.0       16.5169535995       13.3592169272       21.6858160123
O    8.0       15.8487732714       14.7255190722       23.0873433603
H    1.0       16.0858988081       15.6430850724       23.3728780745
C    6.0       18.1970417548       14.5424098677       22.3373410709
H    1.0       18.3642276879       15.5626824696       22.7058765682
O    8.0       18.5636111527       13.5907266287       23.3447370624
H    1.0       19.5249355975       13.7293652436       23.5312052572
C    6.0       19.1003646882       14.3195402860       21.0982180136
H    1.0       19.1092358306       13.2477225177       20.8601899392
C    6.0       18.6188150967       15.1053008697       19.8500798045
H    1.0       18.8095627691       16.1744071831       20.0122100869
O    8.0       17.2015758031       14.8738602023       19.6511379619
C    6.0       19.3415569951       14.6858533726       18.5507082746
H    1.0       20.4161513753       14.8803226289       18.6565222093
H    1.0       18.9752027640       15.3125151498       17.7267239007
O    8.0       19.1160725653       13.3031920205       18.2593604310
H    1.0       18.1402900297       13.1839884405       18.2477953247
C    6.0       14.8778842798       20.3283487844       21.7258511062
H    1.0       14.2227328198       21.1762004680       21.9624454554
O    8.0       16.1099576720       20.7597294958       21.1097482088
C    6.0       15.2098528218       19.5243557693       23.0092775658
H    1.0       14.2655570274       19.1172500457       23.3928952368
O    8.0       15.7833792995       20.3829419741       24.0093853082
H    1.0       16.6690106745       20.0043731060       24.2594500056
C    6.0       16.1357804948       18.3292671352       22.6675268292
H    1.0       17.0979071576       18.7348503509       22.3334144785
O    8.0       16.3384625755       17.5087648949       23.8246136720
H    1.0       17.0049271540       18.0010334109       24.3722205481
C    6.0       15.5535809910       17.4714110979       21.5152101602
H    1.0       14.7350248318       16.8589345998       21.9156381367
C    6.0       15.0378257173       18.3301765513       20.3246040852
H    1.0       15.9087184783       18.7313554587       19.7892196951
O    8.0       14.2207500515       19.4236359838       20.8130176270
C    6.0       14.1941271026       17.5340826009       19.3039707217
H    1.0       14.8321601310       16.7831248060       18.8197356903
H    1.0       13.8491340446       18.2214491830       18.5199123663
O    8.0       13.0773166039       16.9007799219       19.9349173727
H    1.0       12.5614257915       17.6180573965       20.3661043501
C    6.0       18.4440011793       24.0994420493       20.5157645036
H    1.0       18.8950879218       25.0631382622       20.2466965025
O    8.0       19.4540562958       23.1267492368       20.8611996377
C    6.0       17.4243775560       24.2648700528       21.6750980119
H    1.0       16.6187234303       24.9100748920       21.3021087246
O    8.0       18.0265780640       24.9010141752       22.8126361824
H    1.0       18.6096600283       24.2223827545       23.2355267366
C    6.0       16.7941072946       22.8963000042       22.0487363502
H    1.0       17.5808345767       22.2681159311       22.4892847589
O    8.0       15.7382640150       23.0893729506       22.9976773007
H    1.0       15.6639218201       22.2382749918       23.4947215757
C    6.0       16.2370088190       22.1609972025       20.7954354387
H    1.0       15.2690277268       22.5958600213       20.5134386065
C    6.0       17.1918860552       22.2281240988       19.5714487620
H    1.0       18.0234763650       21.5336486228       19.7470689171
O    8.0       17.7065504833       23.5719488367       19.3949479962
C    6.0       16.5058917627       21.8091747271       18.2523997803
H    1.0       16.1210597098       20.7861016054       18.3578324941
H    1.0       17.2582841415       21.7977749047       17.4525791013
O    8.0       15.4414315698       22.7052583800       17.9189013252
H    1.0       15.8336141981       23.6069458346       17.9278033563
C    6.0       23.3327068794       22.6697328142       22.2459405204
H    1.0       24.3367982736       22.8038873254       22.6671936567
O    8.0       23.1957212093       21.3880772016       21.5965653908
C    6.0       22.2597876157       22.7880424817       23.3592037219
H    1.0       22.3380043637       23.7990604493       23.7791086482
O    8.0       22.5106186243       21.8344261085       24.4049527151
H    1.0       21.6670098043       21.3295649640       24.5576829876
C    6.0       20.8355944033       22.6366943536       22.7652353203
H    1.0       20.7211320755       21.6111061148       22.3929295288
O    8.0       19.8569730636       22.8949895688       23.7795707129
H    1.0       19.7950087898       22.0537945712       24.3067848993
C    6.0       20.6185557681       23.5983546036       21.5685557598
H    1.0       20.4828468390       24.6176247598       21.9526895763
C    6.0       21.8026015218       23.5715204820       20.5619212659
H    1.0       21.7752731459       22.6149414140       20.0241192648
O    8.0       23.0622433205       23.6969357901       21.2680595503
C    6.0       21.7379645797       24.6995412773       19.5082072419
H    1.0       20.8439068520       24.5573651952       18.8867292518
H    1.0       22.6111539270       24.6155029373       18.8474828236
O    8.0       21.7074465588       25.9880737690       20.1289271300
H    1.0       22.5089481208       26.0391427107       20.6959951965
C    6.0       25.1737128182       17.7250555313       21.4220097456
H    1.0       25.9021271986       16.9168647602       21.2801493723
O    8.0       23.8433314760       17.2189727224       21.6450029333
C    6.0       25.5627393284       18.5978858150       22.6401041855
H    1.0       26.5549068453       19.0212822289       22.4365545566
O    8.0       25.6199408576       17.8173147045       23.8426624652
H    1.0       25.7260601340       18.4798330701       24.5619224216
C    6.0       24.5711083695       19.7725992652       22.8229751325
H    1.0       23.6002674361       19.3523542177       23.1193553269
O    8.0       25.0649409926       20.6280904958       23.8602876660
H    1.0       24.2748170505       21.1159869975       24.2020792110
C    6.0       24.3756207231       20.5640852354       21.4964057296
H    1.0       25.2667655451       21.1730294592       21.2946243819
C    6.0       24.1325842919       19.6229329557       20.2859676088
H    1.0       23.1323178967       19.1783862295       20.3746185206
O    8.0       25.1468388480       18.5885031521       20.2664106094
C    6.0       24.2106463098       20.3769034380       18.9420768052
H    1.0       25.2084679549       20.8224768123       18.8336943060
H    1.0       23.4774354844       21.1942550177       18.9433365670
O    8.0       23.9423254001       19.4816385566       17.8610219106
H    1.0       24.5605140328       18.7270974760       17.9776229705
C    6.0       21.4737236315       13.8323256121       21.4280176358
H    1.0       21.0868907029       12.8092947440       21.3416768754
O    8.0       20.4095899351       14.8059618433       21.4533420771
C    6.0       22.3043229522       13.9695461795       22.7286612761
H    1.0       23.1305039937       13.2493600006       22.6666228654
O    8.0       21.5097980025       13.6769068781       23.8866635333
H    1.0       22.0696598294       13.9523043383       24.6470374265
C    6.0       22.9161773377       15.3835662665       22.8520554093
H    1.0       22.0964360368       16.0945261337       23.0159341939
O    8.0       23.8219126123       15.4194764493       23.9618472828
H    1.0       24.2939318438       16.2878889403       23.9142276557
C    6.0       23.6652147289       15.7939521063       21.5604160809
H    1.0       24.6227604898       15.2578889225       21.5254698300
C    6.0       22.8486688607       15.4952758206       20.2727365123
H    1.0       22.0110477886       16.2032367717       20.2176928268
O    8.0       22.3421480258       14.1382689959       20.3166692023
C    6.0       23.6742342517       15.6421448100       18.9758109385
H    1.0       24.0018604155       16.6842749730       18.8756865116
H    1.0       23.0257851516       15.4202311053       18.1177897942
O    8.0       24.8053912859       14.7662474800       18.9822000026
H    1.0       24.4485250020       13.8609299984       19.1219109636
C    6.0       19.4750129060       19.3918189263       24.3812854705
O    8.0       20.1872796563       20.3109927453       24.7390836808
O    8.0       18.2900617113       19.3187112987       24.6468525766
C    6.0       20.1012356949       18.2569687826       23.5734835494
H    1.0       19.3529483968       17.4686860064       23.4397216153
H    1.0       20.9015629181       17.8320392258       24.1896656982
C    6.0       20.6812353885       18.6743226582       22.1963369864
H    1.0       21.4192667257       19.4711727967       22.3414227726
H    1.0       21.2211476385       17.8223986158       21.7692035271
C    6.0       19.6071637539       19.1294313655       21.1869477512
H    1.0       19.0503052085       19.9867714274       21.5899316325
H    1.0       18.8852747589       18.3182899199       21.0318492728
C    6.0       20.2355433114       19.5120669051       19.8324668741
H    1.0       19.4596437189       19.7896316712       19.1087932315
H    1.0       20.8049137434       18.6731614815       19.4120048313
H    1.0       20.9155676280       20.3653092398       19.9468154331
 $end
