$$$$
! Edit this basic GAMESS input file as needed.
! Conformer was generated by a VeraChem VCPack run 
! and contains    146 atoms.
!
 $contrl scftyp=rhf runtyp=optimize nzvar=0
  maxit=200 icharg=0 $end
 $system mwords=50 $end
 $basis gbasis=pm3 $end
 $statpt nstep=200 $end
 $guess guess=huckel $end
 $data
VM2 Rank=1      G=576.096           E=383.023           -TS=193.073             
C1
C    6.0       16.3809870616       15.3254432831       21.9116923559
H    1.0       15.3388768495       15.1784837892       22.2233684812
O    8.0       16.5599736737       16.5803835700       21.2258464496
C    6.0       17.3249357065       15.2775771996       23.1409237320
H    1.0       17.2003722513       14.2899920367       23.6039671821
O    8.0       17.0001276065       16.2923354245       24.1046586620
H    1.0       16.0905582559       16.6153297800       23.8949281928
C    6.0       18.8013162167       15.4235813737       22.7075363728
H    1.0       18.9384136486       16.4450047602       22.3299061840
O    8.0       19.6380378005       15.2132328570       23.8482377662
H    1.0       19.2280676876       15.7584016081       24.5575902431
C    6.0       19.1733901798       14.4345461904       21.5720193836
H    1.0       19.2749953435       13.4254152448       21.9928684103
C    6.0       18.1119890664       14.4187091965       20.4371880502
H    1.0       18.1812527946       15.3606180098       19.8783947423
O    8.0       16.7890680449       14.2729927439       21.0127755061
C    6.0       18.3142961091       13.2570734306       19.4430575627
H    1.0       18.1870420590       12.3007494006       19.9679389455
H    1.0       19.3366397959       13.2904355124       19.0452278421
O    8.0       17.3788399878       13.3716724310       18.3695672308
H    1.0       16.4904922302       13.4275336526       18.7864259071
C    6.0       14.6785858686       20.1848707919       20.6254240893
H    1.0       14.0335109874       21.0352218778       20.3691992379
O    8.0       16.0363336464       20.6066141829       20.8813897301
C    6.0       14.1238301070       19.4012979139       21.8450390341
H    1.0       13.1526569989       18.9877280773       21.5431767995
O    8.0       13.9275343096       20.2432594681       22.9902286308
H    1.0       14.8251741702       20.5452411611       23.2799678145
C    6.0       15.0548703948       18.2159079226       22.1973786390
H    1.0       16.0044067143       18.6286984620       22.5659160759
O    8.0       14.4373816737       17.4303210996       23.2231437441
H    1.0       14.0324652173       18.0849258545       23.8368186195
C    6.0       15.3648214803       17.3379959147       20.9520761132
H    1.0       14.5111765852       16.6810416314       20.7378135659
C    6.0       15.6815789004       18.1709491000       19.6817448124
H    1.0       16.6873133034       18.5914894260       19.7889471466
O    8.0       14.7196062525       19.2441462358       19.5310174847
C    6.0       15.6521703214       17.3065158497       18.4027373113
H    1.0       14.6183128139       16.9993476634       18.1954488463
H    1.0       16.2426193821       16.3950096401       18.5685172250
O    8.0       16.1921876904       18.0393241981       17.3005841925
H    1.0       15.6661964861       18.8684119729       17.2416566592
C    6.0       18.4609676150       23.7756039202       21.9351132344
H    1.0       18.8912919055       24.7277920867       22.2703133657
O    8.0       19.4414332853       22.9498823961       21.2737537103
C    6.0       17.8750624407       22.9922751788       23.1379022298
H    1.0       17.0866595003       23.6171731048       23.5774368656
O    8.0       18.8729647439       22.7221282224       24.1357636222
H    1.0       19.6211024062       23.3466527499       23.9756288185
C    6.0       17.2348848265       21.6668324253       22.6667371104
H    1.0       18.0405542950       21.0145663762       22.3037338501
O    8.0       16.5801070382       21.0510451811       23.7795141075
H    1.0       17.2373247885       21.1028271519       24.5101713102
C    6.0       16.2328716916       21.8901089822       21.5043352759
H    1.0       15.2988737135       22.2993110490       21.9114542844
C    6.0       16.7931467095       22.8377585494       20.4060288540
H    1.0       17.5620960917       22.2931599036       19.8420243240
O    8.0       17.3803883420       24.0176884613       21.0092204037
C    6.0       15.7207721006       23.3056542217       19.3971009377
H    1.0       15.3449881972       22.4340434747       18.8449469926
H    1.0       16.1918749550       23.9765377430       18.6662593867
O    8.0       14.6419157697       23.9717938048       20.0594236346
H    1.0       15.0422126482       24.7223668269       20.5524567172
C    6.0       23.5650996658       22.7196107649       20.8722198751
H    1.0       24.6271052319       22.8825079072       20.6478460736
O    8.0       23.2951106954       21.3354513332       21.1743494856
C    6.0       23.0941385192       23.6202824986       22.0460320920
H    1.0       23.2283852192       24.6605666511       21.7218535265
O    8.0       23.8656888835       23.4077771611       23.2376549114
H    1.0       23.6980877614       22.4755065080       23.5276110463
C    6.0       21.5884160761       23.4061649122       22.3354050782
H    1.0       21.4585824563       22.3860672397       22.7236889622
O    8.0       21.1746668126       24.3587000739       23.3215293469
H    1.0       21.9231670199       24.4050246362       23.9595563184
C    6.0       20.7351904784       23.5423737746       21.0415670989
H    1.0       20.6457780341       24.6006265645       20.7619669901
C    6.0       21.3468949500       22.7602988535       19.8501580994
H    1.0       21.2093127592       21.6885680190       20.0343061455
O    8.0       22.7573047237       23.0715031731       19.7294541403
C    6.0       20.6676253793       23.1039664191       18.5088502519
H    1.0       20.9078309994       24.1395653443       18.2331901326
H    1.0       19.5780367421       23.0329851540       18.6246630714
O    8.0       21.1065975309       22.1950282504       17.4971536645
H    1.0       22.0883728543       22.2396898479       17.4951729812
C    6.0       24.9300792820       17.7344007118       22.2624052533
H    1.0       25.5298551464       16.8817146195       22.6059022848
O    8.0       23.7571010382       17.3100643517       21.5399167936
C    6.0       24.4878723752       18.6090995026       23.4628800444
H    1.0       25.3989033456       19.0025206694       23.9324426450
O    8.0       23.7477083123       17.8497325746       24.4322343193
H    1.0       23.8294295746       16.8971374780       24.1829371737
C    6.0       23.6395768250       19.8050324295       22.9753550951
H    1.0       22.6937043031       19.4047157636       22.5885760573
O    8.0       23.3762103634       20.6744692747       24.0806714382
H    1.0       23.0926553376       20.0726706886       24.8056886993
C    6.0       24.3356815747       20.5879344706       21.8321917236
H    1.0       25.1027974723       21.2416618937       22.2677112966
C    6.0       24.9762239521       19.6632708569       20.7564544518
H    1.0       24.1693371462       19.2508135667       20.1364236225
O    8.0       25.7052743013       18.5786798228       21.3856411344
C    6.0       25.9501120359       20.4017229296       19.8115639420
H    1.0       25.3896181331       21.1450499498       19.2294788585
H    1.0       26.3677089043       19.6778511296       19.0989449962
O    8.0       27.0003253834       21.0389804206       20.5442565416
H    1.0       27.4490608634       20.3301689949       21.0569746594
C    6.0       21.4723574863       13.9536759085       20.8036344645
H    1.0       21.0767727727       12.9716509267       20.5164382558
O    8.0       20.4089049966       14.9120486322       20.9999753795
C    6.0       22.3596433324       13.8435459478       22.0733986246
H    1.0       23.2004863563       13.1863607084       21.8156119139
O    8.0       21.6535356568       13.2675950755       23.1816394513
H    1.0       20.9527913965       13.9174723114       23.4416168488
C    6.0       22.9430794343       15.2236767386       22.4592260194
H    1.0       22.1108674311       15.8668621348       22.7779672464
O    8.0       23.8666284907       15.0516928755       23.5395767286
H    1.0       23.4465308924       14.3867769505       24.1315420606
C    6.0       23.6424899293       15.9048997523       21.2506161222
H    1.0       24.6240382181       15.4452566983       21.0734020800
C    6.0       22.8031703143       15.8181715124       19.9502790523
H    1.0       21.9647741740       16.5153876794       20.0455855197
O    8.0       22.3193687263       14.4655782855       19.7550822343
C    6.0       23.6102880877       16.2163634346       18.6983988319
H    1.0       24.4194355366       15.4908402590       18.5404465013
H    1.0       24.0695443327       17.2003836101       18.8600725581
O    8.0       22.7452577251       16.2626855562       17.5620683360
H    1.0       22.3158844718       15.3808704019       17.5166258782
C    6.0       20.1183976930       18.9038946227       21.1451672500
H    1.0       20.6167034825       18.0075429893       21.5375142734
H    1.0       20.5458349935       19.7777064597       21.6542839090
H    1.0       19.0543073001       18.8501442229       21.4117472052
C    6.0       20.3047936104       19.0199649342       19.6169116531
H    1.0       21.3773233815       19.0448501414       19.3756154977
H    1.0       19.8797816764       19.9732523904       19.2722889608
C    6.0       19.6199482826       17.8622517507       18.8601046087
H    1.0       20.0306028367       16.8985603235       19.1791140610
H    1.0       18.5566728837       17.8434885642       19.1129753185
C    6.0       19.7743314978       18.0106312419       17.3345439612
H    1.0       20.8083667278       17.8073198171       17.0427030575
H    1.0       19.5352917866       19.0389128491       17.0507747521
N    7.0       18.8605399977       17.1026903835       16.5292362895
H    1.0       18.9269345052       17.3416355322       15.5288013508
H    1.0       17.8690540404       17.2932227086       16.7812985587
C    6.0       19.2086554494       15.6340695582       16.7414836315
H    1.0       19.0822548586       15.3800098349       17.7954030078
H    1.0       18.5405863306       15.0160131205       16.1374942689
H    1.0       20.2441796768       15.4644836882       16.4397136719
 $end
$$$$
! Edit this basic GAMESS input file as needed.
! Conformer was generated by a VeraChem VCPack run 
! and contains    146 atoms.
!
 $contrl scftyp=rhf runtyp=optimize nzvar=0
  maxit=200 icharg=0 $end
 $system mwords=50 $end
 $basis gbasis=pm3 $end
 $statpt nstep=200 $end
 $guess guess=huckel $end
 $data
VM2 Rank=2      G=576.184           E=383.382           -TS=192.802             
C1
C    6.0       16.3789432028       15.3257415953       21.9117948898
H    1.0       15.3359674813       15.1734428886       22.2180737697
O    8.0       16.5572708522       16.5882467615       21.2400542994
C    6.0       17.3173666010       15.2675210823       23.1448588660
H    1.0       17.1901122730       14.2763880907       23.5995032185
O    8.0       16.9881415391       16.2749315510       24.1148370436
H    1.0       16.0844645548       16.6085969043       23.8961509116
C    6.0       18.7960449330       15.4162131357       22.7203561901
H    1.0       18.9354819855       16.4404608787       22.3523839799
O    8.0       19.6273743128       15.1953817402       23.8630476089
H    1.0       19.2143098884       15.7341529652       24.5754595879
C    6.0       19.1730774411       14.4376887792       21.5777994218
H    1.0       19.2686259773       13.4241495689       21.9894692503
C    6.0       18.1189746405       14.4375256778       20.4362278889
H    1.0       18.1920058120       15.3869443041       19.8909326713
O    8.0       16.7928040704       14.2841906369       21.0026391790
C    6.0       18.3269054702       13.2903882965       19.4265288795
H    1.0       18.1962445434       12.3265041895       19.9365036542
H    1.0       19.3516624277       13.3293299524       19.0351882579
O    8.0       17.3979792660       13.4213868050       18.3491879497
H    1.0       16.5070957866       13.4708124567       18.7612969126
C    6.0       14.6688351014       20.1843231803       20.6247258688
H    1.0       14.0232703215       21.0337003280       20.3665328110
O    8.0       16.0276095048       20.6070868779       20.8751891039
C    6.0       14.1167577379       19.4054783666       21.8487919972
H    1.0       13.1456131922       18.9894906584       21.5501852312
O    8.0       13.9210360904       20.2521217940       22.9905636427
H    1.0       14.8190512604       20.5535160406       23.2796471748
C    6.0       15.0497113042       18.2226008504       22.2047261074
H    1.0       15.9991631461       18.6379000374       22.5705255053
O    8.0       14.4354488875       17.4389038437       23.2337873677
H    1.0       14.0328805786       18.0944401767       23.8479351597
C    6.0       15.3594313766       17.3403867845       20.9628657808
H    1.0       14.5072120639       16.6800004644       20.7534450321
C    6.0       15.6707694808       18.1675433255       19.6875197638
H    1.0       16.6747712522       18.5921410798       19.7902271438
O    8.0       14.7068174866       19.2385120876       19.5341871708
C    6.0       15.6420517161       17.2947776311       18.4140234096
H    1.0       14.6069710476       16.9950672890       18.2019828288
H    1.0       16.2232973739       16.3792935865       18.5900860339
O    8.0       16.1966907573       18.0136540673       17.3101323737
H    1.0       15.6752358673       18.8442673163       17.2360729993
C    6.0       18.4617747810       23.7705146553       21.9268182446
H    1.0       18.8934201965       24.7221065302       22.2620020349
O    8.0       19.4412162067       22.9439381846       21.2648811367
C    6.0       17.8754093133       22.9879417468       23.1298843675
H    1.0       17.0893507347       23.6147234232       23.5709306607
O    8.0       18.8738987058       22.7141871889       24.1261719914
H    1.0       19.6214314996       23.3400491931       23.9685669700
C    6.0       17.2310588480       21.6644492304       22.6591914637
H    1.0       18.0345793601       21.0105972690       22.2947000767
O    8.0       16.5771113845       21.0500839752       23.7731657017
H    1.0       17.2352833778       21.1020446388       24.5029692461
C    6.0       16.2280363475       21.8900690002       21.4980849491
H    1.0       15.2954697121       22.3019525258       21.9057522202
C    6.0       16.7904786274       22.8356972628       20.3992090174
H    1.0       17.5578734351       22.2888838181       19.8352390786
O    8.0       17.3810364836       24.0144287181       21.0015150561
C    6.0       15.7187677407       23.3056890067       19.3905747312
H    1.0       15.3396888938       22.4345311862       18.8399463155
H    1.0       16.1913673018       23.9741252130       18.6584596711
O    8.0       14.6426431336       23.9761167770       20.0530076360
H    1.0       15.0458993320       24.7256234020       20.5452523871
C    6.0       23.5656970126       22.7091550665       20.8664288772
H    1.0       24.6279575250       22.8713181686       20.6426971287
O    8.0       23.2947575710       21.3249649085       21.1683772756
C    6.0       23.0947268200       23.6102183207       22.0399737243
H    1.0       23.2301499753       24.6503622923       21.7158345091
O    8.0       23.8654122855       23.3971683918       23.2320320833
H    1.0       23.6967859014       22.4650495896       23.5218953407
C    6.0       21.5885448488       23.3976916509       22.3284684366
H    1.0       21.4573987440       22.3776956480       22.7165612949
O    8.0       21.1754298796       24.3506617427       23.3144395718
H    1.0       21.9237198043       24.3961339718       23.9527727161
C    6.0       20.7361461380       23.5350222106       21.0341589238
H    1.0       20.6482168637       24.5933882803       20.7545260164
C    6.0       21.3482407287       22.7524767090       19.8433934641
H    1.0       21.2106259005       21.6812876478       20.0286026109
O    8.0       22.7589128335       23.0622625662       19.7232363695
C    6.0       20.6692659384       23.0947656391       18.5015961033
H    1.0       20.9145471752       24.1280682760       18.2218194363
H    1.0       19.5794410889       23.0299110394       18.6188035739
O    8.0       21.1020676953       22.1796140200       17.4928814658
H    1.0       22.0840613086       22.2186089681       17.4894085475
C    6.0       24.9369328699       17.7256964934       22.2636775863
H    1.0       25.5389796802       16.8753723299       22.6090478632
O    8.0       23.7642290041       17.2970904689       21.5442877343
C    6.0       24.4919987407       18.6024878052       23.4615759291
H    1.0       25.4016964703       19.0001847634       23.9301100680
O    8.0       23.7543484544       17.8430294598       24.4328569573
H    1.0       23.8353658902       16.8904910361       24.1831199979
C    6.0       23.6397230434       19.7944331097       22.9704190704
H    1.0       22.6956397515       19.3905616886       22.5828177052
O    8.0       23.3722024197       20.6651248571       24.0737483905
H    1.0       23.0908915910       20.0636727461       24.7999189447
C    6.0       24.3349806834       20.5768391539       21.8264352095
H    1.0       25.1026676763       21.2303791820       22.2612242684
C    6.0       24.9749884392       19.6503885836       20.7518350906
H    1.0       24.1677360197       19.2337458177       20.1347728073
O    8.0       25.7084330616       18.5698139601       21.3832733286
C    6.0       25.9449906079       20.3883572285       19.8025890767
H    1.0       25.3813321976       21.1285006556       19.2194919643
H    1.0       26.3628313062       19.6633556325       19.0912836479
O    8.0       26.9952104609       21.0304808876       20.5310414989
H    1.0       27.4465072219       20.3244049502       21.0452798531
C    6.0       21.4709655647       13.9524731020       20.8149338750
H    1.0       21.0683807767       12.9731901117       20.5281881431
O    8.0       20.4141452308       14.9165634782       21.0195242628
C    6.0       22.3614739121       13.8358892412       22.0810894015
H    1.0       23.1984934722       13.1749722741       21.8204506221
O    8.0       21.6551686405       13.2632309200       23.1910291967
H    1.0       20.9532483504       13.9129373017       23.4483677796
C    6.0       22.9512678922       15.2136483434       22.4643794461
H    1.0       22.1217323107       15.8599325076       22.7840020096
O    8.0       23.8758046596       15.0401664290       23.5437130402
H    1.0       23.4545216219       14.3771227007       24.1369276572
C    6.0       23.6509742958       15.8918997077       21.2540108417
H    1.0       24.6326397327       15.4323292357       21.0774206421
C    6.0       22.8130197933       15.8078482256       19.9517389958
H    1.0       21.9810333717       16.5115108959       20.0479947638
O    8.0       22.3191444994       14.4576423094       19.7652320209
C    6.0       23.6277424330       16.2049992792       18.7011026228
H    1.0       24.3010023639       15.3799248952       18.4327820317
H    1.0       24.2502783685       17.0773600143       18.9408520209
O    8.0       22.7555801971       16.5241751144       17.6111710304
H    1.0       23.3147961949       16.7001595895       16.8247738195
C    6.0       20.0675493310       18.9088145865       21.2748600578
H    1.0       19.0123276178       18.7918304611       21.5559445727
H    1.0       20.6182293360       18.0267652681       21.6280747034
H    1.0       20.4594529178       19.7865628687       21.8056543203
C    6.0       20.2206905376       19.0837434196       19.7490220028
H    1.0       21.2859980241       19.1824382546       19.4944207260
H    1.0       19.7310686114       20.0185465018       19.4412979798
C    6.0       19.6013018713       17.9084406012       18.9641735496
H    1.0       20.0748615296       16.9644987053       19.2515742740
H    1.0       18.5443373259       17.8113515232       19.2230908813
C    6.0       19.7379517774       18.1082975577       17.4430846521
H    1.0       20.7854936709       18.0012727823       17.1491059068
H    1.0       19.4111476119       19.1186265008       17.1834192977
N    7.0       18.9100476655       17.1422817464       16.6134608257
H    1.0       18.9777371415       17.3960311951       15.6168956748
H    1.0       17.9027031734       17.2559427225       16.8474726276
C    6.0       19.3702993349       15.7032272026       16.8207136091
H    1.0       19.2186647239       15.4214736826       17.8641080091
H    1.0       18.7855146998       15.0420158862       16.1774831072
H    1.0       20.4310360471       15.6260252856       16.5698654226
 $end
$$$$
! Edit this basic GAMESS input file as needed.
! Conformer was generated by a VeraChem VCPack run 
! and contains    146 atoms.
!
 $contrl scftyp=rhf runtyp=optimize nzvar=0
  maxit=200 icharg=0 $end
 $system mwords=50 $end
 $basis gbasis=pm3 $end
 $statpt nstep=200 $end
 $guess guess=huckel $end
 $data
VM2 Rank=3      G=576.324           E=383.567           -TS=192.757             
C1
C    6.0       16.2763112588       15.0257822727       21.2168486327
H    1.0       15.2061127520       14.8348784529       21.0681089299
O    8.0       16.5596931372       16.4349819627       21.3459443828
C    6.0       16.7704384175       14.3052764499       22.4970658309
H    1.0       16.5960997501       13.2306524020       22.3558044546
O    8.0       16.0467988219       14.7463672811       23.6561814923
H    1.0       15.7759561924       15.6858950832       23.4978392874
C    6.0       18.2899075223       14.5155367740       22.6926446375
H    1.0       18.4643124287       15.5791863634       22.9042293549
O    8.0       18.7434840233       13.7224511755       23.7937954083
H    1.0       18.0733818964       13.8644419243       24.4998394790
C    6.0       19.0743485447       14.1369402123       21.4124559614
H    1.0       19.0742973566       13.0440153357       21.3062199720
C    6.0       18.4634754196       14.7830548153       20.1399021602
H    1.0       18.6477227939       15.8627595815       20.1759065625
O    8.0       17.0390640624       14.5142006597       20.1034803130
C    6.0       19.0743768143       14.2308956743       18.8354901202
H    1.0       18.8346837456       13.1632487300       18.7428576559
H    1.0       20.1650952843       14.3264787513       18.8766411877
O    8.0       18.5770456088       14.9591356559       17.7121633026
H    1.0       17.5998325885       14.8745004127       17.7369168706
C    6.0       14.8424230912       20.2084543925       20.9065821983
H    1.0       14.1740254910       21.0516222344       20.6895537623
O    8.0       16.1889227161       20.6522299987       21.1651418512
C    6.0       14.3294939221       19.3823862559       22.1179951548
H    1.0       13.3329685779       19.0068727337       21.8514424563
O    8.0       14.2206179777       20.1822539348       23.3054209902
H    1.0       15.1283778069       20.5193103259       23.5147664129
C    6.0       15.2438942788       18.1596791821       22.3764192699
H    1.0       16.2204035154       18.5298037209       22.7189186865
O    8.0       14.6558891094       17.3345677817       23.3859619435
H    1.0       14.3519182819       17.9580914177       24.0832107905
C    6.0       15.4644932434       17.3352885992       21.0824409666
H    1.0       14.5373131017       16.8016606501       20.8349355778
C    6.0       15.8633449844       18.2389451141       19.8868773800
H    1.0       16.8639705054       18.6426468519       20.0760197493
O    8.0       14.9020614010       19.3173385850       19.7725700984
C    6.0       15.8951961589       17.4903988709       18.5389724336
H    1.0       14.8848541883       17.1380289216       18.2920030788
H    1.0       16.5445897174       16.6117549100       18.6290517651
O    8.0       16.3939275021       18.3568548173       17.5165587238
H    1.0       15.8034895465       19.1435702680       17.5240745933
C    6.0       18.5364989761       23.9357443121       21.8971392357
H    1.0       18.9781283694       24.9082862470       22.1491028478
O    8.0       19.4701846147       23.0873789469       21.1972272662
C    6.0       18.0530821982       23.2077171865       23.1785475597
H    1.0       17.2780186569       23.8366082164       23.6357554240
O    8.0       19.1201568748       23.0150332025       24.1208072226
H    1.0       19.8523678441       23.6251009026       23.8618960950
C    6.0       17.4210998096       21.8440326487       22.8208725609
H    1.0       18.2230110252       21.1924953584       22.4506160465
O    8.0       16.8432437979       21.2683349071       23.9965231363
H    1.0       17.5307385003       21.3847881677       24.6907520878
C    6.0       16.3488532488       21.9739604750       21.7096286199
H    1.0       15.4203225777       22.3506892003       22.1588294511
C    6.0       16.7880465406       22.8980642487       20.5366860702
H    1.0       17.5264815128       22.3562406789       19.9308847505
O    8.0       17.3833418943       24.1161054655       21.0491561314
C    6.0       15.6284175469       23.2991931595       19.5978223653
H    1.0       15.2508873048       22.4014535686       19.0908886486
H    1.0       16.0190316194       23.9704790622       18.8212913063
O    8.0       14.5726279953       23.9383591071       20.3208878628
H    1.0       14.9730592888       24.7211880771       20.7607065144
C    6.0       23.5219146166       22.7343560733       20.5430358776
H    1.0       24.5765681386       22.8272132402       20.2533203851
O    8.0       23.1972099107       21.3806131396       20.9274702903
C    6.0       23.1650847737       23.7194780805       21.6882559374
H    1.0       23.3084190977       24.7333041394       21.2920685747
O    8.0       24.0088347041       23.5533925430       22.8371271880
H    1.0       23.7999224846       22.6630707568       23.2173567155
C    6.0       21.6775401156       23.5726321793       22.0863891929
H    1.0       21.5427434473       22.5795449371       22.5373197687
O    8.0       21.3568752615       24.5883795942       23.0437331998
H    1.0       22.1475980719       24.6466030079       23.6274425609
C    6.0       20.7414097678       23.6687807664       20.8483320391
H    1.0       20.6320367105       24.7187452680       20.5454866524
C    6.0       21.2547742524       22.8487592556       19.6332205315
H    1.0       21.0731258777       21.7855445861       19.8276876572
O    8.0       22.6709779775       23.0834748153       19.4311033936
C    6.0       20.5199751027       23.2231471295       18.3295778265
H    1.0       20.7726381730       24.2555045799       18.0529364109
H    1.0       19.4360101376       23.1787791407       18.4998672165
O    8.0       20.8844026871       22.3175780036       17.2859527907
H    1.0       21.8651704630       22.3457676728       17.2296351959
C    6.0       24.7872672829       17.8271178190       22.3253182608
H    1.0       25.4117135105       17.0285116394       22.7460352152
O    8.0       23.5997607061       17.3014410844       21.7006824024
C    6.0       24.3678934712       18.8228434662       23.4363344686
H    1.0       25.2896309760       19.2471421655       23.8554025467
O    8.0       23.6309062139       18.1681133056       24.4820322140
H    1.0       23.7808697827       17.1969961419       24.3800932956
C    6.0       23.5265174507       19.9787143434       22.8495156335
H    1.0       22.5661035359       19.5603834936       22.5226456925
O    8.0       23.3045035312       20.9523913170       23.8736349583
H    1.0       23.0197283146       20.4277172950       24.6557399459
C    6.0       24.2142727165       20.6317726300       21.6224003365
H    1.0       25.0316031079       21.2743644072       21.9750248743
C    6.0       24.7700592991       19.5821995967       20.6194645907
H    1.0       23.9206802449       19.1182339522       20.1007624231
O    8.0       25.5231385450       18.5660701630       21.3275803143
C    6.0       25.6949285562       20.1914423167       19.5422673970
H    1.0       25.1104455372       20.8786969531       18.9163294399
H    1.0       26.0571205470       19.3851309541       18.8904564321
O    8.0       26.7973351764       20.8829067820       20.1361957055
H    1.0       27.2647799675       20.2257174476       20.6985010511
C    6.0       21.5004032919       13.7553451120       21.3914017560
H    1.0       21.1595742440       12.7245440915       21.2327952283
O    8.0       20.4005915936       14.6678487279       21.5868628770
C    6.0       22.4093302890       13.8359822694       22.6415808102
H    1.0       23.2806182294       13.1942277212       22.4565445456
O    8.0       21.7186849708       13.3665181161       23.8101823778
H    1.0       20.7784183477       13.6710542240       23.7409412280
C    6.0       22.9191741567       15.2815527989       22.8577831124
H    1.0       22.0591873309       15.9050455140       23.1382111895
O    8.0       23.8780682864       15.2792906303       23.9207751063
H    1.0       23.5005725332       14.6724375261       24.5980670467
C    6.0       23.5387783275       15.8698201094       21.5585001178
H    1.0       24.5345057118       15.4380736636       21.3899455078
C    6.0       22.6640351268       15.6059674791       20.3055346345
H    1.0       21.7757369705       16.2444818118       20.3607967645
O    8.0       22.2763714645       14.2117376298       20.2646935681
C    6.0       23.4069400260       15.9330703155       18.9938814864
H    1.0       24.2197873773       15.2098203328       18.8447051551
H    1.0       23.8589598487       16.9304027502       19.0732807305
O    8.0       22.4952788349       15.9043182823       17.8939683211