$$$$
! Edit this basic GAMESS input file as needed.
! Conformer was generated by a VeraChem VCPack run 
! and contains    142 atoms.
!
 $contrl scftyp=rhf runtyp=optimize nzvar=0
  maxit=200 icharg=0 $end
 $system mwords=50 $end
 $basis gbasis=pm3 $end
 $statpt nstep=200 $end
 $guess guess=huckel $end
 $data
VM2 Rank=1      G=549.364           E=365.041           -TS=184.323             
C1
C    6.0       16.2803308200       15.1188919200       21.2173640229
H    1.0       15.1949161471       14.9575062163       21.1870757740
O    8.0       16.6076653277       16.5079861053       21.4244412097
C    6.0       16.9321613906       14.2863388695       22.3514887908
H    1.0       16.7291469059       13.2291378469       22.1367009588
O    8.0       16.3724346823       14.6170216415       23.6321128014
H    1.0       16.3961115345       15.6034690011       23.7232408017
C    6.0       18.4683355455       14.4807378915       22.3610483837
H    1.0       18.6817797696       15.5166427042       22.6500059098
O    8.0       19.0549129097       13.5818544712       23.3083129154
H    1.0       18.5158447437       13.6829592271       24.1237615323
C    6.0       19.0782787676       14.2358230272       20.9587520283
H    1.0       19.0959069101       13.1533222704       20.7754477962
C    6.0       18.2908344560       14.9535587671       19.8272465450
H    1.0       18.4801284056       16.0327560109       19.9025680971
O    8.0       16.8729282739       14.6964637408       19.9712776921
C    6.0       18.7058354398       14.5015241280       18.4091939208
H    1.0       19.7524449392       14.7826436919       18.2346532419
H    1.0       18.0962356755       15.0431572864       17.6736417991
O    8.0       18.5405732992       13.0895555408       18.2475422994
H    1.0       17.5963270467       12.8995211395       18.4444047305
C    6.0       14.8926115415       20.2475726616       21.9008677734
H    1.0       14.2323719667       21.1072598018       22.0736954193
O    8.0       16.1728879803       20.6550967528       21.3760630006
C    6.0       15.1085344539       19.4603140017       23.2186798343
H    1.0       14.1275369770       19.0793500349       23.5312858253
O    8.0       15.6351379778       20.2942372450       24.2623271564
H    1.0       15.6631197428       21.2179545419       23.9125813246
C    6.0       16.0360439228       18.2476708171       22.9779070988
H    1.0       17.0286530869       18.6261942377       22.7054029520
O    8.0       16.1208126484       17.4791110905       24.1811523120
H    1.0       16.2341665114       18.1506295020       24.8911950246
C    6.0       15.5181087311       17.3671570581       21.8147434508
H    1.0       14.6533403653       16.7946470609       22.1758449326
C    6.0       15.1180195012       18.2037584907       20.5649970741
H    1.0       16.0376230697       18.5653798977       20.0858674131
O    8.0       14.2962354394       19.3352650282       20.9538399238
C    6.0       14.3301727665       17.3915250724       19.5129756216
H    1.0       14.9736263389       16.5931641364       19.1201566797
H    1.0       14.0796242468       18.0517597088       18.6719116818
O    8.0       13.1401043108       16.8328914667       20.0774014556
H    1.0       12.6215677881       17.5898360666       20.4305844869
C    6.0       18.4181188007       24.0683186275       20.6921497618
H    1.0       18.8019172979       25.0527701232       20.3957801630
O    8.0       19.4686799137       23.1919743215       21.1495187824
C    6.0       17.3922280892       24.2103666516       21.8421980554
H    1.0       16.5625125106       24.8246695625       21.4689382294
O    8.0       17.9820020675       24.8573471863       22.9811455268
H    1.0       18.9072900746       24.5142089772       23.0701249558
C    6.0       16.8209629877       22.8276919793       22.2406419812
H    1.0       17.6330644256       22.2483530449       22.6982166608
O    8.0       15.7671696753       23.0192667067       23.1898243562
H    1.0       16.1002776666       23.7191715324       23.7967744369
C    6.0       16.3048409018       22.0411921615       21.0037897333
H    1.0       15.3453828485       22.4612603674       20.6734748713
C    6.0       17.2974185161       22.0808390387       19.8102924400
H    1.0       18.1577122445       21.4378392617       20.0331317663
O    8.0       17.7364825545       23.4420413569       19.5858299749
C    6.0       16.6455866117       21.5795349848       18.5050231599
H    1.0       15.8086500471       22.2395879382       18.2403830075
H    1.0       16.2381200109       20.5729681427       18.6679751346
O    8.0       17.6130787141       21.5507468590       17.4537992043
H    1.0       17.9928243397       22.4561579783       17.4105563483
C    6.0       23.5911318731       22.7438663443       21.2692354397
H    1.0       24.6805754107       22.8590758174       21.1990926773
O    8.0       23.2184044699       21.3754401869       21.5296446304
C    6.0       22.9997050441       23.6553340236       22.3773994799
H    1.0       23.2093241674       24.6936199156       22.0890703424
O    8.0       23.5996955495       23.4012310941       23.6562353235
H    1.0       23.4354821914       22.4486654107       23.8737884925
C    6.0       21.4632307795       23.4833052827       22.4493762573
H    1.0       21.2509182420       22.4567241212       22.7737014923
O    8.0       20.9184560859       24.4127917050       23.3916049374
H    1.0       21.5155104714       24.3667825821       24.1713902563
C    6.0       20.8131196950       23.7012159305       21.0602682476
H    1.0       20.8325058912       24.7758859272       20.8365466512
C    6.0       21.5423747836       22.9194215012       19.9315995734
H    1.0       21.3199527789       21.8503252113       20.0486806075
O    8.0       22.9737826218       23.1351151017       20.0242800423
C    6.0       21.0999906681       23.3391532309       18.5123180397
H    1.0       20.0368284672       23.1015078793       18.3831345132
H    1.0       21.6583523516       22.7431925178       17.7781020505
O    8.0       21.3246202311       24.7350118727       18.2925204758
H    1.0       22.2816857003       24.8876755181       18.4570473058
C    6.0       24.6560235712       17.6444608431       22.5506932351
H    1.0       25.2276628613       16.7746244068       22.8977556507
O    8.0       23.4634270657       17.2458936749       21.8446970782
C    6.0       24.2593302929       18.5311960702       23.7577610558
H    1.0       25.1912793794       18.8772409091       24.2232001064
O    8.0       23.5031357452       17.7927375395       24.7284512775
H    1.0       22.6920351354       17.4501194490       24.2751837339
C    6.0       23.4688635648       19.7758709938       23.2973630645
H    1.0       22.5030678679       19.4339602492       22.9073368737
O    8.0       23.2635932360       20.6383690361       24.4202538250
H    1.0       22.9817346765       20.0415207615       25.1483642127
C    6.0       24.2047518365       20.5412902029       22.1696442918
H    1.0       25.0175671481       21.1305540467       22.6148859974
C    6.0       24.7676212333       19.5960542017       21.0716074693
H    1.0       23.9166508078       19.2439479657       20.4769576093
O    8.0       25.4515561182       18.4605346201       21.6632259914
C    6.0       25.7540432346       20.2927410199       20.1083093988
H    1.0       25.2212211361       21.0781346683       19.5559068961
H    1.0       26.1072421755       19.5585044224       19.3719230331
O    8.0       26.8605832816       20.8543374935       20.8198132116
H    1.0       27.2784086498       20.1118349296       21.3105225297
C    6.0       21.4518664605       13.9900132998       20.4160165303
H    1.0       21.0601292807       13.0860240762       19.9320688168
O    8.0       20.4016583770       14.8001741266       20.9791958723
C    6.0       22.4412613790       13.6268761862       21.5464323303
H    1.0       23.2785349779       13.0852861645       21.0874968648
O    8.0       21.8135446667       12.7839295324       22.5259522867
H    1.0       20.9545422897       13.2120800692       22.7741237634
C    6.0       23.0064138481       14.9045524118       22.2139477583
H    1.0       22.1925118906       15.3597612937       22.7911362798
O    8.0       24.0707532177       14.5275544697       23.0931017113
H    1.0       23.6992535099       13.8121552390       23.6544110074
C    6.0       23.5070004991       15.9615456676       21.1854798941
H    1.0       24.5270112580       15.7088598673       20.8662553120
C    6.0       22.6066899344       16.0888812522       19.9223833112
H    1.0       21.7316404045       16.7049268522       20.1684837879
O    8.0       22.1838872716       14.7827892982       19.4642632494
C    6.0       23.3535795619       16.7452150677       18.7425078730
H    1.0       24.1713363428       16.0858446177       18.4218427966
H    1.0       23.8012308659       17.6896272043       19.0689772580
O    8.0       22.4503747840       16.9834210570       17.6614685504
H    1.0       22.0144291748       16.1218637504       17.4779131915
C    6.0       19.6850046998       19.7750761869       22.3113752460
H    1.0       20.5978479463       20.2744352501       21.9630326631
H    1.0       18.8771847723       20.0393573078       21.6194952786
C    6.0       19.3480292121       20.2169170476       23.7470107010
H    1.0       18.2606314311       20.2941063956       23.8617660187
H    1.0       19.7812211926       21.1933898547       23.9988322208
C    6.0       19.8735331856       19.0989932477       24.6594335242
H    1.0       19.2997448600       19.0326236289       25.5923567546
H    1.0       20.9213527306       19.2930840826       24.9154194353
C    6.0       19.7627644706       17.8130722890       23.8308735532
H    1.0       18.7668030748       17.3749369173       23.9802861701
C    6.0       19.9024604732       18.2468614091       22.3601276083
H    1.0       20.8957120684       17.9932554361       21.9722913203
H    1.0       19.1639777536       17.7258191277       21.7387909522
O    8.0       20.7860342492       16.8981829676       24.1957866345
H    1.0       20.5616373486       16.5738892270       25.0911879827
 $end
