$$$$
! Edit this basic GAMESS input file as needed.
! Conformer was generated by a VeraChem VCPack run 
! and contains    145 atoms.
!
 $contrl scftyp=rhf runtyp=optimize nzvar=0
  maxit=200 icharg=0 $end
 $system mwords=50 $end
 $basis gbasis=pm3 $end
 $statpt nstep=200 $end
 $guess guess=huckel $end
 $data
VM2 Rank=1      G=488.790           E=301.578           -TS=187.212             
C1
C    6.0       16.1912946611       15.2920639859       21.7213601867
H    1.0       15.1214459301       15.1209922685       21.8957408672
O    8.0       16.4429170739       16.6140304519       21.2062349043
C    6.0       16.9857321789       15.0989738760       23.0368608007
H    1.0       16.8369705081       14.0592354803       23.3561695443
O    8.0       16.5210315387       15.9737951912       24.0732332593
H    1.0       17.2215379677       15.9287449729       24.7626698845
C    6.0       18.4992070110       15.3066518762       22.8051451785
H    1.0       18.6724521155       16.3627742408       22.5577873299
O    8.0       19.2042308825       14.9523409629       24.0003643175
H    1.0       20.1034690862       14.6573055637       23.7198765064
C    6.0       19.0134257281       14.4468088515       21.6250508592
H    1.0       19.0881395449       13.4036433138       21.9610410934
C    6.0       18.0917280864       14.5386982260       20.3745913609
H    1.0       18.2140821622       15.5350451174       19.9294779202
O    8.0       16.7068057296       14.3440649757       20.7617396372
C    6.0       18.4233822106       13.4977667972       19.2821990167
H    1.0       19.4249800837       13.7041451370       18.8823338995
H    1.0       17.7121058037       13.6170760810       18.4539803432
O    8.0       18.3626918730       12.1657924812       19.8007219066
H    1.0       17.4558227464       12.0526095981       20.1630119711
C    6.0       14.6550506996       20.2391439611       20.4947443348
H    1.0       14.0457350769       21.1021604171       20.1969386758
O    8.0       15.9893551570       20.6368365226       20.8774009068
C    6.0       13.9892305713       19.4519388753       21.6534282913
H    1.0       13.0495140012       19.0384542807       21.2655590713
O    8.0       13.6854669718       20.3164163067       22.7583301481
H    1.0       14.5497058705       20.5773421961       23.1630566296
C    6.0       14.8921420520       18.2605663642       22.0732271153
H    1.0       15.8109298091       18.6692862460       22.5166307611
O    8.0       14.2193409535       17.4369302983       23.0326492582
H    1.0       14.9282881701       16.9267333671       23.4961711074
C    6.0       15.2894490806       17.3949863879       20.8426791568
H    1.0       14.4435145191       16.7552384750       20.5576783024
C    6.0       15.7108958703       18.2279209616       19.6017186027
H    1.0       16.7212955424       18.6218789601       19.7646921868
O    8.0       14.7763726740       19.3159269542       19.3934246536
C    6.0       15.7316606728       17.3725759968       18.3180009316
H    1.0       14.7159468072       17.0130757595       18.1057394307
H    1.0       16.3710039047       16.4943158676       18.4793187762
O    8.0       16.2291492667       18.1439357166       17.2231176010
H    1.0       15.7254889671       18.9881555210       17.2358405562
C    6.0       18.3786232065       23.7890100252       21.9972113549
H    1.0       18.8161483638       24.7416059677       22.3208772923
O    8.0       19.3822570452       22.8926271056       21.4726583402
C    6.0       17.6716887589       23.0947465272       23.1874884293
H    1.0       16.8644011066       23.7582221565       23.5233799864
O    8.0       18.6064399216       22.9123813357       24.2652367813
H    1.0       18.3395341939       22.1027872657       24.7739027654
C    6.0       17.0253639667       21.7582346581       22.7351308581
H    1.0       17.8284837868       21.0495205400       22.4975473288
O    8.0       16.2046901391       21.2328725617       23.7858405597
H    1.0       16.8194410915       20.9017336117       24.4918714894
C    6.0       16.1538723723       21.9426818933       21.4620291744
H    1.0       15.1923529628       22.3851182000       21.7543548221
C    6.0       16.8315907048       22.8232899920       20.3756501874
H    1.0       17.6329191254       22.2344925493       19.9109204236
O    8.0       17.3897837184       24.0175748215       20.9728281162
C    6.0       15.8685647109       23.2635605266       19.2507387769
H    1.0       15.5213290108       22.3741539709       18.7084643918
H    1.0       16.4235412217       23.8856575076       18.5356829844
O    8.0       14.7526862560       23.9875418988       19.7772809705
H    1.0       15.1289653937       24.7449783284       20.2786136360
C    6.0       23.5426541150       22.7200230475       21.1147634651
H    1.0       24.5936767453       22.9410884316       20.8888637858
O    8.0       23.3591560156       21.3496431852       21.5150461661
C    6.0       23.0228790931       23.6302354069       22.2570048881
H    1.0       23.1279450876       24.6707089540       21.9232489655
O    8.0       23.7792321429       23.4400758892       23.4612126363
H    1.0       23.2834296740       23.9443221024       24.1451903564
C    6.0       21.5236746928       23.3666047468       22.5366189551
H    1.0       21.4305259421       22.3471737685       22.9337290177
O    8.0       21.0567730469       24.3064663020       23.5118816917
H    1.0       20.2274521233       23.9156765620       23.8854483325
C    6.0       20.6866772848       23.4546434029       21.2292602766
H    1.0       20.6137916929       24.5003400559       20.9023531266
C    6.0       21.3219050958       22.6134707512       20.0892775461
H    1.0       21.2185040402       21.5492983432       20.3410364734
O    8.0       22.7232878886       22.9561805714       19.9506646356
C    6.0       20.6501637155       22.8416357682       18.7170425038
H    1.0       19.5902292141       22.5658674482       18.7849060803
H    1.0       21.1164792064       22.1721377442       17.9820874097
O    8.0       20.7808550048       24.2038123383       18.2994847847
H    1.0       21.7407652387       24.4103834802       18.3473801823
C    6.0       25.1915198108       17.6848493813       21.7391270482
H    1.0       25.8636993113       16.8193706003       21.7948923966
O    8.0       23.8162558664       17.2881086229       21.5667624054
C    6.0       25.3065718740       18.5319137753       23.0297285625
H    1.0       26.3380638428       18.9028806475       23.0892282968
O    8.0       25.0189991441       17.7499486710       24.1969154696
H    1.0       24.9284863196       18.4106862872       24.9201744047
C    6.0       24.3641016963       19.7544147836       22.9649517626
H    1.0       23.3305528338       19.3871266563       22.9984249014
O    8.0       24.6138943088       20.6138776221       24.0837493736
H    1.0       24.1691639172       21.4738276772       23.8826945172
C    6.0       24.5496828404       20.5540929613       21.6518500722
H    1.0       25.4512531490       21.1736819561       21.7480188555
C    6.0       24.6534840647       19.6527879443       20.3880406968
H    1.0       23.6499201035       19.2728143615       20.1546686911
O    8.0       25.5505396157       18.5400840790       20.6336775447
C    6.0       25.1704230839       20.4020525863       19.1398551251
H    1.0       24.4521124694       21.1860054335       18.8668779338
H    1.0       25.2173699144       19.6963417433       18.2996847682
O    8.0       26.4595829405       20.9744501490       19.3789096541
H    1.0       27.0432820552       20.2310798126       19.6497181255
C    6.0       21.3317479558       14.0238206812       20.9614836386
H    1.0       20.9055805894       13.0466742223       20.7001541396
O    8.0       20.3003319313       14.9848294204       21.2632421174
C    6.0       22.2927423641       13.9013026868       22.1744004374
H    1.0       23.0939050574       13.2086835254       21.8852923930
O    8.0       21.6257240864       13.3874761884       23.3341350225
H    1.0       22.2931702989       13.4515476444       24.0541336752
C    6.0       22.9430898768       15.2644360615       22.5083340740
H    1.0       22.1556822696       15.9393228966       22.8722492042
O    8.0       23.9370244129       15.0838813207       23.5245505313
H    1.0       24.2578595043       15.9879713053       23.7686009205
C    6.0       23.5837045379       15.9040222925       21.2512177663
H    1.0       24.5127579183       15.3740458901       21.0028085046
C    6.0       22.6381157435       15.8704671462       20.0220162775
H    1.0       21.8249365660       16.5863158946       20.1927730467
O    8.0       22.0969405895       14.5366882556       19.8509973329
C    6.0       23.3452912900       16.2598715412       18.7052243380
H    1.0       23.7541492946       17.2737746229       18.8020103763
H    1.0       22.6003193015       16.2807834292       17.8986687609
O    8.0       24.3908521266       15.3351450530       18.3912572237
H    1.0       23.9763465611       14.4437013351       18.4035775628
C    6.0       18.9572148673       19.4761474700       25.4667368423
O    8.0       19.5484503364       19.0336134821       26.4315016939
O    8.0       18.2053219480       20.4320996528       25.5133819186
C    6.0       19.1820321491       18.8122782885       24.1121346274
H    1.0       18.2254164800       18.8042289296       23.5785711247
H    1.0       19.4622717513       17.7687668499       24.2936877948
C    6.0       20.2810183587       19.5140754778       23.2728683828
H    1.0       20.0181306850       20.5693146343       23.1302062066
H    1.0       21.2136345452       19.5045285735       23.8516944368
C    6.0       20.5315485784       18.8485636013       21.8987801863
H    1.0       20.7067249307       17.7737233829       22.0363311917
H    1.0       21.4535025531       19.2623340085       21.4711240465
C    6.0       19.3762963356       19.0717055751       20.8984111911
H    1.0       18.4512475157       18.6314223017       21.2905709285
H    1.0       19.1927276779       20.1476041860       20.7815204139
C    6.0       19.6878695205       18.4584173756       19.5187305939
H    1.0       18.8891573210       18.6889243073       18.8023168121
H    1.0       20.6286451856       18.8541763354       19.1154807802
H    1.0       19.7713801497       17.3672316578       19.5883603025
 $end
