$$$$
! Edit this basic GAMESS input file as needed.
! Conformer was generated by a VeraChem VCPack run 
! and contains    151 atoms.
!
 $contrl scftyp=rhf runtyp=optimize nzvar=0
  maxit=200 icharg=0 $end
 $system mwords=50 $end
 $basis gbasis=pm3 $end
 $statpt nstep=200 $end
 $guess guess=huckel $end
 $data
VM2 Rank=1      G=504.819           E=307.411           -TS=197.408             
C1
C    6.0       16.3352320382       15.3015150756       20.7539236860
H    1.0       15.2894023685       15.1664915858       20.4495693051
O    8.0       16.5582317306       16.6071373635       21.3199029887
C    6.0       16.7373387944       14.2336683002       21.8058492949
H    1.0       16.5694907819       13.2485546917       21.3515151916
O    8.0       15.9440147843       14.3462941333       22.9956755472
H    1.0       16.3637710171       13.7260878960       23.6334345810
C    6.0       18.2378129073       14.3395998148       22.1699357059
H    1.0       18.3944618946       15.2856583471       22.7069597342
O    8.0       18.6073231105       13.2352136871       23.0054753620
H    1.0       19.5645905473       13.3539200509       23.2274360543
C    6.0       19.1215160037       14.3554440380       20.8991521069
H    1.0       19.1250055087       13.3549949755       20.4465784993
C    6.0       18.6130174025       15.3806101918       19.8534645263
H    1.0       18.7711127870       16.3909190595       20.2511326114
O    8.0       17.2029121355       15.1570953585       19.6097756761
C    6.0       19.3383595098       15.2753396393       18.4934425439
H    1.0       20.4097991411       15.4586672910       18.6395288585
H    1.0       18.9590151609       16.0634325963       17.8296065296
O    8.0       19.1348644036       13.9887380002       17.9020872876
H    1.0       18.1616089769       13.8541594119       17.8754025888
C    6.0       14.6644744390       20.2746301098       21.7904127202
H    1.0       13.9346526417       21.0876589593       21.8891606093
O    8.0       16.0152276085       20.7717230033       21.7258946262
C    6.0       14.5433836700       19.3055430750       22.9941936022
H    1.0       13.5211571395       18.9053605947       22.9873976031
O    8.0       14.7737510801       19.9810286094       24.2377812680
H    1.0       14.8421629519       19.2583168433       24.9017949352
C    6.0       15.5176027430       18.1132913584       22.8554146800
H    1.0       16.5424504114       18.4904684256       22.9696104059
O    8.0       15.2343727901       17.1476840452       23.8753686287
H    1.0       15.6674201273       16.3047684855       23.5934800985
C    6.0       15.3923293431       17.4401266953       21.4672914208
H    1.0       14.4659837939       16.8503228732       21.4567573614
C    6.0       15.3748472254       18.4677242446       20.2996298749
H    1.0       16.3800268510       18.8985694024       20.1976046660
O    8.0       14.4155971118       19.5166239476       20.5879412224
C    6.0       14.9885453001       17.8514783628       18.9365823583
H    1.0       15.7587003770       17.1299834541       18.6353130386
H    1.0       14.9776239823       18.6481721442       18.1807040488
O    8.0       13.7100121929       17.2125227063       19.0026879212
H    1.0       13.0755448456       17.8999855331       19.3045066881
C    6.0       18.3583522469       24.1550073983       21.3795749340
H    1.0       18.7609192807       25.1699600118       21.2714243176
O    8.0       19.3986095139       23.1566931488       21.3354844539
C    6.0       17.5973571505       24.0278739540       22.7222942339
H    1.0       16.7648993671       24.7430212724       22.6957539413
O    8.0       18.4425675321       24.3336688972       23.8392873639
H    1.0       17.9255630112       24.0462051664       24.6253738485
C    6.0       17.0011522067       22.6119078832       22.8825861436
H    1.0       17.8328343279       21.9038616725       22.9958165996
O    8.0       16.1659904681       22.5763066323       24.0461187862
H    1.0       15.7857473103       21.6637149683       24.0956833656
C    6.0       16.1785807899       22.1994515472       21.6360154893
H    1.0       15.2175955391       22.7303789100       21.6528583381
C    6.0       16.9045253231       22.5100256598       20.2971737709
H    1.0       17.7271691521       21.7978971767       20.1600278170
O    8.0       17.4150207752       23.8672296295       20.3254975897
C    6.0       15.9640162019       22.3936333762       19.0803030559
H    1.0       15.1537837639       23.1287214810       19.1756484849
H    1.0       15.5103223109       21.3942463353       19.0662361784
O    8.0       16.6983090140       22.6097599751       17.8736144584
H    1.0       17.1847106713       23.4555184043       17.9976142779
C    6.0       23.4558759688       22.6068174393       20.6744845860
H    1.0       24.5075513536       22.6947067786       20.3734750717
O    8.0       23.1468641197       21.2689535216       21.1137874333
C    6.0       23.1157079211       23.6210177799       21.8014204959
H    1.0       23.3023672733       24.6243360904       21.3979103078
O    8.0       23.9606344993       23.4200337252       22.9457270314
H    1.0       23.7023318423       22.5504969893       23.3417767301
C    6.0       21.6135099140       23.5396226568       22.1851460121
H    1.0       21.4393390917       22.5730735993       22.6783133088
O    8.0       21.2671156478       24.6112957270       23.0712253032
H    1.0       20.3335154583       24.4528407578       23.3566107202
C    6.0       20.7030135965       23.6151768080       20.9315206942
H    1.0       20.6805423267       24.6502667235       20.5659881559
C    6.0       21.1826216080       22.6922244397       19.7812958275
H    1.0       20.9954028778       21.6522160202       20.0712983446
O    8.0       22.5985180599       22.8975599388       19.5509947147
C    6.0       20.4451594093       22.9436807213       18.4479142450
H    1.0       19.3751070670       22.7470297718       18.5895979469
H    1.0       20.8132933230       22.2267560787       17.7018178029
O    8.0       20.6451136129       24.2847371218       17.9911820358
H    1.0       21.6183469612       24.4151037648       17.9495148552
C    6.0       24.9199408652       17.7154019927       22.2808729981
H    1.0       25.5859936317       16.9185443915       22.6353308361
O    8.0       23.7109382716       17.1823110846       21.7014837496
C    6.0       24.5408234613       18.6602098452       23.4501953598
H    1.0       25.4667836874       19.1259633007       23.8113772221
O    8.0       23.9522515180       17.9046855619       24.5204791071
H    1.0       23.2645728609       18.4750961469       24.9518033430
C    6.0       23.6074093854       19.7942316116       22.9508495971
H    1.0       22.6543965595       19.3462595345       22.6451268067
O    8.0       23.3811783844       20.7502018700       23.9957784061
H    1.0       22.7196920505       20.3384709912       24.6121395349
C    6.0       24.2147550661       20.5138466295       21.7178186702
H    1.0       25.0325130122       21.1621783827       22.0588213284
C    6.0       24.7439871794       19.5211420964       20.6440114665
H    1.0       23.8801030056       19.0440642219       20.1621489360
O    8.0       25.5746288620       18.5124931982       21.2715473732
C    6.0       25.5806018015       20.1920467494       19.5319005248
H    1.0       24.9341746374       20.8660304418       18.9543921402
H    1.0       25.9375881098       19.4150388685       18.8426848381
O    8.0       26.6864786222       20.9157255271       20.0793148009
H    1.0       27.2081706647       20.2669838596       20.6021215308
C    6.0       21.4783012328       13.7753992661       21.1989208691
H    1.0       21.0709195057       12.7732295759       21.0156318808
O    8.0       20.4362719140       14.7670257337       21.3161330049
C    6.0       22.3120825423       13.7753326667       22.5019867630
H    1.0       23.1483924356       13.0788581982       22.3580805015
O    8.0       21.5238050388       13.3436808696       23.6200650618
H    1.0       22.0831465648       13.5352310555       24.4061509321
C    6.0       22.9010759446       15.1771407069       22.7792428436
H    1.0       22.0651652261       15.8460255893       23.0214441608
O    8.0       23.7943457825       15.0967195871       23.8956110161
H    1.0       23.9230966798       16.0260122485       24.2103714943
C    6.0       23.6373266408       15.7532536081       21.5375194119
H    1.0       24.6343581875       15.3009765613       21.4533526985
C    6.0       22.8652800733       15.5247543212       20.2087330280
H    1.0       22.0251586559       16.2285856746       20.1777238416
O    8.0       22.3618750219       14.1684300196       20.1299075631
C    6.0       23.7351192599       15.7786482092       18.9578727487
H    1.0       24.1121360544       16.8097471696       18.9862228627
H    1.0       23.1045450156       15.6819676244       18.0638932048
O    8.0       24.8261412281       14.8556091047       18.8962239289
H    1.0       24.4270415276       13.9593702318       18.9614793728
C    6.0       20.6068743550       18.4739576644       25.2537204031
O    8.0       21.6179625580       19.1290637797       25.4336114266
O    8.0       19.9234090563       18.0216531607       26.1505635847
C    6.0       20.1695280289       18.2210484688       23.8142398504
H    1.0       19.4196807735       17.4210053130       23.8122718693
H    1.0       21.0398853804       17.8509744683       23.2651947745
C    6.0       19.5962736613       19.4914499920       23.1383770470
H    1.0       18.7331925583       19.8380536873       23.7224906018
H    1.0       20.3406833281       20.2985240503       23.1783728359
C    6.0       19.1549343855       19.2734557870       21.6742904734
H    1.0       18.6839974216       20.1985027911       21.3260769777
H    1.0       18.3886409982       18.4922201295       21.6270428316
C    6.0       20.3154018858       18.9114816378       20.7244230434
H    1.0       21.1609533813       19.5811726325       20.9129134157
H    1.0       20.6646987288       17.8937997423       20.9370354378
C    6.0       19.8960533879       19.0264418926       19.2431940243
H    1.0       19.4976295583       20.0313233255       19.0508839560
H    1.0       19.0812246119       18.3233507823       19.0305069159
C    6.0       21.0831929306       18.7621006850       18.2954902292
H    1.0       21.8883676033       19.4803088078       18.5042506730
H    1.0       21.4906780892       17.7612528047       18.4811989905
C    6.0       20.6646290436       18.8766300711       16.8169929084
H    1.0       20.2777054848       19.8797131624       16.5954596255
H    1.0       21.5214535298       18.6900500008       16.1569883273
H    1.0       19.8823767492       18.1466953214       16.5722609273
 $end
$$$$
! Edit this basic GAMESS input file as needed.
! Conformer was generated by a VeraChem VCPack run 
! and contains    151 atoms.
!
 $contrl scftyp=rhf runtyp=optimize nzvar=0
  maxit=200 icharg=0 $end
 $system mwords=50 $end
 $basis gbasis=pm3 $end
 $statpt nstep=200 $end
 $guess guess=huckel $end
 $data
VM2 Rank=2      G=504.831           E=307.991           -TS=196.840             
C1
C    6.0       16.3213928921       15.2126268900       21.5871646485
H    1.0       15.2405116021       15.0732255558       21.7157754832
O    8.0       16.6442154757       16.5769666541       21.2473600037
C    6.0       17.0690139286       14.8161693691       22.8851415122
H    1.0       16.8612109457       13.7536030375       23.0667599401
O    8.0       16.6217491353       15.5750572280       24.0156750748
H    1.0       17.3031489769       15.4076988089       24.7058910239
C    6.0       18.5964071212       14.9720511577       22.7158250562
H    1.0       18.8272250802       16.0386752248       22.5995766226
O    8.0       19.2455695691       14.4496210070       23.8804432130
H    1.0       20.1624947650       14.2011663916       23.6103979647
C    6.0       19.1016204849       14.2334769217       21.4525151216
H    1.0       19.1210768868       13.1550724015       21.6599737811
C    6.0       18.2213240758       14.5223327966       20.2035535907
H    1.0       18.4090520596       15.5557903936       19.8831106630
O    8.0       16.8174834048       14.3612481200       20.5313599346
C    6.0       18.5355804653       13.5972309554       19.0070244575
H    1.0       19.5657056606       13.7804578633       18.6734085854
H    1.0       17.8705083483       13.8603109658       18.1735443476
O    8.0       18.3687770546       12.2210037596       19.3608134889
H    1.0       17.4426198162       12.1297375874       19.6777742823
C    6.0       14.7926250652       20.3008941069       20.9063789822
H    1.0       14.1042591865       21.1233474151       20.6733009042
O    8.0       16.0542215711       20.7850269902       21.4010083213
C    6.0       14.1848621517       19.3689771141       21.9848632256
H    1.0       13.2365327802       18.9829904694       21.5889860565
O    8.0       13.9352182960       20.0826331406       23.2049705463
H    1.0       13.6870662178       19.3855870425       23.8529389894
C    6.0       15.1112796570       18.1613763083       22.2692766379
H    1.0       16.0220219076       18.5384996464       22.7557175550
O    8.0       14.4326088846       17.2543312689       23.1458251640
H    1.0       15.1302364001       16.6575717851       23.5152716815
C    6.0       15.5291723364       17.4437114589       20.9562106569
H    1.0       14.6772169499       16.8804832064       20.5527238928
C    6.0       16.0172579855       18.4477346075       19.8788670332
H    1.0       16.9789465248       18.8647461104       20.2015134215
O    8.0       15.0461227940       19.5114598968       19.7250998415
C    6.0       16.2244477188       17.7970106974       18.4931603242
H    1.0       16.9614913347       16.9882260921       18.5819001154
H    1.0       16.6421573714       18.5486462924       17.8100397563
O    8.0       14.9920170535       17.2864740878       17.9765143882
H    1.0       14.3529850187       18.0325114950       18.0152492499
C    6.0       18.3847986539       24.1595955961       21.6905290614
H    1.0       18.8042111288       25.1709756857       21.7633923743
O    8.0       19.4158607787       23.1626115187       21.5401547128
C    6.0       17.5597192080       23.8408112011       22.9612410289
H    1.0       16.7389659096       24.5680887800       23.0113287228
O    8.0       18.3646972461       23.9548661641       24.1431369354
H    1.0       17.8157891460       23.5595848616       24.8570127970
C    6.0       16.9390140336       22.4284345062       22.8734336055
H    1.0       17.7561736439       21.6993417905       22.9359908457
O    8.0       16.0272928854       22.2285606742       23.9606134043
H    1.0       15.5024828303       21.4206863297       23.7395146302
C    6.0       16.1885820106       22.2106600209       21.5357641377
H    1.0       15.2130814452       22.7106310160       21.6020547506
C    6.0       16.9715619662       22.7313533906       20.2968152218
H    1.0       17.7989234191       22.0371410182       20.0983196011
O    8.0       17.4962777602       24.0568388961       20.5590531209
C    6.0       16.1159493706       22.8202026762       19.0133337344
H    1.0       15.8008696053       21.8115502967       18.7176066338
H    1.0       16.7402929426       23.2159977387       18.2010990501
O    8.0       14.9728789721       23.6572638171       19.2117649002
H    1.0       15.3198280568       24.5314204648       19.4980764476
C    6.0       23.4777416878       22.6845721432       20.8815063511
H    1.0       24.5330143456       22.7952210066       20.6007507575
O    8.0       23.1641947725       21.3188392536       21.2205194770
C    6.0       23.1198761238       23.6122191979       22.0750649683
H    1.0       23.2898294362       24.6448813339       21.7448678835
O    8.0       23.9681242271       23.3440096466       23.2024509538
H    1.0       23.7510093832       22.4305331379       23.5156475660
C    6.0       21.6168319135       23.4745474889       22.4398678378
H    1.0       21.4534812463       22.4622672886       22.8351951942
O    8.0       21.2377096978       24.4472673384       23.4223573539
H    1.0       20.3123689154       24.2275584668       23.6931988175
C    6.0       20.7208575214       23.6572957145       21.1871449686
H    1.0       20.6971264791       24.7204061140       20.9130906085
C    6.0       21.2147465504       22.8409900987       19.9638776393
H    1.0       21.0157356869       21.7798378851       20.1522106971
O    8.0       22.6350477799       23.0566992098       19.7718666386
C    6.0       20.5051898520       23.2253170339       18.6469100230
H    1.0       19.4263695967       23.0599040755       18.7564186011
H    1.0       20.8600664207       22.5588521412       17.8492915723
O    8.0       20.7618243195       24.5903922877       18.3044742737
H    1.0       21.7398268099       24.6900812295       18.3056314233
C    6.0       24.9318471645       17.6629138652       22.0259184791
H    1.0       25.6052982451       16.8361925389       22.2851912597
O    8.0       23.6906635516       17.1821840768       21.4677766577
C    6.0       24.6241428341       18.5173147227       23.2832861633
H    1.0       25.5755826195       18.9340721440       23.6380969999
O    8.0       24.0657805682       17.6872694611       24.3145650787
H    1.0       23.5017409167       18.2595134017       24.8961934166
C    6.0       23.6952088565       19.7070603212       22.9245676557
H    1.0       22.7123685964       19.3045715657       22.6519201289
O    8.0       23.5686152372       20.5932845976       24.0447479102
H    1.0       22.9823052200       20.1406731023       24.7061991968
C    6.0       24.2463842229       20.5053327239       21.7132030505
H    1.0       25.0915748005       21.1168536372       22.0560798431
C    6.0       24.7011311722       19.5891858248       20.5425345094
H    1.0       23.8053177624       19.1602103235       20.0739944617
O    8.0       25.5473809526       18.5273340249       21.0483017545
C    6.0       25.4887224326       20.3326411124       19.4407472277
H    1.0       24.8252748999       21.0605446169       18.9552139592
H    1.0       25.7917071645       19.6070489169       18.6740072742
O    8.0       26.6372108856       20.9933525604       19.9802060784
H    1.0       27.1719386413       20.2973552609       20.4229898315
C    6.0       21.4450482757       13.7863483168       20.8776472416
H    1.0       21.0225730757       12.8049799341       20.6260659264
O    8.0       20.4154745728       14.7529125842       21.1746883968
C    6.0       22.4095793906       13.6876096519       22.0860829125
H    1.0       23.2438724675       13.0394832589       21.7873927029
O    8.0       21.7669442978       13.1242525948       23.2358931779
H    1.0       22.4305774269       13.2092246155       23.9574388627
C    6.0       22.9886937411       15.0785892396       22.4355527603
H    1.0       22.1641641128       15.7067522307       22.8003281660
O    8.0       23.9737375348       14.9307834642       23.4645868514
H    1.0       24.0904466731       15.8309856031       23.8589614991
C    6.0       23.6060928213       15.7707392775       21.1888149710
H    1.0       24.5942096210       15.3405386507       20.9783457937
C    6.0       22.7199366927       15.6396746810       19.9182114190
H    1.0       21.8724329042       16.3295364796       20.0160351660
O    8.0       22.2217709303       14.2868907356       19.7712741642
C    6.0       23.4812074219       16.0006725613       18.6231069494
H    1.0       23.8675826286       17.0251751879       18.7073669633
H    1.0       22.7751743302       15.9820417030       17.7820660325
O    8.0       24.5566819908       15.0868911910       18.3883550195
H    1.0       24.1590776193       14.1880948392       18.4164178548
C    6.0       20.8800065321       18.5192661279       25.5988688658
O    8.0       22.0007515381       18.9877628516       25.6804100047
O    8.0       20.1610581671       18.3117272729       26.5562268602
C    6.0       20.3414496482       18.2033352225       24.2075308534
H    1.0       19.6092202408       17.3944088572       24.3059005274
H    1.0       21.1700629747       17.8181096856       23.6047075753
C    6.0       19.6863770061       19.4336695297       23.5290855039
H    1.0       18.8359251534       19.7579894770       24.1442438039
H    1.0       20.3956739648       20.2725759132       23.5178246327
C    6.0       19.1880845702       19.1568018685       22.0920016956
H    1.0       18.5730643679       20.0054264444       21.7735640657
H    1.0       18.5338579216       18.2771168296       22.0843422114
C    6.0       20.3331104893       18.9799533411       21.0725265229
H    1.0       21.0365976794       19.8107337244       21.1870868488
H    1.0       20.8898282950       18.0581840440       21.2831607915
C    6.0       19.8093348475       18.9568969594       19.6210093042
H    1.0       19.1349278283       19.8085476243       19.4599557257
H    1.0       19.2212552260       18.0434237629       19.4623923845
C    6.0       20.9558442137       19.0287896829       18.5922142539
H    1.0       21.5391437077       19.9465049743       18.7462583495
H    1.0       21.6437505804       18.1908801453       18.7446298424
C    6.0       20.4209035888       18.9975929311       17.1474905283
H    1.0       19.7528694070       19.8477898394       16.9582403059
H    1.0       21.2479968741       19.0490696812       16.4278653752
H    1.0       19.8616454990       18.0725135957       16.9565114971
 $end
$$$$
! Edit this basic GAMESS input file as needed.
! Conformer was generated by a VeraChem VCPack run 
! and contains    151 atoms.
!
 $contrl scftyp=rhf runtyp=optimize nzvar=0
  maxit=200 icharg=0 $end
 $system mwords=50 $end
 $basis gbasis=pm3 $end
 $statpt nstep=200 $end
 $guess guess=huckel $end
 $data
VM2 Rank=3      G=504.904           E=307.784           -TS=197.121             
C1
C    6.0       16.2126038255       15.0525110653       21.2793344488
H    1.0       15.1286196096       14.8985137553       21.2078657584
O    8.0       16.5534290660       16.4528949256       21.3058179523
C    6.0       16.7569499698       14.3791504777       22.5639348613
H    1.0       16.5406405003       13.3057087777       22.4860084128
O    8.0       16.1222454524       14.9014103485       23.7390455065
H    1.0       16.6556018619       14.5466915805       24.4856719672
C    6.0       18.2895888044       14.5457908184       22.6728282006
H    1.0       18.5075717388       15.6066251095       22.8515772424
O    8.0       18.7770173420       13.7578966160       23.7657703425
H    1.0       19.7639942210       13.7560162263       23.6971980351
C    6.0       19.0012227376       14.1145150452       21.3667763349
H    1.0       19.0203525955       13.0173707862       21.3277357139
C    6.0       18.3168142360       14.6724664261       20.0879642216
H    1.0       18.5240748107       15.7488699856       20.0258941944
O    8.0       16.8854936305       14.4507775525       20.1534427412
C    6.0       18.8300667990       14.0191328708       18.7857473516
H    1.0       19.8993079080       14.2385608822       18.6694294362
H    1.0       18.3084867781       14.4749448974       17.9335520439
O    8.0       18.6141363006       12.6048638263       18.8001252568
H    1.0       17.6514051266       12.4776288610       18.9535214408
C    6.0       14.9274890043       20.2601810782       20.8670623030
H    1.0       14.2785616076       21.1116496845       20.6248300590
O    8.0       16.2366533422       20.6951222851       21.2802206437
C    6.0       14.3039031325       19.3963210123       21.9956686260
H    1.0       13.3238678571       19.0535316373       21.6391182163
O    8.0       14.1284025574       20.1495957597       23.2030485176
H    1.0       13.8373979099       19.4869733794       23.8693777323
C    6.0       15.1670880862       18.1456588736       22.2863776876
H    1.0       16.1150109531       18.4788611564       22.7317079547
O    8.0       14.4717175413       17.2905729075       23.2019837613
H    1.0       15.0770815717       16.5317553735       23.3961785150
C    6.0       15.4918721491       17.3710136720       20.9852939912
H    1.0       14.5887509633       16.8538117490       20.6352184976
C    6.0       16.0046029481       18.3060645818       19.8589916490
H    1.0       17.0010718369       18.6718466127       20.1351373580
O    8.0       15.0929999749       19.4219348020       19.7039860352
C    6.0       16.1192648979       17.6019535646       18.4890483198
H    1.0       16.8167654377       16.7589790259       18.5743149460
H    1.0       16.5454509206       18.3088447242       17.7646074280
O    8.0       14.8413235654       17.1409655626       18.0407051200
H    1.0       14.2465413858       17.9231712615       18.0678646360
C    6.0       18.5042746870       24.0866381192       21.8461742040
H    1.0       18.9110856869       25.0889329503       22.0312429929
O    8.0       19.5187163466       23.1718576427       21.3889909352
C    6.0       17.8704472274       23.5173388835       23.1380148259
H    1.0       17.0377568814       24.1772532599       23.4141322196
O    8.0       18.8169864003       23.4800557546       24.2149424552
H    1.0       18.3886137459       22.9183219320       24.8995023134
C    6.0       17.2939239727       22.1059981260       22.8847199530
H    1.0       18.1313099746       21.4239237376       22.6866830505
O    8.0       16.5678713968       21.6764583934       24.0421941807
H    1.0       15.9226022705       20.9960915372       23.7324882847
C    6.0       16.3586493288       22.0811123390       21.6510230492
H    1.0       15.3911398488       22.5140687062       21.9392273903
C    6.0       16.9449992382       22.8442872253       20.4277283187
H    1.0       17.7554489318       22.2368875913       20.0033897219
O    8.0       17.4668586719       24.1322124143       20.8435411571
C    6.0       15.9184245248       23.0978594991       19.3012935446
H    1.0       15.6079834607       22.1351979031       18.8742938296
H    1.0       16.4089504739       23.6655195573       18.4991654608
O    8.0       14.7795663067       23.8125912287       19.7897633690
H    1.0       15.1238519275       24.6497608078       20.1733079831
C    6.0       23.5391560998       22.7804878712       20.6636370909
H    1.0       24.5917044308       22.8596706824       20.3626050371
O    8.0       23.1972251071       21.4273568422       21.0362697368
C    6.0       23.2152454994       23.7531920917       21.8301145029
H    1.0       23.3554404047       24.7729321750       21.4494463005
O    8.0       24.1097203331       23.5512226088       22.9344073505
H    1.0       23.8790006864       22.6746886569       23.3309718689
C    6.0       21.7277160010       23.6066392583       22.2500668840
H    1.0       21.5929241604       22.6008406429       22.6716264995
O    8.0       21.3745391280       24.5889246854       23.2314799062
H    1.0       20.5416583184       24.2650982705       23.6546577393
C    6.0       20.7845578649       23.7479641799       21.0229110020
H    1.0       20.6873863707       24.8070244200       20.7492849132
C    6.0       21.2675849585       22.9516228379       19.7824246139
H    1.0       21.0672501880       21.8915010715       19.9703427902
O    8.0       22.6857336615       23.1544130359       19.5637749159
C    6.0       20.5286405316       23.3429134105       18.4840210799
H    1.0       19.4519416856       23.1777812978       18.6195504817
H    1.0       20.8640950411       22.6800180948       17.6751351962
O    8.0       20.7792775914       24.7094110156       18.1428569411
H    1.0       21.7572038869       24.8077460620       18.1196996037
C    6.0       24.8238689178       17.7856099074       22.1520445963
H    1.0       25.4694844254       16.9642814525       22.4878292138
O    8.0       23.5825393090       17.2931701638       21.6059159098
C    6.0       24.5113797695       18.7354767472       23.3376962283
H    1.0       25.4685803837       19.1334083116       23.6985061817
O    8.0       23.8805916783       18.0001889351       24.4007067080
H    1.0       23.3000443962       18.6239586822       24.9093797771
C    6.0       23.6485496968       19.9384894025       22.8747849077
H    1.0       22.6478618216       19.5648870579       22.6251240076
O    8.0       23.5665690131       20.9103572084       23.9250284821
H    1.0       22.9842399417       20.5254496309       24.6300015641
C    6.0       24.2427080167       20.6200322538       21.6130168667
H    1.0       25.1055979117       21.2271731183       21.9172244880
C    6.0       24.6789295259       19.6008966014       20.5255207115
H    1.0       23.7745466008       19.1663620872       20.0794047525
O    8.0       25.4832533540       18.5564577197       21.1258225656
C    6.0       25.5026399252       20.2330082669       19.3816007040
H    1.0       24.8714124264       20.9504624271       18.8405397083
H    1.0       25.7819174759       19.4436173954       18.6709123801
O    8.0       26.6724396965       20.8854057778       19.8841489392
H    1.0       27.1722127067       20.2039143645       20.3864124583
C    6.0       21.4203593777       13.7815488123       21.1689429701
H    1.0       21.0751752253       12.7602219118       20.9646256079
O    8.0       20.3232386786       14.6791208220       21.4306609349
C    6.0       22.3650509857       13.8002465059       22.3962938338
H    1.0       23.2297213870       13.1677995961       22.1565945484
O    8.0       21.7127635614       13.2866380895       23.5659228081
H    1.0       22.3355867985       13.4839844904       24.3014975788
C    6.0       22.8817158754       15.2319314409       22.6715295638
H    1.0       22.0259809415       15.8451672442       22.9848785221
O    8.0       23.8529462798       15.1850956992       23.7233288049