$$$$
! Edit this basic GAMESS input file as needed.
! Conformer was generated by a VeraChem VCPack run 
! and contains    146 atoms.
!
 $contrl scftyp=rhf runtyp=optimize nzvar=0
  maxit=200 icharg=0 $end
 $system mwords=50 $end
 $basis gbasis=pm3 $end
 $statpt nstep=200 $end
 $guess guess=huckel $end
 $data
VM2 Rank=1      G=576.096           E=383.023           -TS=193.073             
C1
C    6.0       16.3809870616       15.3254432831       21.9116923559
H    1.0       15.3388768495       15.1784837892       22.2233684812
O    8.0       16.5599736737       16.5803835700       21.2258464496
C    6.0       17.3249357065       15.2775771996       23.1409237320
H    1.0       17.2003722513       14.2899920367       23.6039671821
O    8.0       17.0001276065       16.2923354245       24.1046586620
H    1.0       16.0905582559       16.6153297800       23.8949281928
C    6.0       18.8013162167       15.4235813737       22.7075363728
H    1.0       18.9384136486       16.4450047602       22.3299061840
O    8.0       19.6380378005       15.2132328570       23.8482377662
H    1.0       19.2280676876       15.7584016081       24.5575902431
C    6.0       19.1733901798       14.4345461904       21.5720193836
H    1.0       19.2749953435       13.4254152448       21.9928684103
C    6.0       18.1119890664       14.4187091965       20.4371880502
H    1.0       18.1812527946       15.3606180098       19.8783947423
O    8.0       16.7890680449       14.2729927439       21.0127755061
C    6.0       18.3142961091       13.2570734306       19.4430575627
H    1.0       18.1870420590       12.3007494006       19.9679389455
H    1.0       19.3366397959       13.2904355124       19.0452278421
O    8.0       17.3788399878       13.3716724310       18.3695672308
H    1.0       16.4904922302       13.4275336526       18.7864259071
C    6.0       14.6785858686       20.1848707919       20.6254240893
H    1.0       14.0335109874       21.0352218778       20.3691992379
O    8.0       16.0363336464       20.6066141829       20.8813897301
C    6.0       14.1238301070       19.4012979139       21.8450390341
H    1.0       13.1526569989       18.9877280773       21.5431767995
O    8.0       13.9275343096       20.2432594681       22.9902286308
H    1.0       14.8251741702       20.5452411611       23.2799678145
C    6.0       15.0548703948       18.2159079226       22.1973786390
H    1.0       16.0044067143       18.6286984620       22.5659160759
O    8.0       14.4373816737       17.4303210996       23.2231437441
H    1.0       14.0324652173       18.0849258545       23.8368186195
C    6.0       15.3648214803       17.3379959147       20.9520761132
H    1.0       14.5111765852       16.6810416314       20.7378135659
C    6.0       15.6815789004       18.1709491000       19.6817448124
H    1.0       16.6873133034       18.5914894260       19.7889471466
O    8.0       14.7196062525       19.2441462358       19.5310174847
C    6.0       15.6521703214       17.3065158497       18.4027373113
H    1.0       14.6183128139       16.9993476634       18.1954488463
H    1.0       16.2426193821       16.3950096401       18.5685172250
O    8.0       16.1921876904       18.0393241981       17.3005841925
H    1.0       15.6661964861       18.8684119729       17.2416566592
C    6.0       18.4609676150       23.7756039202       21.9351132344
H    1.0       18.8912919055       24.7277920867       22.2703133657
O    8.0       19.4414332853       22.9498823961       21.2737537103
C    6.0       17.8750624407       22.9922751788       23.1379022298
H    1.0       17.0866595003       23.6171731048       23.5774368656
O    8.0       18.8729647439       22.7221282224       24.1357636222
H    1.0       19.6211024062       23.3466527499       23.9756288185
C    6.0       17.2348848265       21.6668324253       22.6667371104
H    1.0       18.0405542950       21.0145663762       22.3037338501
O    8.0       16.5801070382       21.0510451811       23.7795141075
H    1.0       17.2373247885       21.1028271519       24.5101713102
C    6.0       16.2328716916       21.8901089822       21.5043352759
H    1.0       15.2988737135       22.2993110490       21.9114542844
C    6.0       16.7931467095       22.8377585494       20.4060288540
H    1.0       17.5620960917       22.2931599036       19.8420243240
O    8.0       17.3803883420       24.0176884613       21.0092204037
C    6.0       15.7207721006       23.3056542217       19.3971009377
H    1.0       15.3449881972       22.4340434747       18.8449469926
H    1.0       16.1918749550       23.9765377430       18.6662593867
O    8.0       14.6419157697       23.9717938048       20.0594236346
H    1.0       15.0422126482       24.7223668269       20.5524567172
C    6.0       23.5650996658       22.7196107649       20.8722198751
H    1.0       24.6271052319       22.8825079072       20.6478460736
O    8.0       23.2951106954       21.3354513332       21.1743494856
C    6.0       23.0941385192       23.6202824986       22.0460320920
H    1.0       23.2283852192       24.6605666511       21.7218535265
O    8.0       23.8656888835       23.4077771611       23.2376549114
H    1.0       23.6980877614       22.4755065080       23.5276110463
C    6.0       21.5884160761       23.4061649122       22.3354050782
H    1.0       21.4585824563       22.3860672397       22.7236889622
O    8.0       21.1746668126       24.3587000739       23.3215293469
H    1.0       21.9231670199       24.4050246362       23.9595563184
C    6.0       20.7351904784       23.5423737746       21.0415670989
H    1.0       20.6457780341       24.6006265645       20.7619669901
C    6.0       21.3468949500       22.7602988535       19.8501580994
H    1.0       21.2093127592       21.6885680190       20.0343061455
O    8.0       22.7573047237       23.0715031731       19.7294541403
C    6.0       20.6676253793       23.1039664191       18.5088502519
H    1.0       20.9078309994       24.1395653443       18.2331901326
H    1.0       19.5780367421       23.0329851540       18.6246630714
O    8.0       21.1065975309       22.1950282504       17.4971536645
H    1.0       22.0883728543       22.2396898479       17.4951729812
C    6.0       24.9300792820       17.7344007118       22.2624052533
H    1.0       25.5298551464       16.8817146195       22.6059022848
O    8.0       23.7571010382       17.3100643517       21.5399167936
C    6.0       24.4878723752       18.6090995026       23.4628800444
H    1.0       25.3989033456       19.0025206694       23.9324426450
O    8.0       23.7477083123       17.8497325746       24.4322343193
H    1.0       23.8294295746       16.8971374780       24.1829371737
C    6.0       23.6395768250       19.8050324295       22.9753550951
H    1.0       22.6937043031       19.4047157636       22.5885760573
O    8.0       23.3762103634       20.6744692747       24.0806714382
H    1.0       23.0926553376       20.0726706886       24.8056886993
C    6.0       24.3356815747       20.5879344706       21.8321917236
H    1.0       25.1027974723       21.2416618937       22.2677112966
C    6.0       24.9762239521       19.6632708569       20.7564544518
H    1.0       24.1693371462       19.2508135667       20.1364236225
O    8.0       25.7052743013       18.5786798228       21.3856411344
C    6.0       25.9501120359       20.4017229296       19.8115639420
H    1.0       25.3896181331       21.1450499498       19.2294788585
H    1.0       26.3677089043       19.6778511296       19.0989449962
O    8.0       27.0003253834       21.0389804206       20.5442565416
H    1.0       27.4490608634       20.3301689949       21.0569746594
C    6.0       21.4723574863       13.9536759085       20.8036344645
H    1.0       21.0767727727       12.9716509267       20.5164382558
O    8.0       20.4089049966       14.9120486322       20.9999753795
C    6.0       22.3596433324       13.8435459478       22.0733986246
H    1.0       23.2004863563       13.1863607084       21.8156119139
O    8.0       21.6535356568       13.2675950755       23.1816394513
H    1.0       20.9527913965       13.9174723114       23.4416168488
C    6.0       22.9430794343       15.2236767386       22.4592260194
H    1.0       22.1108674311       15.8668621348       22.7779672464
O    8.0       23.8666284907       15.0516928755       23.5395767286
H    1.0       23.4465308924       14.3867769505       24.1315420606
C    6.0       23.6424899293       15.9048997523       21.2506161222
H    1.0       24.6240382181       15.4452566983       21.0734020800
C    6.0       22.8031703143       15.8181715124       19.9502790523
H    1.0       21.9647741740       16.5153876794       20.0455855197
O    8.0       22.3193687263       14.4655782855       19.7550822343
C    6.0       23.6102880877       16.2163634346       18.6983988319
H    1.0       24.4194355366       15.4908402590       18.5404465013
H    1.0       24.0695443327       17.2003836101       18.8600725581
O    8.0       22.7452577251       16.2626855562       17.5620683360
H    1.0       22.3158844718       15.3808704019       17.5166258782
C    6.0       20.1183976930       18.9038946227       21.1451672500
H    1.0       20.6167034825       18.0075429893       21.5375142734
H    1.0       20.5458349935       19.7777064597       21.6542839090
H    1.0       19.0543073001       18.8501442229       21.4117472052
C    6.0       20.3047936104       19.0199649342       19.6169116531
H    1.0       21.3773233815       19.0448501414       19.3756154977
H    1.0       19.8797816764       19.9732523904       19.2722889608
C    6.0       19.6199482826       17.8622517507       18.8601046087
H    1.0       20.0306028367       16.8985603235       19.1791140610
H    1.0       18.5566728837       17.8434885642       19.1129753185
C    6.0       19.7743314978       18.0106312419       17.3345439612
H    1.0       20.8083667278       17.8073198171       17.0427030575
H    1.0       19.5352917866       19.0389128491       17.0507747521
N    7.0       18.8605399977       17.1026903835       16.5292362895
H    1.0       18.9269345052       17.3416355322       15.5288013508
H    1.0       17.8690540404       17.2932227086       16.7812985587
C    6.0       19.2086554494       15.6340695582       16.7414836315
H    1.0       19.0822548586       15.3800098349       17.7954030078
H    1.0       18.5405863306       15.0160131205       16.1374942689
H    1.0       20.2441796768       15.4644836882       16.4397136719
 $end
