$$$$
! Edit this basic GAMESS input file as needed.
! Conformer was generated by a VeraChem VCPack run 
! and contains    143 atoms.
!
 $contrl scftyp=rhf runtyp=optimize nzvar=0
  maxit=200 icharg=0 $end
 $system mwords=50 $end
 $basis gbasis=pm3 $end
 $statpt nstep=200 $end
 $guess guess=huckel $end
 $data
VM2 Rank=1      G=490.265           E=304.899           -TS=185.366             
C1
C    6.0       16.4009570392       15.3077540690       20.3908063437
H    1.0       15.3882837727       15.1972878138       19.9817258076
O    8.0       16.5968164147       16.6091568931       20.9784045449
C    6.0       16.6699532095       14.2372533888       21.4805633250
H    1.0       16.5447370802       13.2528003637       21.0120666161
O    8.0       15.7159382316       14.3738209364       22.5473842201
H    1.0       15.7511526598       15.3135111985       22.8563946366
C    6.0       18.1297903458       14.3302470650       22.0048375560
H    1.0       18.2245799244       15.2633350946       22.5761436902
O    8.0       18.4329913190       13.2135616205       22.8504829126
H    1.0       19.2911759037       13.4239081153       23.2948576516
C    6.0       19.1519663347       14.3698875466       20.8365636833
H    1.0       19.2433239360       13.3680284874       20.3962283662
C    6.0       18.7497765269       15.3662811843       19.7198865906
H    1.0       18.8729431153       16.3861176140       20.1036002163
O    8.0       17.3723591809       15.1402259030       19.3396729549
C    6.0       19.6108119676       15.2283292904       18.4445808419
H    1.0       20.6643914419       15.3967536422       18.7000392899
H    1.0       19.3153635612       16.0123323354       17.7346670172
O    8.0       19.4492014813       13.9360607278       17.8524945312
H    1.0       18.4809381038       13.8113976252       17.7362613423
C    6.0       14.6944000807       20.2562589629       21.4302418410
H    1.0       13.9978226046       21.1023359441       21.4924394234
O    8.0       16.0691172093       20.6955132614       21.4115040451
C    6.0       14.4877695511       19.2674782659       22.6072367203
H    1.0       13.4828171037       18.8398390815       22.4959545260
O    8.0       14.5639917460       19.9210346769       23.8815570729
H    1.0       15.4411571439       20.3790705792       23.9249612942
C    6.0       15.5063825653       18.1053986117       22.5093573640
H    1.0       16.5187438546       18.5150879105       22.6331713542
O    8.0       15.2378855197       17.1479060683       23.5394121629
H    1.0       15.1066526758       17.6814945638       24.3544817041
C    6.0       15.4153987999       17.4201305982       21.1223073823
H    1.0       14.5021034223       16.8104971023       21.1070714796
C    6.0       15.3903727354       18.4375229384       19.9429375003
H    1.0       16.3963750657       18.8587475307       19.8260735242
O    8.0       14.4522043477       19.5079189187       20.2198582693
C    6.0       14.9896834111       17.8068213310       18.5903979614
H    1.0       15.7559443722       17.0800304413       18.2909031875
H    1.0       14.9734674726       18.5945403046       17.8253687593
O    8.0       13.7107346670       17.1709184672       18.6745851700
H    1.0       13.0767054238       17.8654268931       18.9610002242
C    6.0       18.5690432275       23.9493196380       21.8592755042
H    1.0       19.0326753443       24.9255122004       22.0473661742
O    8.0       19.4478263519       23.0751049522       21.1162210126
C    6.0       18.1837267998       23.2629931878       23.1958942054
H    1.0       17.4404974245       23.9029158284       23.6886052116
O    8.0       19.3322816383       23.1472490350       24.0529568402
H    1.0       19.3236303894       22.2408430984       24.4605173448
C    6.0       17.5135078811       21.8909938794       22.9257823207
H    1.0       18.2645109516       21.2233424499       22.4899251480
O    8.0       17.0218185028       21.3378848373       24.1512945580
H    1.0       17.8181055621       20.9854439133       24.6299922807
C    6.0       16.3430112625       22.0183825966       21.9153766375
H    1.0       15.4765590734       22.4455704677       22.4374892829
C    6.0       16.7025063475       22.8928782496       20.6812119715
H    1.0       17.3833055944       22.3181170073       20.0392204647
O    8.0       17.3525828866       24.1179436330       21.1005833479
C    6.0       15.4719780176       23.2779523698       19.8300442675
H    1.0       15.0210791355       22.3647017911       19.4192183449
H    1.0       15.8073392704       23.8879459744       18.9805952524
O    8.0       14.5095036757       23.9960137504       20.6079263962
H    1.0       14.9816637579       24.7756568727       20.9766390266
C    6.0       23.4760107057       22.6127951258       20.2807898091
H    1.0       24.5131104332       22.6786785087       19.9276934600
O    8.0       23.1707630405       21.2824017364       20.7574601585
C    6.0       23.1941216443       23.6715196514       21.3807867612
H    1.0       23.3145569564       24.6569045830       20.9127825151
O    8.0       24.1333651856       23.5670518033       22.4613588667
H    1.0       23.8676080781       22.7697965976       22.9836021122
C    6.0       21.7263855198       23.5656531686       21.8760399551
H    1.0       21.6065471143       22.5996925518       22.3854582794
O    8.0       21.4475293811       24.6333612924       22.7891429918
H    1.0       20.7606187001       24.2779001505       23.4049003600
C    6.0       20.7203439086       23.6096069561       20.6874726425
H    1.0       20.6139544062       24.6439700809       20.3350930605
C    6.0       21.1636693342       22.7154278992       19.4957971247
H    1.0       20.9877059207       21.6698816371       19.7733146241
O    8.0       22.5699192979       22.9057586600       19.1977398988
C    6.0       20.3653077013       22.9950871689       18.2036362290
H    1.0       19.2969111174       22.8348843297       18.4007125274
H    1.0       20.6713150654       22.2703375842       17.4374282192
O    8.0       20.5881292601       24.3304826437       17.7407686390
H    1.0       21.5633909025       24.4330476148       17.6688789227
C    6.0       24.8676854241       17.8512923809       22.3896078992
H    1.0       25.5289997285       17.1081552045       22.8526163252
O    8.0       23.6652500625       17.2453080059       21.8715626006
C    6.0       24.4826572061       18.9430541927       23.4213047915
H    1.0       25.4112464636       19.4380936138       23.7333546621
O    8.0       23.8665320266       18.3499713545       24.5749674947
H    1.0       23.0860553124       18.9142433613       24.8202061990
C    6.0       23.5751460877       20.0190048612       22.7718137030
H    1.0       22.6160920171       19.5506945493       22.5126413474
O    8.0       23.3662400707       21.0936500515       23.6967880076
H    1.0       22.6604316798       20.7820196807       24.3234260285
C    6.0       24.2086046350       20.5745612274       21.4691782241
H    1.0       25.0433708326       21.2348022664       21.7375825574
C    6.0       24.7244101562       19.4438521333       20.5358050531
H    1.0       23.8561149866       18.9216763017       20.1128386647
O    8.0       25.5365701343       18.5089920970       21.2911668721
C    6.0       25.5763574103       19.9630119343       19.3562699440
H    1.0       24.9479483267       20.5908909018       18.7107146084
H    1.0       25.9070584544       19.1050932472       18.7556804335
O    8.0       26.7056109231       20.7082951723       19.8208277464
H    1.0       27.2016133487       20.1088576976       20.4218348486
C    6.0       21.4102064724       13.8242615926       21.6000800970
H    1.0       20.9952014763       12.8110517419       21.5263700066
O    8.0       20.4033454160       14.8327519056       21.3775160150
C    6.0       22.0354371212       14.0395840769       22.9977389058
H    1.0       22.8588339840       13.3208960204       23.1013906196
O    8.0       21.0768721249       13.8079034410       24.0394477840
H    1.0       21.5154147709       14.1401290875       24.8548284008
C    6.0       22.6292939965       15.4610708602       23.1262474666
H    1.0       21.7970653524       16.1784558414       23.1210598326
O    8.0       23.3438802454       15.5456422327       24.3641077376
H    1.0       23.5515610290       16.5029996263       24.5013570957
C    6.0       23.5691084526       15.8077474608       21.9384578493
H    1.0       24.5486475152       15.3368461246       22.0942249336
C    6.0       23.0056427573       15.3577610185       20.5619521614
H    1.0       22.2114545414       16.0566029259       20.2771536308
O    8.0       22.4633854265       14.0149716308       20.6335437405
C    6.0       24.0702122739       15.3795109326       19.4433828602
H    1.0       24.4790876833       16.3953317480       19.3574297866
H    1.0       23.5841206799       15.1365992371       18.4890377621
O    8.0       25.1197173222       14.4464584770       19.7165999145
H    1.0       24.6800313646       13.5794459727       19.8647848273
C    6.0       20.2720346767       19.6079419033       24.8412631240
O    8.0       21.4603866305       19.6677198892       25.0933303780
O    8.0       19.4958248189       20.5218232704       25.0471014911
C    6.0       19.7235249987       18.3132430222       24.2484431944
H    1.0       18.7920351276       18.0869012337       24.7795372873
H    1.0       20.4142335783       17.4989299414       24.4936619273
C    6.0       19.4510542579       18.3312800442       22.7509970959
H    1.0       18.8611944260       17.4901233917       22.3935234462
C    6.0       19.8336592067       19.2789598686       21.8879396465
H    1.0       20.4115485140       20.1411225375       22.2178958078
C    6.0       19.4605771274       19.2787063676       20.4227376039
H    1.0       18.5901164541       18.6334650703       20.2580162683
H    1.0       19.1570803884       20.2883297120       20.1180016271
C    6.0       20.6271923767       18.7904111574       19.5437484369
H    1.0       20.9093503366       17.7689820604       19.8189989357
H    1.0       20.3467451600       18.7971276144       18.4830470630
H    1.0       21.5090776528       19.4289547896       19.6707050752
 $end
$$$$
! Edit this basic GAMESS input file as needed.
! Conformer was generated by a VeraChem VCPack run 
! and contains    143 atoms.
!
 $contrl scftyp=rhf runtyp=optimize nzvar=0
  maxit=200 icharg=0 $end
 $system mwords=50 $end
 $basis gbasis=pm3 $end
 $statpt nstep=200 $end
 $guess guess=huckel $end
 $data
VM2 Rank=2      G=490.313           E=304.921           -TS=185.392             
C1
C    6.0       16.3154712496       15.2318333113       20.6593501176
H    1.0       15.2884286997       15.0562586309       20.3146121262
O    8.0       16.4817271076       16.5689782503       21.1691549361
C    6.0       16.6839427779       14.2282377679       21.7837450038
H    1.0       16.5533805719       13.2178362286       21.3749826222
O    8.0       15.8301482416       14.3906022034       22.9254778155
H    1.0       16.2268066581       13.8142182300       23.6166767393
C    6.0       18.1627855452       14.3789285881       22.2145376652
H    1.0       18.2739989442       15.3481658963       22.7189577149
O    8.0       18.5075413228       13.3206609450       23.1171711752
H    1.0       19.4311900554       13.5008099867       23.4244123900
C    6.0       19.1107572853       14.3585490106       20.9892784334
H    1.0       19.1645503770       13.3380133691       20.5874758549
C    6.0       18.6329836678       15.3128692418       19.8640821601
H    1.0       18.7555684086       16.3486028068       20.2036485291
O    8.0       17.2405449123       15.0472604121       19.5670731581
C    6.0       19.4262910014       15.1451345005       18.5492893997
H    1.0       20.4882003216       15.3441423161       18.7402989344
H    1.0       19.0757189340       15.8960254564       17.8287485632
O    8.0       19.2609470396       13.8286861178       18.0143171944
H    1.0       18.2908119656       13.6812952023       17.9541778028
C    6.0       14.6797098594       20.2776352391       21.2030925728
H    1.0       14.0183169058       21.1520398611       21.1488633875
O    8.0       16.0685923634       20.6678578886       21.2676594300
C    6.0       14.3301315332       19.3875949516       22.4248952384
H    1.0       13.3133970662       19.0063722478       22.2655374126
O    8.0       14.3434643857       20.1517890471       23.6395354237
H    1.0       15.2792480195       20.4353215855       23.7916548355
C    6.0       15.2852987663       18.1646211730       22.4871846905
H    1.0       16.3005900789       18.5257713704       22.7042366171
O    8.0       14.8650997649       17.2413135949       23.5001558881
H    1.0       15.3629389097       16.4029547620       23.3413909261
C    6.0       15.3117202160       17.4097648981       21.1332583510
H    1.0       14.3892293200       16.8182475910       21.0620729839
C    6.0       15.4236183304       18.3480971192       19.8965654784
H    1.0       16.4500509774       18.7282911396       19.8398791429
O    8.0       14.5048602945       19.4602821514       20.0278731708
C    6.0       15.1081119508       17.6476491437       18.5557430093
H    1.0       15.8619160030       16.8736170261       18.3652884122
H    1.0       15.1903673251       18.3850640166       17.7461373242
O    8.0       13.7986925024       17.0708834288       18.5687044574
H    1.0       13.1768707301       17.8065723256       18.7649119882
C    6.0       18.5747625754       23.9074087541       21.8726182706
H    1.0       19.0246636962       24.8801266906       22.1065932625
O    8.0       19.4843325576       23.0635788319       21.1319798131
C    6.0       18.1523081275       23.1769781944       23.1744489459
H    1.0       17.3918236368       23.7984766994       23.6643943354
O    8.0       19.2755043199       23.0406276036       24.0612884646
H    1.0       19.2654803900       22.1186747595       24.4323215079
C    6.0       17.4956206843       21.8116491394       22.8416468989
H    1.0       18.2595963622       21.1612171861       22.4019776297
O    8.0       16.9745950436       21.2144779519       24.0346867082
H    1.0       17.7593450666       20.8438654799       24.5182579134
C    6.0       16.3515844793       21.9753308741       21.8064703644
H    1.0       15.4790262269       22.4031788515       22.3178884620
C    6.0       16.7541628016       22.8761511197       20.6048671807
H    1.0       17.4603540905       22.3168110473       19.9769557631
O    8.0       17.3839023129       24.0920717087       21.0779820089
C    6.0       15.5579126774       23.2809405516       19.7146489329
H    1.0       15.1328497218       22.3790422754       19.2544061430
H    1.0       15.9245364592       23.9208164439       18.9008274304
O    8.0       14.5567052013       23.9664132711       20.4726959054
H    1.0       15.0043811177       24.7397090573       20.8828608079
C    6.0       23.5360719003       22.6730510768       20.3819508255
H    1.0       24.5810743109       22.7626246584       20.0586352496
O    8.0       23.2328928292       21.3222918920       20.7987367433
C    6.0       23.2148728734       23.6857290579       21.5142063880
H    1.0       23.3370501921       24.6895712088       21.0877169239
O    8.0       24.1269056032       23.5484197614       22.6142507888
H    1.0       23.8551055996       22.7300473536       23.0994137698
C    6.0       21.7361088350       23.5470554264       21.9666119568
H    1.0       21.6132970805       22.5614519252       22.4361338446
O    8.0       21.4218986707       24.5766536368       22.9114555621
H    1.0       20.7182550491       24.1941576132       23.4911120012
C    6.0       20.7607990195       23.6260411685       20.7546917658
H    1.0       20.6523698068       24.6718128685       20.4384107391
C    6.0       21.2436716705       22.7818433477       19.5422711333
H    1.0       21.0728141144       21.7248416417       19.7761051316
O    8.0       22.6546967928       22.9982517215       19.2877839489
C    6.0       20.4747404945       23.1014394376       18.2415662430
H    1.0       19.4036419950       22.9228815832       18.4053968983
H    1.0       20.8079463267       22.4091056135       17.4569494254
O    8.0       20.6938832856       24.4554867181       17.8345133133
H    1.0       21.6693991455       24.5708924392       17.7912865518
C    6.0       24.8999184626       17.8413150421       22.3397311811
H    1.0       25.5463254725       17.0763124603       22.7881804293
O    8.0       23.7116366617       17.2617422324       21.7616434733
C    6.0       24.4900089622       18.8919300328       23.4041512220
H    1.0       25.4104350994       19.3770081204       23.7537854940
O    8.0       23.8513626127       18.2569831066       24.5228577004
H    1.0       23.0351746245       18.7818931729       24.7379665495
C    6.0       23.5941764880       19.9883847193       22.7738817409
H    1.0       22.6462358517       19.5248578811       22.4698373798
O    8.0       23.3505243546       21.0229588235       23.7351514654
H    1.0       22.6269411911       20.6806265020       24.3245059379
C    6.0       24.2585205859       20.5981942179       21.5115155975
H    1.0       25.0789150488       21.2552587588       21.8277341884
C    6.0       24.8099645273       19.5088737048       20.5492896037
H    1.0       23.9578438235       19.0032727590       20.0762052974
O    8.0       25.6005368499       18.5438521132       21.2899281795
C    6.0       25.6974350849       20.0797534395       19.4209791543
H    1.0       25.0875741391       20.7324541569       18.7823055622
H    1.0       26.0509874262       19.2488250993       18.7959160302
O    8.0       26.8078837942       20.8080961083       19.9528740704
H    1.0       27.2879240893       20.1848793333       20.5425577750
C    6.0       21.4374707805       13.8341773257       21.5233157219
H    1.0       21.0374497627       12.8161787741       21.4356208437
O    8.0       20.3942056221       14.8277864614       21.4432806104
C    6.0       22.1811670439       13.9918206546       22.8703346307
H    1.0       23.0120646951       13.2742900603       22.8690916999
O    8.0       21.3161407255       13.7058345350       23.9784250121
H    1.0       21.8269750708       13.9902573089       24.7693945215
C    6.0       22.7815706402       15.4091528137       23.0171966312
H    1.0       21.9504881263       16.1197023605       23.1250897716
O    8.0       23.6047792345       15.4336698336       24.1886944980
H    1.0       23.7528777093       16.3883049942       24.4012188475
C    6.0       23.6078631586       15.8229949457       21.7674733289
H    1.0       24.5952217817       15.3436644906       21.7985651427
C    6.0       22.9081166889       15.4496199753       20.4322775999
H    1.0       22.0789405646       16.1491310023       20.2804087096
O    8.0       22.3942323639       14.0953598182       20.4769100721
C    6.0       23.8463771829       15.5596195470       19.2104883960
H    1.0       24.2318326169       16.5859972433       19.1454736648
H    1.0       23.2635553405       15.3669332593       18.2998703567
O    8.0       24.9297353013       14.6307603201       19.3110831784
H    1.0       24.5182876199       13.7490719313       19.4536235254
C    6.0       20.2091053475       19.4776696804       24.7103767750
O    8.0       21.3964335668       19.5116990666       24.9717596279
O    8.0       19.4402817318       20.3873059380       24.9580687101
C    6.0       19.6492463027       18.2198309870       24.0537708386
H    1.0       18.7046367675       17.9894501860       24.5595622608
H    1.0       20.3197527583       17.3818121416       24.2736973635
C    6.0       19.4013071900       18.3091613936       22.5552697296
H    1.0       18.7618376375       17.5232576415       22.1640810144
C    6.0       19.8550875982       19.2587595380       21.7297185438
H    1.0       20.4789284034       20.0720092368       22.0974411014
C    6.0       19.5065182874       19.3305338503       20.2594938256
H    1.0       18.6405492636       18.6945297605       20.0444850105
H    1.0       19.2099636289       20.3553616492       20.0025670177
C    6.0       20.6848897673       18.8882828557       19.3720415424
H    1.0       20.4387235931       19.0083295985       18.3095384414
H    1.0       21.5836645075       19.4789384097       19.5861842383
H    1.0       20.9211122821       17.8346157885       19.5497247748
 $end
$$$$
! Edit this basic GAMESS input file as needed.
! Conformer was generated by a VeraChem VCPack run 
! and contains    143 atoms.
!
 $contrl scftyp=rhf runtyp=optimize nzvar=0
  maxit=200 icharg=0 $end
 $system mwords=50 $end
 $basis gbasis=pm3 $end
 $statpt nstep=200 $end
 $guess guess=huckel $end
 $data
VM2 Rank=3      G=490.399           E=305.015           -TS=185.384             
C1
C    6.0       16.3372906845       15.2384891303       20.4693314251
H    1.0       15.3267413640       15.0874431900       20.0680564373
O    8.0       16.4992579366       16.5608464398       21.0164981241
C    6.0       16.6418803787       14.2117161456       21.5915614245
H    1.0       16.5379030491       13.2096812989       21.1563352925
O    8.0       15.6940625235       14.3578499910       22.6627096852
H    1.0       15.7150827803       15.3051375142       22.9485737645
C    6.0       18.1036468971       14.3589501535       22.0986256199
H    1.0       18.1793710942       15.3102181932       22.6428667690
O    8.0       18.4458079200       13.2718208070       22.9676160990
H    1.0       19.3248048467       13.4929080509       23.3637746432
C    6.0       19.1109711987       14.3918234386       20.9179423476
H    1.0       19.2002665245       13.3847139724       20.4890774738
C    6.0       18.6804735912       15.3639408781       19.7913706924
H    1.0       18.7705096363       16.3965316818       20.1519290633
O    8.0       17.3130100671       15.0682306098       19.4213177829
C    6.0       19.5454933885       15.2043438060       18.5234949849
H    1.0       19.4180876476       14.1894517184       18.1239415115
H    1.0       20.6033934463       15.3288206255       18.7854827031
O    8.0       19.1693993913       16.1771694726       17.5475340094
H    1.0       18.1909000931       16.1268296544       17.4785569636
C    6.0       14.6348913734       20.1941077708       21.4029387948
H    1.0       13.9734732837       21.0682691792       21.4605165405
O    8.0       16.0258575831       20.5800882905       21.3151147129
C    6.0       14.4299707974       19.2502960844       22.6157104163
H    1.0       13.4161461395       18.8370050595       22.5343075735
O    8.0       14.5363181768       19.9414264064       23.8673620506
H    1.0       15.4381763096       20.3492296164       23.8984442060
C    6.0       15.4266241910       18.0690972420       22.5333831894
H    1.0       16.4484640698       18.4653192560       22.6226645141
O    8.0       15.1682261973       17.1493500118       23.5998848802
H    1.0       15.0614888334       17.7105726128       24.3998306683
C    6.0       15.2976964622       17.3379369790       21.1720371856
H    1.0       14.4049902421       16.6997678197       21.2144466121
C    6.0       15.2019681415       18.3038608345       19.9510576105
H    1.0       16.2018616682       18.6986314506       19.7416760865
O    8.0       14.3102956823       19.4110481603       20.2349107922
C    6.0       14.7002778762       17.6187756283       18.6603134737
H    1.0       15.4320286165       16.8630344661       18.3467147060
H    1.0       14.6466741414       18.3697894610       17.8608010631
O    8.0       13.4191662174       17.0138975800       18.8592382781
H    1.0       12.8170594039       17.7340186674       19.1513885648
C    6.0       18.5987037682       23.8202620648       21.7637954653
H    1.0       19.0419532320       24.8021384035       21.9694809030
O    8.0       19.4978859481       22.9793102907       21.0067357762
C    6.0       18.2277598915       23.1018385941       23.0885738031
H    1.0       17.4783412620       23.7232961133       23.5954660186
O    8.0       19.3817786102       22.9948799278       23.9383118913
H    1.0       19.3053246533       22.1633319826       24.4751622352
C    6.0       17.5688551280       21.7259844183       22.7984898649
H    1.0       18.3129054394       21.0669687555       22.3327849962
O    8.0       17.0936545420       21.1507038026       24.0205934399
H    1.0       17.8933175485       20.8570196551       24.5306196932
C    6.0       16.3752997647       21.8868226318       21.8177334000
H    1.0       15.5401559381       22.3474355593       22.3620443546
C    6.0       16.7359325174       22.7576055438       20.5820679333
H    1.0       17.4190293516       22.1848721215       19.9414315572
O    8.0       17.3809605077       23.9834383142       21.0054912120
C    6.0       15.5056014613       23.1429204776       19.7303616812
H    1.0       15.0553263628       22.2297308728       19.3186144548
H    1.0       15.8411863742       23.7536453512       18.8815475300
O    8.0       14.5421238611       23.8599027993       20.5082487059
H    1.0       15.0137265781       24.6395744492       20.8774939810
C    6.0       23.5677154824       22.5987769099       20.3062116748
H    1.0       24.6132407670       22.6838217649       19.9834337309
O    8.0       23.2782244222       21.2697654007       20.7947573103
C    6.0       23.2289549315       23.6632421698       21.3828465337
H    1.0       23.3390667925       24.6456445866       20.9060959376
O    8.0       24.1392029490       23.5939312359       22.4909456411
H    1.0       23.8812972218       22.7948700811       23.0144155172
C    6.0       21.7504614765       23.5262313507       21.8362080485
H    1.0       21.6400051669       22.5626593148       22.3525307207
O    8.0       21.4251382264       24.5965373902       22.7303473677
H    1.0       20.7512867493       24.2196097670       23.3477531405
C    6.0       20.7766190509       23.5347937219       20.6186070954
H    1.0       20.6603358515       24.5633305279       20.2527248134
C    6.0       21.2767576916       22.6393671957       19.4498025177
H    1.0       21.1144465021       21.5921074877       19.7302963275
O    8.0       22.6876026806       22.8569970970       19.1929951208
C    6.0       20.5132137720       22.8909294465       18.1309391894
H    1.0       19.4425428908       22.7111424225       18.2968880891
H    1.0       20.8565955230       22.1651875141       17.3817273399
O    8.0       20.7240997712       24.2261033210       17.6616126247
H    1.0       21.6989057091       24.3475839696       17.6193450342
C    6.0       24.9051787094       17.8525311849       22.4635390768
H    1.0       25.5276974242       17.0827141665       22.9367681514
O    8.0       23.7038850599       17.2908150717       21.8932070470
C    6.0       24.5182611009       18.9408146343       23.4977971228
H    1.0       25.4480080059       19.4120614418       23.8414991326
O    8.0       23.8545683097       18.3469749674       24.6252345604
H    1.0       23.0857926429       18.9298353420       24.8641409479
C    6.0       23.6521232369       20.0404203255       22.8336616865
H    1.0       22.6956481120       19.5871913005       22.5547222405
O    8.0       23.4341232560       21.1138311796       23.7581237211
H    1.0       22.7170455911       20.8061194213       24.3744578641
C    6.0       24.3121530955       20.5904904297       21.5402958646
H    1.0       25.1284752111       21.2681102655       21.8217849110
C    6.0       24.8646359509       19.4633882626       20.6226194541
H    1.0       24.0119245449       18.9557880837       20.1522533786
O    8.0       25.6304929626       18.5095130844       21.4018973936
C    6.0       25.7752832281       19.9860976052       19.4894481132
H    1.0       25.1838682717       20.6269605841       18.8221691314
H    1.0       26.1250331803       19.1309675759       18.8956512072
O    8.0       26.8891681521       20.7145809320       20.0137099046
H    1.0       27.3508671183       20.1037201897       20.6304129187
C    6.0       21.4052819423       13.8757433831       21.5941903892
H    1.0       21.0089913972       12.8561163078       21.5078867579
O    8.0       20.3679094162       14.8649055749       21.4382109756
C    6.0       22.0802811301       14.0602186037       22.9742765905
H    1.0       22.9060777590       13.3390881562       23.0310658198
O    8.0       21.1582474681       13.8014801557       24.0421864251
H    1.0       21.6260205334       14.1091381932       24.8508533713
C    6.0       22.6810812219       15.4769474456       23.1227560566
H    1.0       21.8515209146       16.1948343275       23.1727324988
O    8.0       23.4426488537       15.5255824193       24.3343944912
H    1.0       23.6174262556       16.4830122856       24.5125121815
C    6.0       23.5747036081       15.8549097996       21.9096317449
H    1.0       24.5500764733       15.3587192878       21.9992150190
C    6.0       22.9366746400       15.4689800736       20.5465762240
H    1.0       22.1251127622       16.1762452556       20.3379004368
O    8.0       22.4086207244       14.1182852710       20.5870239534
C    6.0       23.9384823078       15.5474512144       19.3736000100
H    1.0       24.3427131522       16.5668479987       19.3144072359
H    1.0       23.4007897373       15.3504658521       18.4365427987
O    8.0       25.0010624953       14.6046284173       19.5429893184
H    1.0       24.5698107237       13.7318454556       19.6814824647
C    6.0       20.2896126994       19.6336849346       24.9992683791
O    8.0       19.4905213642       20.5208956448       25.2312803400
O    8.0       21.4880895736       19.7406916192       25.1816352354
C    6.0       19.7561680203       18.3224651267       24.4310641150
H    1.0       18.7058393369       18.2163740207       24.7261675891