$$$$
! Edit this basic GAMESS input file as needed.
! Conformer was generated by a VeraChem VCPack run 
! and contains     20 atoms.
!
 $contrl scftyp=rhf runtyp=optimize nzvar=0
  maxit=200 icharg=0 $end
 $system mwords=50 $end
 $basis gbasis=pm3 $end
 $statpt nstep=200 $end
 $guess guess=huckel $end
 $data
VM2 Rank=1      G=53.937            E=31.435            -TS=22.502              
C1
C    6.0       19.8542987996       19.1509658914       18.8169470303
H    1.0       18.7731421002       18.9825929292       18.7279125728
H    1.0       20.0355114487       20.2331103813       18.7808618231
H    1.0       20.3378935762       18.6998858486       17.9407696273
C    6.0       20.4072897267       18.5374864873       20.1215826887
H    1.0       21.4948465032       18.6913685785       20.1650926561
H    1.0       20.2423241434       17.4507213114       20.1126025645
C    6.0       19.7439621507       19.1542363575       21.3727327130
H    1.0       19.9121760586       20.2393954635       21.3827451356
H    1.0       18.6579280744       18.9971265018       21.3301547848
C    6.0       20.3005687300       18.5373718202       22.6693626993
H    1.0       21.3791707233       18.7055704145       22.7224309359
H    1.0       20.1207943452       17.4593320043       22.6697258464
N    7.0       19.6775688164       19.1133059674       23.9258972336
H    1.0       18.6546795609       18.9806518076       23.9098681751
H    1.0       19.8197882962       20.1345085775       23.9586610747
C    6.0       20.2823117766       18.4506334761       25.1564776350
H    1.0       21.3590329823       18.6330316441       25.1709859889
H    1.0       19.8251081671       18.8743875661       26.0533647801
H    1.0       20.0899710713       17.3762401973       25.1178567486
 $end
$$$$
! Edit this basic GAMESS input file as needed.
! Conformer was generated by a VeraChem VCPack run 
! and contains     20 atoms.
!
 $contrl scftyp=rhf runtyp=optimize nzvar=0
  maxit=200 icharg=0 $end
 $system mwords=50 $end
 $basis gbasis=pm3 $end
 $statpt nstep=200 $end
 $guess guess=huckel $end
 $data
VM2 Rank=2      G=54.084            E=31.414            -TS=22.671              
C1
C    6.0       20.2446551504       19.5233629867       19.0575488430
H    1.0       21.0843607310       20.2045081840       19.2475631635
H    1.0       20.4068646951       19.0550687323       18.0780550352
H    1.0       19.3265063767       20.1220050170       18.9959184014
C    6.0       20.1365824136       18.4513670209       20.1636305869
H    1.0       21.0549286128       17.8474085324       20.1777906472
H    1.0       19.3109541562       17.7651500674       19.9275113523
C    6.0       19.9075183810       19.0821439554       21.5547958027
H    1.0       20.7340182603       19.7663402988       21.7861560989
H    1.0       18.9877734375       19.6817306906       21.5411277717
C    6.0       19.7994298982       18.0035518976       22.6524891287
H    1.0       20.7302288865       17.4332979905       22.7054597644
H    1.0       18.9938748237       17.3121883160       22.3921513006
N    7.0       19.5005667707       18.5423649049       24.0421380087
H    1.0       19.2825724314       17.7581345567       24.6767620543
H    1.0       18.6430618275       19.1152688916       24.0265677198
C    6.0       20.6772473860       19.3412092344       24.5923976300
H    1.0       20.8594398375       20.2064788079       23.9520845654
H    1.0       20.4391053172       19.6779984270       25.6037498039
H    1.0       21.5642698921       18.7045512420       24.6161646755
 $end
$$$$
! Edit this basic GAMESS input file as needed.
! Conformer was generated by a VeraChem VCPack run 
! and contains     20 atoms.
!
 $contrl scftyp=rhf runtyp=optimize nzvar=0
  maxit=200 icharg=0 $end
 $system mwords=50 $end
 $basis gbasis=pm3 $end
 $statpt nstep=200 $end
 $guess guess=huckel $end
 $data
VM2 Rank=3      G=54.174            E=31.503            -TS=22.670              
C1
C    6.0       19.4687310172       18.7548333235       19.0250106430
H    1.0       18.8813614192       19.6810514247       18.9772083351
H    1.0       19.9766020462       18.6288113858       18.0600209241
H    1.0       18.7727704720       17.9151777826       19.1506574664
C    6.0       20.4938777324       18.8051544578       20.1786174813
H    1.0       21.1967416744       19.6326098385       20.0065491260
H    1.0       21.0885571499       17.8806642314       20.1792611751
C    6.0       19.8068555970       18.9824942759       21.5505657086
H    1.0       19.2164462677       19.9082588885       21.5506220032
H    1.0       19.1062920041       18.1542803394       21.7179819876
C    6.0       20.8389682692       19.0332813815       22.6960499355
H    1.0       21.5476626985       19.8417791859       22.4991726196
H    1.0       21.3984028620       18.0951910991       22.7334677538
N    7.0       20.2444881824       19.2793020812       24.0733019691
H    1.0       19.6801063602       20.1425730335       24.0699861029
H    1.0       21.0030365370       19.4624513642       24.7488370984
C    6.0       19.4130792019       18.0889344800       24.5394542624
H    1.0       20.0405364130       17.1951550665       24.5522809343
H    1.0       19.0359791663       18.2879802097       25.5450122707
H    1.0       18.5740623683       17.9426862955       23.8564118048
 $end
$$$$
! Edit this basic GAMESS input file as needed.
! Conformer was generated by a VeraChem VCPack run 
! and contains     20 atoms.
!
 $contrl scftyp=rhf runtyp=optimize nzvar=0
  maxit=200 icharg=0 $end
 $system mwords=50 $end
 $basis gbasis=pm3 $end
 $statpt nstep=200 $end
 $guess guess=huckel $end
 $data
VM2 Rank=4      G=54.304            E=31.705            -TS=22.599              
C1
C    6.0       20.8667221037       19.3664324825       19.5193283338
H    1.0       20.5576778808       20.4198011088       19.5219594489
H    1.0       21.7364314601       19.2626475107       20.1803102661
H    1.0       21.1933495876       19.1162554862       18.5016267559
C    6.0       19.7056876099       18.4445540609       19.9579915267
H    1.0       20.0428995528       17.3983864769       19.9527269533
H    1.0       18.8957753182       18.5113490529       19.2179953278
C    6.0       19.1424309380       18.8035854153       21.3529881954
H    1.0       18.7742038524       19.8381027364       21.3460894109
H    1.0       18.2762489280       18.1625583121       21.5643406405
C    6.0       20.1839519631       18.6322686997       22.4759886658
H    1.0       21.0330082888       19.2957576359       22.2952883046
H    1.0       20.5483965190       17.6019857328       22.4843432090
N    7.0       19.6383540575       18.9444945942       23.8555931719
H    1.0       18.8279851936       18.3410713753       24.0636445953
H    1.0       19.2748706860       19.9094266805       23.8852565471
C    6.0       20.7288533277       18.7526647475       24.9011101065
H    1.0       21.0741182129       17.7168444167       24.8751612373
H    1.0       21.5607826046       19.4251778449       24.6810656194
H    1.0       20.3227187761       18.9806103400       25.8890874455
 $end
$$$$
! Edit this basic GAMESS input file as needed.
! Conformer was generated by a VeraChem VCPack run 
! and contains     20 atoms.
!
 $contrl scftyp=rhf runtyp=optimize nzvar=0
  maxit=200 icharg=0 $end
 $system mwords=50 $end
 $basis gbasis=pm3 $end
 $statpt nstep=200 $end
 $guess guess=huckel $end
 $data
VM2 Rank=5      G=54.310            E=31.711            -TS=22.599              
C1
C    6.0       19.6007471164       18.1121687002       19.4663414135
H    1.0       19.6691969010       17.2145772556       20.0938021659
H    1.0       18.5508425892       18.4315294370       19.4379051847
H    1.0       19.8909528344       17.8258384327       18.4471330208
C    6.0       20.5129899435       19.2444144362       19.9918129057
H    1.0       20.4842860308       20.0852177092       19.2845366836
H    1.0       21.5555817029       18.8971102968       20.0160650192
C    6.0       20.1001477058       19.7524218715       21.3931225077
H    1.0       20.7390076054       20.6023716133       21.6675319995
H    1.0       19.0700070237       20.1312067287       21.3585128047
C    6.0       20.2150237029       18.6630817395       22.4772752271
H    1.0       21.2408622025       18.2879327968       22.5132150927
H    1.0       19.5524480780       17.8292696685       22.2333128024
N    7.0       19.8496506546       19.1536441766       23.8644744194
H    1.0       18.8875934412       19.5258192406       23.8691136664
H    1.0       20.4509159756       19.9481027377       24.1317178120
C    6.0       19.9874408768       18.0182690761       24.8699735266
H    1.0       21.0203080535       17.6633315100       24.8727423297
H    1.0       19.7216258063       18.3850247928       25.8638733454
H    1.0       19.3174153403       17.2035447684       24.5869719512
 $end
$$$$
! Edit this basic GAMESS input file as needed.
! Conformer was generated by a VeraChem VCPack run 
! and contains     20 atoms.
!
 $contrl scftyp=rhf runtyp=optimize nzvar=0
  maxit=200 icharg=0 $end
 $system mwords=50 $end
 $basis gbasis=pm3 $end
 $statpt nstep=200 $end
 $guess guess=huckel $end
 $data
VM2 Rank=6      G=54.342            E=31.753            -TS=22.589              
C1
C    6.0       19.6844890385       18.8157576119       18.9888318395
H    1.0       18.8181739817       19.4883743907       18.9412204994
H    1.0       20.5415872536       19.3302425293       18.5351167114
H    1.0       19.4592352427       17.9336561292       18.3754934443
C    6.0       19.9895487837       18.4041871532       20.4453941861
H    1.0       20.8398077231       17.7075805409       20.4564720812
H    1.0       19.1273112183       17.8584539876       20.8518637591
C    6.0       20.3099990646       19.6309752127       21.3316714077
H    1.0       21.1480930797       20.1874426363       20.8914150553
H    1.0       19.4536372812       20.3181680747       21.3479746741
C    6.0       20.6878426394       19.2435773015       22.7755214155
H    1.0       20.9884568125       20.1404112859       23.3231872776
H    1.0       21.5356611449       18.5540666616       22.7609434455
N    7.0       19.5633462709       18.5876210863       23.5547013430
H    1.0       19.2485836098       17.7325653992       23.0727693361
H    1.0       18.7395987408       19.2079702889       23.5802856422
C    6.0       20.0307742029       18.2618816344       24.9668798082
H    1.0       19.2126167928       17.7906411015       25.5160080067
H    1.0       20.8814322540       17.5788241223       24.9158629255
H    1.0       20.3277202146       19.1849274354       25.4694684863
 $end
$$$$
! Edit this basic GAMESS input file as needed.
! Conformer was generated by a VeraChem VCPack run 
! and contains     20 atoms.
!
 $contrl scftyp=rhf runtyp=optimize nzvar=0
  maxit=200 icharg=0 $end
 $system mwords=50 $end
 $basis gbasis=pm3 $end
 $statpt nstep=200 $end
 $guess guess=huckel $end
 $data
VM2 Rank=7      G=54.383            E=31.794            -TS=22.589              
C1
C    6.0       20.1834520595       19.3099597988       19.0097772606
H    1.0       19.6811645590       18.4780741005       18.4990489735
H    1.0       19.5210244745       20.1845157913       18.9707444260
H    1.0       21.0926289860       19.5514635686       18.4440038369
C    6.0       20.5303878858       18.9398195459       20.4680822935
H    1.0       21.0659605427       19.7784865123       20.9331585491
H    1.0       21.2184498497       18.0825690696       20.4723395614
C    6.0       19.2644689916       18.5954247411       21.2878571727
H    1.0       18.5846805213       19.4575059066       21.3115319199
H    1.0       18.7198446344       17.7823650176       20.7896590577
C    6.0       19.5871502528       18.1534573890       22.7294128055
H    1.0       20.2692231536       17.2997890066       22.7079271130
H    1.0       18.6653677368       17.8396419902       23.2258570193
N    7.0       20.2193790002       19.2374262716       23.5821659376
H    1.0       19.6056838096       20.0658230757       23.6165886898
H    1.0       21.0967149106       19.5631303264       23.1501321656
C    6.0       20.4811618101       18.7079122536       24.9857045300
H    1.0       21.1582832463       17.8529892404       24.9273643604
H    1.0       20.9359794666       19.4973685314       25.5881077474
H    1.0       19.5351739425       18.3999356190       25.4363067179
 $end
$$$$
! Edit this basic GAMESS input file as needed.
! Conformer was generated by a VeraChem VCPack run 
! and contains     20 atoms.
!
 $contrl scftyp=rhf runtyp=optimize nzvar=0
  maxit=200 icharg=0 $end
 $system mwords=50 $end
 $basis gbasis=pm3 $end
 $statpt nstep=200 $end
 $guess guess=huckel $end
 $data
VM2 Rank=8      G=54.500            E=31.687            -TS=22.812              
C1
C    6.0       19.9201561641       18.3276492031       19.2181673112
H    1.0       19.1808619952       17.5280531003       19.3569202979
H    1.0       19.4296768057       19.1594491928       18.6959756972
H    1.0       20.7136217525       17.9421482078       18.5648658004
C    6.0       20.5031386216       18.7867598779       20.5721672533
H    1.0       21.2613543695       19.5632880446       20.3981165872
H    1.0       21.0179659530       17.9401352907       21.0463364651
C    6.0       19.4037506338       19.3331546250       21.5131918935
H    1.0       18.8683410626       20.1491948520       21.0101392814
H    1.0       18.6579527645       18.5528659351       21.7123848402
C    6.0       19.9678563167       19.8725764351       22.8464116156
H    1.0       19.1520190369       20.2798019386       23.4489656035
H    1.0       20.6648364668       20.6869966946       22.6329507503
N    7.0       20.7069473995       18.8540968900       23.7014403305
H    1.0       21.1548086116       19.3330477833       24.4984673749
H    1.0       21.4863238004       18.4408971920       23.1686469307
C    6.0       19.7641508642       17.7697629689       24.2116215959
H    1.0       19.3449761449       17.2259163506       23.3627756758
H    1.0       20.3227981615       17.0804995910       24.8486155106
H    1.0       18.9607589121       18.2339166171       24.7876256739
 $end
$$$$
! Edit this basic GAMESS input file as needed.
! Conformer was generated by a VeraChem VCPack run 
! and contains     20 atoms.
!
 $contrl scftyp=rhf runtyp=optimize nzvar=0
  maxit=200 icharg=0 $end
 $system mwords=50 $end
 $basis gbasis=pm3 $end
 $statpt nstep=200 $end
 $guess guess=huckel $end
 $data
VM2 Rank=9      G=54.515            E=31.703            -TS=22.812              
C1
C    6.0       20.6591785259       19.0610771747       19.2491892338
H    1.0       19.8536085535       19.5802175354       18.7137500293
H    1.0       21.4572097002       19.7869728169       19.4526180928
H    1.0       21.0665777151       18.2924883275       18.5796374079
C    6.0       20.1391686857       18.4256602767       20.5567833449
H    1.0       20.9613980124       17.8840128245       21.0438280736
H    1.0       19.3654915591       17.6822038452       20.3182931626
C    6.0       19.5610373516       19.4891863691       21.5198017065
H    1.0       20.3372951397       20.2191993043       21.7829493790
H    1.0       18.7706610306       20.0522819813       21.0061133167
C    6.0       18.9619309057       18.8741917455       22.8041372921
H    1.0       18.1526223233       18.1937128560       22.5273765786
H    1.0       18.5350535038       19.6674283919       23.4230439969
N    7.0       19.9383700273       18.0912559247       23.6691263013
H    1.0       20.3686163337       17.3315545540       23.1216132835
H    1.0       19.4231413452       17.6142852125       24.4256071692
C    6.0       21.0063145038       19.0026285093       24.2639621215
H    1.0       21.5883486408       19.4526290664       23.4572717289
H    1.0       20.5234857749       19.7848951897       24.8535321419
H    1.0       21.6643082590       18.4119037974       24.9050710553
 $end
$$$$
! Edit this basic GAMESS input file as needed.
! Conformer was generated by a VeraChem VCPack run 
! and contains     20 atoms.
!
 $contrl scftyp=rhf runtyp=optimize nzvar=0
  maxit=200 icharg=0 $end
 $system mwords=50 $end
 $basis gbasis=pm3 $end
 $statpt nstep=200 $end
 $guess guess=huckel $end
 $data
VM2 Rank=10     G=54.565            E=31.803            -TS=22.762              
C1
C    6.0       19.7757842604       18.0537218195       19.5401688345
H    1.0       18.7995484647       17.8305523315       19.9887533083
H    1.0       19.6337513621       18.1169519279       18.4535209995
H    1.0       20.4467248609       17.2084542923       19.7413062679
C    6.0       20.3645924660       19.3741739767       20.0878197306
H    1.0       19.6724314670       20.2019611880       19.8784196557
H    1.0       21.2933660403       19.6042215573       19.5470380853
C    6.0       20.6664230067       19.3176492066       21.6035993008
H    1.0       21.3868759662       18.5135933157       21.8014691522
H    1.0       21.1503442436       20.2553545301       21.9069902340
C    6.0       19.3948656493       19.1073577676       22.4535314853
H    1.0       18.9391792206       18.1448201303       22.2093422039
H    1.0       18.6744042152       19.8935624339       22.2139769313
N    7.0       19.6246561268       19.1462235320       23.9555606642
H    1.0       18.7154753119       19.1636119356       24.4437172177
H    1.0       20.0852719011       20.0291091639       24.2240086622
C    6.0       20.4396784908       17.9448736976       24.4223199847
H    1.0       20.5516074622       17.9886332387       25.5079170335
H    1.0       19.9186706699       17.0265897494       24.1430294108
H    1.0       21.4244308933       17.9697126288       23.9516457866
 $end
$$$$
! Edit this basic GAMESS input file as needed.
! Conformer was generated by a VeraChem VCPack run 
! and contains     20 atoms.
!
 $contrl scftyp=rhf runtyp=optimize nzvar=0
  maxit=200 icharg=0 $end
 $system mwords=50 $end
 $basis gbasis=pm3 $end
 $statpt nstep=200 $end
 $guess guess=huckel $end
 $data
VM2 Rank=11     G=54.571            E=31.809            -TS=22.762              
C1
C    6.0       20.9209903101       19.1869130617       19.5882444622
H    1.0       21.7505015459       18.4985691634       19.7960636828
H    1.0       20.9052083880       19.3750336824       18.5068858386
H    1.0       21.1343192437       20.1409065572       20.0866996104
C    6.0       19.5729384782       18.5907413606       20.0546656857
H    1.0       19.3570957216       17.6881040586       19.4659013571
H    1.0       18.7614402195       19.3004314672       19.8402436314
C    6.0       19.5623377976       18.2250837544       21.5573499995
H    1.0       18.6080817735       17.7394658857       21.8004267089
H    1.0       20.3504285488       17.4879763585       21.7580903655
C    6.0       19.7484757624       19.4575026580       22.4683703298
H    1.0       18.9798481171       20.1960645758       22.2269030849
H    1.0       20.7246752330       19.9122855344       22.2840825771
N    7.0       19.6441504346       19.1654427269       23.9563946240
H    1.0       18.7464766858       18.7038011869       24.1680223230
H    1.0       19.6146664896       20.0535145736       24.4814339213
C    6.0       20.8171072170       18.3183164384       24.4379748988
H    1.0       21.7511675459       18.8403139851       24.2194618454
H    1.0       20.7266250165       18.1615769429       25.5151042690
H    1.0       20.8029065678       17.3544480941       23.9254865786
 $end
$$$$
! Edit this basic GAMESS input file as needed.
! Conformer was generated by a VeraChem VCPack run 
! and contains     20 atoms.
!
 $contrl scftyp=rhf runtyp=optimize nzvar=0
  maxit=200 icharg=0 $end
 $system mwords=50 $end
 $basis gbasis=pm3 $end
 $statpt nstep=200 $end
 $guess guess=huckel $end
 $data
VM2 Rank=12     G=54.587            E=31.822            -TS=22.766              
C1
C    6.0       19.9877961392       19.5063075028       19.3466819906
H    1.0       20.4744764481       20.3793118864       19.7993873586
H    1.0       20.3577109621       19.4191382984       18.3168509859
H    1.0       18.9085620985       19.7014150639       19.2989372106
C    6.0       20.2852542676       18.2133683267       20.1405215232
H    1.0       21.3709109245       18.0463220002       20.1808438023
H    1.0       19.8611579603       17.3557292631       19.5996007217
C    6.0       19.7080747386       18.2367814730       21.5753419240
H    1.0       18.6194669273       18.3729798254       21.5317566084
H    1.0       19.8838399260       17.2590926074       22.0419820815
C    6.0       20.3335423279       19.3451684885       22.4495728056
H    1.0       20.1580705770       20.3138600914       21.9756320552
H    1.0       21.4135099904       19.1949076618       22.5227631619
N    7.0       19.7751581421       19.4289578242       23.8609651722
H    1.0       18.7493931896       19.5328564228       23.8338671562
H    1.0       20.1159141046       20.2902880830       24.3161704293
C    6.0       20.1761743845       18.2134163848       24.6899165844
H    1.0       21.2654887559       18.1401796185       24.7168852695
H    1.0       19.7902165357       18.3298015582       25.7050298575
H    1.0       19.7553951935       17.3122234556       24.2397855714
 $end
$$$$
! Edit this basic GAMESS input file as needed.
! Conformer was generated by a VeraChem VCPack run 
! and contains     20 atoms.
!
 $contrl scftyp=rhf runtyp=optimize nzvar=0
  maxit=200 icharg=0 $end
 $system mwords=50 $end
 $basis gbasis=pm3 $end
 $statpt nstep=200 $end
 $guess guess=huckel $end
 $data
VM2 Rank=13     G=54.637            E=31.871            -TS=22.766              
C1
C    6.0       19.4757391527       18.9989633241       19.3251992435
H    1.0       19.2920603872       20.0812053458       19.3149030632
H    1.0       19.6032109466       18.6715386067       18.2852321462
H    1.0       18.5802413403       18.5028230026       19.7199973902
C    6.0       20.7313691476       18.6552560070       20.1592347347
H    1.0       21.6147057009       19.0927091767       19.6730786276
H    1.0       20.8872662848       17.5671954139       20.1606749953
C    6.0       20.6522680634       19.1721716692       21.6148911556
H    1.0       21.6078105703       18.9669449652       22.1142341605
H    1.0       20.5273813974       20.2630013537       21.6116180332
C    6.0       19.5025794854       18.5222164189       22.4147550328
H    1.0       19.6402591618       17.4386229342       22.4484188678
H    1.0       18.5563253371       18.7274855878       21.9085528931
N    7.0       19.3641025319       19.0218140632       23.8437626470
H    1.0       18.4813357188       18.6713986910       24.2476785828
H    1.0       19.2704658211       20.0488549250       23.8557695667
C    6.0       20.5399416190       18.5735785176       24.7051571864
H    1.0       21.4630316913       19.0032539123       24.3113247702
H    1.0       20.3841794612       18.9179065001       25.7299207052
H    1.0       20.6023489987       17.4833741817       24.6890869981
 $end
$$$$
! Edit this basic GAMESS input file as needed.
! Conformer was generated by a VeraChem VCPack run 
! and contains     20 atoms.
!
 $contrl scftyp=rhf runtyp=optimize nzvar=0
  maxit=200 icharg=0 $end
 $system mwords=50 $end
 $basis gbasis=pm3 $end
 $statpt nstep=200 $end
 $guess guess=huckel $end
 $data
VM2 Rank=14     G=54.999            E=32.227            -TS=22.773              
C1
C    6.0       20.9013620952       18.3874709359       19.8179901932
H    1.0       20.2877922794       17.6305976099       19.3122765195
H    1.0       21.6443375960       18.7518697602       19.0967544758
H    1.0       21.4461951163       17.8969285379       20.6344020485
C    6.0       20.0295893110       19.5548819085       20.3350323953
H    1.0       19.5792781977       20.0718486862       19.4759796058
H    1.0       20.6654436893       20.2978041267       20.8353978461
C    6.0       18.8984445329       19.0926258914       21.2873071546
H    1.0       18.3023834001       19.9620635715       21.5947723221
H    1.0       18.2138089299       18.4312040872       20.7399866214
C    6.0       19.3998181218       18.3511348481       22.5442002600
H    1.0       19.9552939198       17.4582455690       22.2476177598
H    1.0       18.5427181861       18.0332667755       23.1432648389
N    7.0       20.2988714525       19.1869500309       23.4351072829
H    1.0       19.8065298777       20.0423425373       23.7347778758
H    1.0       21.1185115643       19.5131192921       22.9019145672
C    6.0       20.7379144866       18.3709363853       24.6433627141
H    1.0       21.2845787222       17.4889796936       24.3026701026
H    1.0       21.3848637060       18.9840641886       25.2746314233
H    1.0       19.8559849213       18.0632564548       25.2093099422
 $end
$$$$
! Edit this basic GAMESS input file as needed.
! Conformer was generated by a VeraChem VCPack run 
! and contains     20 atoms.
!
 $contrl scftyp=rhf runtyp=optimize nzvar=0
  maxit=200 icharg=0 $end
 $system mwords=50 $end
 $basis gbasis=pm3 $end
 $statpt nstep=200 $end
 $guess guess=huckel $end
 $data
VM2 Rank=15     G=55.103            E=32.330            -TS=22.773              
C1
C    6.0       20.5653707255       18.0547377681       19.8040221792
H    1.0       21.0158637538       17.4708928757       20.6165406493
H    1.0       20.2251066126       17.3466200495       19.0373618632
H    1.0       21.3485743667       18.6806442990       19.3569148507
C    6.0       19.3850961265       18.9167837047       20.3080065493
H    1.0       18.6158784887       18.2686849671       20.7494619723
H    1.0       18.9091118729       19.4082294676       19.4478175556
C    6.0       19.8168747401       20.0020143922       21.3257665636
H    1.0       20.5070133826       20.7017654131       20.8360508285
H    1.0       18.9406391458       20.5940538303       21.6214771826
C    6.0       20.4999978964       19.4404917175       22.5902822862
H    1.0       20.7999485574       20.2682821392       23.2378395690
H    1.0       21.3995953646       18.8883387244       22.3081196241
N    7.0       19.6192144626       18.5139685491       23.4066011671
H    1.0       19.3085483802       17.7209140548       22.8260488887
H    1.0       18.7563667230       19.0024951107       23.6907388264
C    6.0       20.3794460489       18.0160038684       24.6283212546
H    1.0       19.7344217980       17.3497866472       25.2054406689
H    1.0       21.2701060220       17.4746815289       24.3020472789
H    1.0       20.6707802443       18.8701194486       25.2434435709
 $end
$$$$
! Edit this basic GAMESS input file as needed.
! Conformer was generated by a VeraChem VCPack run 
! and contains     20 atoms.
!
 $contrl scftyp=rhf runtyp=optimize nzvar=0
  maxit=200 icharg=0 $end
 $system mwords=50 $end
 $basis gbasis=pm3 $end
 $statpt nstep=200 $end
 $guess guess=huckel $end
 $data
VM2 Rank=16     G=55.224            E=32.216            -TS=23.008              
C1
C    6.0       19.2818942758       18.9365714433       19.6798255309
H    1.0       19.7311103582       19.7796149892       19.1389545685
H    1.0       18.8405796796       18.2598032423       18.9367287383
H    1.0       18.4645084747       19.3247732891       20.3002745164
C    6.0       20.3395588139       18.1943351831       20.5286918847
H    1.0       21.0874894916       17.7490375612       19.8577192304
H    1.0       19.8683554639       17.3540784094       21.0566097040
C    6.0       21.0637067406       19.1177942229       21.5396939895
H    1.0       21.8259792208       18.5407111575       22.0788304773
H    1.0       21.6082353575       19.8971852467       20.9905381759
C    6.0       20.1196381846       19.8007143650       22.5555148033
H    1.0       19.4243409476       20.4478893477       22.0153251132
H    1.0       20.7040374339       20.4296633070       23.2317680544
N    7.0       19.2900400738       18.8524329653       23.4074901176
H    1.0       18.7327599736       18.2311641362       22.8028700138
H    1.0       18.5965157724       19.3911971325       23.9495342662
C    6.0       20.1711619113       18.0421518205       24.3517836740
H    1.0       20.7346577652       18.7245539692       24.9916528232
H    1.0       19.5389783852       17.3982787013       24.9671521371
H    1.0       20.8598116442       17.4289476751       23.7672068192
 $end
$$$$
! Edit this basic GAMESS input file as needed.
! Conformer was generated by a VeraChem VCPack run 
! and contains     20 atoms.
!
 $contrl scftyp=rhf runtyp=optimize nzvar=0
  maxit=200 icharg=0 $end
 $system mwords=50 $end
 $basis gbasis=pm3 $end
 $statpt nstep=200 $end
 $guess guess=huckel $end
 $data
VM2 Rank=17     G=55.226            E=32.218            -TS=23.008              
C1
C    6.0       20.0368918833       19.6844544146       19.7114238883
H    1.0       19.2135895693       19.2670270878       19.1172976541
H    1.0       19.6299037967       20.4791660224       20.3490532513
H    1.0       20.7481958378       20.1494098548       19.0165647845
C    6.0       20.7335041720       18.5845725602       20.5451721269
H    1.0       21.5547166396       19.0245570866       21.1272247159
H    1.0       21.2003211588       17.8608073236       19.8624280044
C    6.0       19.7619847438       17.8283440321       21.4851505623
H    1.0       19.0018539406       17.3153523063       20.8813502670
H    1.0       20.3092211606       17.0382586003       22.0152916581
C    6.0       19.0448771282       18.7361029729       22.5104622726
H    1.0       18.3828732845       18.1304755808       23.1344683266
H    1.0       18.4271474542       19.4600957681       21.9735047977
N    7.0       19.9634027706       19.5193951490       23.4357147879
H    1.0       19.4082074242       20.1952126623       23.9835133906
H    1.0       20.6145018536       20.0949736322       22.8817441496