$$$$
! Edit this basic GAMESS input file as needed.
! Conformer was generated by a VeraChem VCPack run 
! and contains     20 atoms.
!
 $contrl scftyp=rhf runtyp=optimize nzvar=0
  maxit=200 icharg=0 $end
 $system mwords=50 $end
 $basis gbasis=pm3 $end
 $statpt nstep=200 $end
 $guess guess=huckel $end
 $data
VM2 Rank=1      G=53.936            E=31.434            -TS=22.502              
C1
C    6.0       19.8543574484       19.1510185397       18.8169569981
H    1.0       20.0357327642       20.2331368594       18.7809044871
H    1.0       20.3379087815       18.6998890026       17.9407808695
H    1.0       18.7731778844       18.9828080251       18.7278940113
C    6.0       20.4072299439       18.5374278429       20.1215885742
H    1.0       21.4948075843       18.6911510183       20.1651267651
H    1.0       20.2421056000       17.4506874152       20.1125845741
C    6.0       19.7439622211       19.1542438491       21.3727362996
H    1.0       19.9122389340       20.2393928441       21.3827294518
H    1.0       18.6579189272       18.9971950257       21.3301829173
C    6.0       20.3005673155       18.5373696434       22.6693594490
H    1.0       21.3791616019       18.7056099160       22.7224495089
H    1.0       20.1208382600       17.4593231484       22.6696964802
N    7.0       19.6775135388       19.1132522701       23.9258884699
H    1.0       18.6546426280       18.9804603835       23.9098771669
H    1.0       19.8195970672       20.1344750781       23.9586244418
C    6.0       20.2823695323       18.4506878547       25.1564702092
H    1.0       20.0901692535       17.3762686939       25.1178745891
H    1.0       21.3590672697       18.6332280587       25.1709509117
H    1.0       19.8251272625       18.8744027046       26.0533563352
 $end
$$$$
! Edit this basic GAMESS input file as needed.
! Conformer was generated by a VeraChem VCPack run 
! and contains     20 atoms.
!
 $contrl scftyp=rhf runtyp=optimize nzvar=0
  maxit=200 icharg=0 $end
 $system mwords=50 $end
 $basis gbasis=pm3 $end
 $statpt nstep=200 $end
 $guess guess=huckel $end
 $data
VM2 Rank=2      G=54.084            E=31.414            -TS=22.670              
C1
C    6.0       20.2446342793       19.5233249980       19.0575347261
H    1.0       21.0842027231       20.2046318303       19.2475736894
H    1.0       20.4069865672       19.0550271034       18.0780672051
H    1.0       19.3263756090       20.1217925533       18.9958261697
C    6.0       20.1366822160       18.4513515692       20.1636494340
H    1.0       21.0550920409       17.8474907765       20.1778325236
H    1.0       19.3111242665       17.7650413637       19.9275518194
C    6.0       19.9075596637       19.0821597215       21.5547893424
H    1.0       20.7341090541       19.7662778402       21.7862055643
H    1.0       18.9878750768       19.6818364516       21.5410388720
C    6.0       19.7992589978       18.0036025323       22.6524935465
H    1.0       20.7299424891       17.4331619881       22.7054856829
H    1.0       18.9935650027       17.3123987349       22.3921611663
N    7.0       19.5004925983       18.5425125237       24.0421251164
H    1.0       19.2822646997       17.7583510109       24.6767542593
H    1.0       18.6431440195       19.1156476562       24.0265153676
C    6.0       20.6773722449       19.3410486553       24.5924078347
H    1.0       20.8597945525       20.2062791490       23.9521073823
H    1.0       20.4393036052       19.6778855007       25.6037614464
H    1.0       21.5642317920       18.7041640445       24.6161760930
 $end
$$$$
! Edit this basic GAMESS input file as needed.
! Conformer was generated by a VeraChem VCPack run 
! and contains     20 atoms.
!
 $contrl scftyp=rhf runtyp=optimize nzvar=0
  maxit=200 icharg=0 $end
 $system mwords=50 $end
 $basis gbasis=pm3 $end
 $statpt nstep=200 $end
 $guess guess=huckel $end
 $data
VM2 Rank=3      G=54.174            E=31.503            -TS=22.670              
C1
C    6.0       19.4686773491       18.7548436661       19.0250495515
H    1.0       19.9764997922       18.6288152613       18.0600349090
H    1.0       18.7727295920       17.9151847770       19.1507404748
H    1.0       18.8812960429       19.6810562316       18.9772696879
C    6.0       20.4938772723       18.8051820446       20.1786086150
H    1.0       21.1967175042       19.6326535961       20.0065159085
H    1.0       21.0885734990       17.8807023426       20.1792279625
C    6.0       19.8068979843       18.9825079369       21.5505781704
H    1.0       19.2165374713       19.9083031646       21.5506774884
H    1.0       19.1062896984       18.1543286907       21.7179761272
C    6.0       20.8390253218       19.0331953050       22.6960528840
H    1.0       21.5477917599       19.8416310728       22.4991787026
H    1.0       21.3983734153       18.0950522453       22.7334618027
N    7.0       20.2445688669       19.2792589465       24.0733080036
H    1.0       19.6803297594       20.1426232819       24.0700177473
H    1.0       21.0031369725       19.4622611083       24.7488601938
C    6.0       19.4129532056       18.0890121009       24.5394027756
H    1.0       20.0402687864       17.1951344924       24.5522222480
H    1.0       19.0358539872       18.2880914729       25.5449552752
H    1.0       18.5739347046       17.9429111639       23.8563293937
 $end
$$$$
! Edit this basic GAMESS input file as needed.
! Conformer was generated by a VeraChem VCPack run 
! and contains     20 atoms.
!
 $contrl scftyp=rhf runtyp=optimize nzvar=0
  maxit=200 icharg=0 $end
 $system mwords=50 $end
 $basis gbasis=pm3 $end
 $statpt nstep=200 $end
 $guess guess=huckel $end
 $data
VM2 Rank=4      G=54.305            E=31.706            -TS=22.599              
C1
C    6.0       20.8666911011       19.3665024949       19.5193162246
H    1.0       20.5575600222       20.4198454310       19.5218683177
H    1.0       21.7363822631       19.2628311081       20.1803405394
H    1.0       21.1933819171       19.1162918755       18.5016433429
C    6.0       19.7057141945       18.4445547207       19.9579845112
H    1.0       20.0429843511       17.3984058521       19.9527099852
H    1.0       18.8957928329       18.5113089052       19.2179941140
C    6.0       19.1424458514       18.8035425002       21.3529876509
H    1.0       18.7742243651       19.8380627158       21.3461178815
H    1.0       18.2762583516       18.1625137577       21.5643086674
C    6.0       20.1839500355       18.6321850247       22.4759994353
H    1.0       21.0330191217       19.2956637777       22.2953240816
H    1.0       20.5483778070       17.6018949692       22.4843448062
N    7.0       19.6383292774       18.9444054250       23.8555983084
H    1.0       18.8280473239       18.3408794695       24.0636963760
H    1.0       19.2747082318       19.9092858251       23.8852111044
C    6.0       20.7288695401       18.7528098345       24.9011138695
H    1.0       20.3227102474       18.9807617685       25.8890808356
H    1.0       21.0742972711       17.7170419183       24.8752344052
H    1.0       21.5606898230       19.4254383148       24.6810135239
 $end
$$$$
! Edit this basic GAMESS input file as needed.
! Conformer was generated by a VeraChem VCPack run 
! and contains     20 atoms.
!
 $contrl scftyp=rhf runtyp=optimize nzvar=0
  maxit=200 icharg=0 $end
 $system mwords=50 $end
 $basis gbasis=pm3 $end
 $statpt nstep=200 $end
 $guess guess=huckel $end
 $data
VM2 Rank=5      G=54.310            E=31.711            -TS=22.599              
C1
C    6.0       19.6008475735       18.1121104315       19.4663402040
H    1.0       19.6694078263       17.2145282053       20.0938020826
H    1.0       18.5509029274       18.4313388252       19.4378992432
H    1.0       19.8910936785       17.8258157895       18.4471333040
C    6.0       20.5129454829       19.2444716137       19.9918144929
H    1.0       20.4841385954       20.0852706033       19.2845373655
H    1.0       21.5555809006       18.8972988921       20.0160713336
C    6.0       20.1000333086       19.7524283226       21.3931218776
H    1.0       20.7387849294       20.6024588257       21.6675332748
H    1.0       19.0698450445       20.1310833212       21.3585074706
C    6.0       20.2150420098       18.6631036871       22.4772760981
H    1.0       21.2409276276       18.2880840621       22.5132206459
H    1.0       19.5525725016       17.8292078943       22.2333116527
N    7.0       19.8496012826       19.1536213672       23.8644732897
H    1.0       18.8874971540       19.5256751895       23.8691081265
H    1.0       20.4507653486       19.9481559455       24.1317184807
C    6.0       19.9875303425       18.0182645779       24.8699740377
H    1.0       21.0204422303       17.6634571843       24.8727475341
H    1.0       19.7216648561       18.3849877189       25.8638723919
H    1.0       19.3176086821       17.2034555731       24.5869703924
 $end
$$$$
! Edit this basic GAMESS input file as needed.
! Conformer was generated by a VeraChem VCPack run 
! and contains     20 atoms.
!
 $contrl scftyp=rhf runtyp=optimize nzvar=0
  maxit=200 icharg=0 $end
 $system mwords=50 $end
 $basis gbasis=pm3 $end
 $statpt nstep=200 $end
 $guess guess=huckel $end
 $data
VM2 Rank=6      G=54.342            E=31.753            -TS=22.589              
C1
C    6.0       19.6844483827       18.8157686006       18.9888497388
H    1.0       18.8181143565       19.4883648857       18.9412833249
H    1.0       20.5415172730       19.3302809128       18.5351100600
H    1.0       19.4591911006       17.9336728810       18.3755049810
C    6.0       19.9895767833       18.4041809904       20.4453919039
H    1.0       20.8398587260       17.7076005794       20.4564257242
H    1.0       19.1273714915       17.8584111606       20.8518813376
C    6.0       20.3100226972       19.6309660292       21.3316767041
H    1.0       21.1481155551       20.1874401484       20.8914283744
H    1.0       19.4536578026       20.3181559506       21.3479831480
C    6.0       20.6878558357       19.2435694855       22.7755264228
H    1.0       20.9884597813       20.1404067103       23.3231941043
H    1.0       21.5356767235       18.5540602569       22.7609679604
N    7.0       19.5633428144       18.5876287305       23.5546878778
H    1.0       19.2485700061       17.7325779786       23.0727511831
H    1.0       18.7396072191       19.2079948899       23.5802644008
C    6.0       20.0307534868       18.2618861637       24.9668673525
H    1.0       19.2125673022       17.7907105861       25.5160062305
H    1.0       20.8813653646       17.5787703390       24.9158586903
H    1.0       20.3277632013       19.1849251634       25.4694311520
 $end
$$$$
! Edit this basic GAMESS input file as needed.
! Conformer was generated by a VeraChem VCPack run 
! and contains     20 atoms.
!
 $contrl scftyp=rhf runtyp=optimize nzvar=0
  maxit=200 icharg=0 $end
 $system mwords=50 $end
 $basis gbasis=pm3 $end
 $statpt nstep=200 $end
 $guess guess=huckel $end
 $data
VM2 Rank=7      G=54.383            E=31.794            -TS=22.589              
C1
C    6.0       20.1834541824       19.3099583269       19.0097771207
H    1.0       19.6811598117       18.4780765369       18.4990492245
H    1.0       19.5210334899       20.1845195523       18.9707445573
H    1.0       21.0926326942       19.5514548379       18.4440031460
C    6.0       20.5303879177       18.9398155117       20.4680820006
H    1.0       21.0659674723       19.7784783010       20.9331578454
H    1.0       21.2184431059       18.0825595955       20.4723389805
C    6.0       19.2644667702       18.5954308178       21.2878576479
H    1.0       18.5846851298       19.4575173611       21.3115326778
H    1.0       18.7198356989       17.7823753388       20.7896599457
C    6.0       19.5871453629       18.1534610930       22.7294131506
H    1.0       20.2692115017       17.2997873149       22.7079271730
H    1.0       18.6653606502       17.8396530440       23.2258579315
N    7.0       20.2193831697       19.2374250823       23.5821657861
H    1.0       19.6056945488       20.0658267430       23.6165887873
H    1.0       21.0967214078       19.5631221467       23.1501314709
C    6.0       20.4811625971       18.7079091684       24.9857042941
H    1.0       21.1582772401       17.8529807941       24.9273638424
H    1.0       20.9359868408       19.4973619247       25.5881071530
H    1.0       19.5351725526       18.3999400694       25.4363070622
 $end
$$$$
! Edit this basic GAMESS input file as needed.
! Conformer was generated by a VeraChem VCPack run 
! and contains     20 atoms.
!
 $contrl scftyp=rhf runtyp=optimize nzvar=0
  maxit=200 icharg=0 $end
 $system mwords=50 $end
 $basis gbasis=pm3 $end
 $statpt nstep=200 $end
 $guess guess=huckel $end
 $data
VM2 Rank=8      G=54.497            E=31.685            -TS=22.812              
C1
C    6.0       19.9199917498       18.3277179621       19.2181327704
H    1.0       19.1804856947       17.5283175807       19.3568823627
H    1.0       19.4297342600       19.1596529136       18.6959473088
H    1.0       20.7133542764       17.9420108466       18.5648278367
C    6.0       20.5031029167       18.7866612885       20.5721325981
H    1.0       21.2614868662       19.5630256627       20.3980852897
H    1.0       21.0177540680       17.9399095896       21.0462670397
C    6.0       19.4038628161       19.3332691046       21.5132057228
H    1.0       18.8685874833       20.1494178327       21.0101854208
H    1.0       18.6579232280       18.5531246862       21.7124330409
C    6.0       19.9681565828       19.8725650535       22.8463955866
H    1.0       19.1524540543       20.2800233091       23.4489741686
H    1.0       20.6653551521       20.6867890755       22.6328954347
N    7.0       20.7069998748       18.8538868325       23.7013997466
H    1.0       21.1551095786       19.3327258621       24.4983542653
H    1.0       21.4861768689       18.4403958679       23.1685422874
C    6.0       19.7638860598       17.7698997588       24.2117335756
H    1.0       18.9607629672       18.2343520764       24.7878709931
H    1.0       19.3443648404       17.2262108678       23.3629584267
H    1.0       20.3223828197       17.0804288382       24.8486347145
 $end
$$$$
! Edit this basic GAMESS input file as needed.
! Conformer was generated by a VeraChem VCPack run 
! and contains     20 atoms.
!
 $contrl scftyp=rhf runtyp=optimize nzvar=0
  maxit=200 icharg=0 $end
 $system mwords=50 $end
 $basis gbasis=pm3 $end
 $statpt nstep=200 $end
 $guess guess=huckel $end
 $data
VM2 Rank=9      G=54.514            E=31.702            -TS=22.812              
C1
C    6.0       20.6591742892       19.0609645057       19.2491824483
H    1.0       21.4573457156       19.7867162320       19.4525750190
H    1.0       21.0663997077       18.2923026148       18.5796105798
H    1.0       19.8536697677       19.5802522283       18.7137868790
C    6.0       20.1391170297       18.4256449246       20.5568033581
H    1.0       20.9612890804       17.8839048817       21.0438439150
H    1.0       19.3653378546       17.6822828130       20.3183509288
C    6.0       19.5611434536       19.4892750267       21.5197993735
H    1.0       20.3375095357       20.2191774213       21.7829344730
H    1.0       18.7708492725       20.0524766813       21.0061004027
C    6.0       18.9619468699       18.8743896122       22.8041430114
H    1.0       18.1525133816       18.1940555417       22.5273917127
H    1.0       18.5352194612       19.6676994361       23.4230581481
N    7.0       19.9382615917       18.0912731254       23.6691057363
H    1.0       20.3683831900       17.3315216655       23.1215635008
H    1.0       19.4229587941       17.6143582323       24.4255710059
C    6.0       21.0063567659       19.0024528054       24.2639660724
H    1.0       21.5884308759       19.4524250874       23.4572880280
H    1.0       20.5236602621       19.7847474120       24.8536080989
H    1.0       21.6642857657       18.4115889313       24.9050126145
 $end
$$$$
! Edit this basic GAMESS input file as needed.
! Conformer was generated by a VeraChem VCPack run 
! and contains     20 atoms.
!
 $contrl scftyp=rhf runtyp=optimize nzvar=0
  maxit=200 icharg=0 $end
 $system mwords=50 $end
 $basis gbasis=pm3 $end
 $statpt nstep=200 $end
 $guess guess=huckel $end
 $data
VM2 Rank=10     G=54.568            E=31.806            -TS=22.762              
C1
C    6.0       19.7784300861       18.0526810788       19.5402832891
H    1.0       18.8029628243       17.8263732348       19.9889663904
H    1.0       19.6361021974       18.1153918886       18.4536437631
H    1.0       20.4521240756       17.2096029314       19.7414098040
C    6.0       20.3630131323       19.3750578956       20.0878174226
H    1.0       19.6682275925       20.2006204906       19.8783249097
H    1.0       21.2910624217       19.6080066761       19.5470361185
C    6.0       20.6649784067       19.3196182321       21.6036091053
H    1.0       21.3877631619       18.5176874658       21.8015993092
H    1.0       21.1461611296       20.2587662114       21.9068918581
C    6.0       19.3940100061       19.1057557652       22.4535299787
H    1.0       18.9409431166       18.1420086666       22.2092384526
H    1.0       18.6714067795       19.8900208383       22.2140681649
N    7.0       19.6237058958       19.1450769310       23.9555613254
H    1.0       18.7144848977       19.1600392181       24.4437229872
H    1.0       20.0820153674       20.0291347594       24.2240959491
C    6.0       20.4418624729       17.9458100972       24.4221988790
H    1.0       19.9232810588       17.0261958526       24.1427675233
H    1.0       21.4265662269       17.9732967077       23.9515703725
H    1.0       20.5536287152       17.9897219010       25.5078059339
 $end
$$$$
! Edit this basic GAMESS input file as needed.
! Conformer was generated by a VeraChem VCPack run 
! and contains     20 atoms.
!
 $contrl scftyp=rhf runtyp=optimize nzvar=0
  maxit=200 icharg=0 $end
 $system mwords=50 $end
 $basis gbasis=pm3 $end
 $statpt nstep=200 $end
 $guess guess=huckel $end
 $data
VM2 Rank=11     G=54.574            E=31.813            -TS=22.762              
C1
C    6.0       20.9209286458       19.1873201140       19.5883222020
H    1.0       21.7507238858       18.4993145211       19.7961269796
H    1.0       20.9051121068       19.3755102503       18.5069769134
H    1.0       21.1338338705       20.1413690004       20.0868504835
C    6.0       19.5731079913       18.5905457579       20.0546434588
H    1.0       19.3577030480       17.6878277082       19.4658425748
H    1.0       18.7613123248       19.2998857723       19.8401856581
C    6.0       19.5625685867       18.2248495232       21.5573180868
H    1.0       18.6085189985       17.7387832672       21.8003132011
H    1.0       20.3509847503       17.4881021056       21.7581005943
C    6.0       19.7480593245       19.4573378184       22.4683774978
H    1.0       18.9790261116       20.1954894996       22.2269467278
H    1.0       20.7240103720       19.9126568618       22.2840904040
N    7.0       19.6439173870       19.1651665431       23.9563919906
H    1.0       18.7465393883       18.7029395581       24.1680020723
H    1.0       19.6138663808       20.0532035096       24.4814595906
C    6.0       20.8174180646       18.3187802434       24.4379467640
H    1.0       20.8038869241       17.3549465617       23.9253760216
H    1.0       21.7511406168       18.8414192281       24.2195225153
H    1.0       20.7269961066       18.1618871570       25.5150582023
 $end
$$$$
! Edit this basic GAMESS input file as needed.
! Conformer was generated by a VeraChem VCPack run 
! and contains     20 atoms.
!
 $contrl scftyp=rhf runtyp=optimize nzvar=0
  maxit=200 icharg=0 $end
 $system mwords=50 $end
 $basis gbasis=pm3 $end
 $statpt nstep=200 $end
 $guess guess=huckel $end
 $data
VM2 Rank=12     G=54.636            E=31.871            -TS=22.765              
C1
C    6.0       19.4757564172       18.9991474401       19.3252124719
H    1.0       19.2922511499       20.0814189970       19.3149847393
H    1.0       19.6031749494       18.6717672736       18.2852254312
H    1.0       18.5801798154       18.5031267691       19.7199816624
C    6.0       20.7313312277       18.6551888795       20.1592268743
H    1.0       21.6147369698       19.0925370818       19.6731013367
H    1.0       20.8870583608       17.5671047126       20.1606057253
C    6.0       20.6522987646       19.1720324400       21.6149096775
H    1.0       21.6078341231       18.9667069988       22.1142245623
H    1.0       20.5274871967       20.2628714016       21.6116995939
C    6.0       19.5025841376       18.5221082722       22.4147594303
H    1.0       19.6402692642       17.4385163809       22.4484774379
H    1.0       18.5563437245       18.7273469741       21.9085193191
N    7.0       19.3640638100       19.0217761660       23.8437367817
H    1.0       18.4813418738       18.6712805809       24.2476801872
H    1.0       19.2703027801       20.0488058408       23.8556791000
C    6.0       20.5399656429       18.5737468022       24.7051547644
H    1.0       20.3841387618       18.9180817068       25.7299063826
H    1.0       20.6025469715       17.4835532746       24.6891151291
H    1.0       21.4629918252       19.0035591665       24.3113193034
 $end
$$$$
! Edit this basic GAMESS input file as needed.
! Conformer was generated by a VeraChem VCPack run 
! and contains     20 atoms.
!
 $contrl scftyp=rhf runtyp=optimize nzvar=0
  maxit=200 icharg=0 $end
 $system mwords=50 $end
 $basis gbasis=pm3 $end
 $statpt nstep=200 $end
 $guess guess=huckel $end
 $data
VM2 Rank=13     G=55.000            E=32.227            -TS=22.773              
C1
C    6.0       20.9020432380       18.3884919186       19.8181042968
H    1.0       21.6446691426       18.7537680257       19.0969525416
H    1.0       21.4473597430       17.8985835530       20.6345739582
H    1.0       20.2894219916       17.6309008617       19.3123161726
C    6.0       20.0288416723       19.5548756550       20.3350550433
H    1.0       19.5780051729       20.0713016432       19.4759534310
H    1.0       20.6637694122       20.2985544734       20.8354750733
C    6.0       18.8981480544       19.0912973629       21.2872242600
H    1.0       18.3010347951       19.9600370416       21.5946178540
H    1.0       18.2143427773       18.4290644778       20.7398450300
C    6.0       19.4002657983       18.3504094971       22.5441770732
H    1.0       19.9567217650       17.4581115133       22.2476536607
H    1.0       18.5434850650       18.0316359561       23.1432172734
N    7.0       20.2983842972       19.1872261397       23.4350894363
H    1.0       19.8050987544       20.0420777928       23.7347509677
H    1.0       21.1176712595       19.5142938062       22.9019043633
C    6.0       20.7383169398       18.3716994266       24.6433498903
H    1.0       19.8567286928       18.0631317583       25.2093449841
H    1.0       21.2858704268       17.4902938253       24.3026591881
H    1.0       21.3846677516       18.9855084485       25.2745698157
 $end
$$$$
! Edit this basic GAMESS input file as needed.
! Conformer was generated by a VeraChem VCPack run 
! and contains     20 atoms.
!
 $contrl scftyp=rhf runtyp=optimize nzvar=0
  maxit=200 icharg=0 $end
 $system mwords=50 $end
 $basis gbasis=pm3 $end
 $statpt nstep=200 $end
 $guess guess=huckel $end
 $data
VM2 Rank=14     G=55.103            E=32.330            -TS=22.773              
C1
C    6.0       20.5664211719       18.0554513767       19.8039363344
H    1.0       21.0177411818       17.4722198386       20.6164344621
H    1.0       20.2270099227       17.3468679959       19.0373271676
H    1.0       21.3487751532       18.6823564686       19.3567405833
C    6.0       19.3850762745       18.9159878131       20.3079878637
H    1.0       18.6166857216       18.2669036450       20.7494346862
H    1.0       18.9084523972       19.4068665976       19.4478282469
C    6.0       19.8155193434       20.0017249127       21.3257762572
H    1.0       20.5048581786       20.7022918215       20.8361004893
H    1.0       18.9385677972       20.5927272693       21.6214390044
C    6.0       20.4992336480       19.4410155544       22.5903351000
H    1.0       20.7981144150       20.2691646025       23.2379295059
H    1.0       21.3995313065       18.8899692559       22.3082389462
N    7.0       19.6195204449       18.5134036662       23.4065715637
H    1.0       19.3099113249       17.7199518697       22.8259991195
H    1.0       18.7560266070       19.0008525617       23.6905992559
C    6.0       20.3802291173       18.0164166768       24.6283928810
H    1.0       20.6704980245       18.8709136159       25.2434889527
H    1.0       19.7359370386       17.3494748158       25.2054938911
H    1.0       21.2715573650       17.4761248185       24.3022360967
 $end
$$$$
! Edit this basic GAMESS input file as needed.
! Conformer was generated by a VeraChem VCPack run 
! and contains     20 atoms.
!
 $contrl scftyp=rhf runtyp=optimize nzvar=0
  maxit=200 icharg=0 $end
 $system mwords=50 $end
 $basis gbasis=pm3 $end
 $statpt nstep=200 $end
 $guess guess=huckel $end
 $data
VM2 Rank=15     G=55.224            E=32.217            -TS=23.008              
C1
C    6.0       19.2819106763       18.9365453429       19.6798156678
H    1.0       18.8406283309       18.2597678075       18.9367096174
H    1.0       18.4645001377       19.3247441175       20.3002318988
H    1.0       19.7311349877       19.7795878550       19.1389517331
C    6.0       20.3395550839       18.1943328559       20.5287245333
H    1.0       21.0874920168       17.7490061609       19.8577792540
H    1.0       19.8683397629       17.3540965447       21.0566643998
C    6.0       21.0636917739       19.1178339141       21.5396960639
H    1.0       21.8259933175       18.5407838083       22.0788257878
H    1.0       21.6081816612       19.8972354237       20.9905168830
C    6.0       20.1196201186       19.8007313594       22.5555282294
H    1.0       19.4243157215       20.4479118600       22.0153540481
H    1.0       20.7040166814       20.4296691715       23.2317949229
N    7.0       19.2900381852       18.8524176603       23.4074811969
H    1.0       18.7327783555       18.2311484912       22.8028431391
H    1.0       18.5964968557       19.3911527635       23.9495324972
C    6.0       20.1711841620       18.0421388673       24.3517543087
H    1.0       19.5390172686       17.3982565401       24.9671300426
H    1.0       20.8598286403       17.4289447686       23.7671589927
H    1.0       20.7346863567       18.7245453195       24.9916144285
 $end
$$$$
! Edit this basic GAMESS input file as needed.
! Conformer was generated by a VeraChem VCPack run 
! and contains     20 atoms.
!
 $contrl scftyp=rhf runtyp=optimize nzvar=0
  maxit=200 icharg=0 $end
 $system mwords=50 $end
 $basis gbasis=pm3 $end
 $statpt nstep=200 $end
 $guess guess=huckel $end
 $data
VM2 Rank=16     G=55.226            E=32.218            -TS=23.008              
C1
C    6.0       20.0369948731       19.6845199701       19.7115544626
H    1.0       19.2135986683       19.2672323748       19.1174614909
H    1.0       19.6301569458       20.4792659873       20.3492372445
H    1.0       20.7483281117       20.1493981434       19.0166738915
C    6.0       20.7334879630       18.5845060547       20.5452237635
H    1.0       21.5547473027       19.0243581724       21.1273111418
H    1.0       21.2002304488       17.8607389906       19.8624309487
C    6.0       19.7618730387       17.8283174745       21.4851363140
H    1.0       19.0017132315       17.3154272282       20.8812853533
H    1.0       20.3090233617       17.0381554452       22.0152516298
C    6.0       19.0448178178       18.7360827611       22.5104778713
H    1.0       18.3828618376       18.1304572298       23.1345369122
H    1.0       18.4270469700       19.4600616053       21.9735485824
N    7.0       19.9633971402       19.5194060982       23.4356497162
H    1.0       19.4082340211       20.1952236558       23.9834813705
H    1.0       20.6144399774       20.0949853850       22.8816137934
C    6.0       20.7254291672       18.5911676414       24.3749578724
H    1.0       21.3567547576       17.9211851267       23.7879815286
H    1.0       21.3482231201       19.1903168360       25.0428320468
H    1.0       20.0117645160       18.0085777786       24.9613904458
 $end
$$$$
! Edit this basic GAMESS input file as needed.
! Conformer was generated by a VeraChem VCPack run 
! and contains     20 atoms.
!
 $contrl scftyp=rhf runtyp=optimize nzvar=0
  maxit=200 icharg=0 $end
 $system mwords=50 $end
 $basis gbasis=pm3 $end
 $statpt nstep=200 $end
 $guess guess=huckel $end
 $data
VM2 Rank=17     G=55.743            E=33.198            -TS=22.545              
C1
C    6.0       19.7476892526       18.3611031619       19.2373478619
H    1.0       18.6600228987       18.2283263563       19.3045314373
H    1.0       19.9454231686       19.2712813932       18.6562946501
H    1.0       20.1562386524       17.5099090156       18.6773777415
C    6.0       20.3847120968       18.4469518165       20.6413184143
H    1.0       21.4745357572       18.5472976214       20.5402552146
H    1.0       20.2053249518       17.5041392634       21.1715575501
C    6.0       19.8269600039       19.6428353831       21.4499811934
H    1.0       20.0023093912       20.5608221234       20.8735309848
H    1.0       18.7386847316       19.5565829290       21.5671005514
C    6.0       20.4958177646       19.8175914967       22.8324859295
H    1.0       20.4756698974       20.8807619244       23.0856220598
H    1.0       21.5431885487       19.5092350639       22.7861500798
N    7.0       19.8281576780       19.0943368841       23.9949502816
H    1.0       18.8325350408       19.3566533634       24.0537329507
H    1.0       20.2379392833       19.4303664111       24.8805423317