$$$$
! Edit this basic GAMESS input file as needed.
! Conformer was generated by a VeraChem VCPack run 
! and contains     17 atoms.
!
 $contrl scftyp=rhf runtyp=optimize nzvar=0
  maxit=200 icharg=0 $end
 $system mwords=50 $end
 $basis gbasis=pm3 $end
 $statpt nstep=200 $end
 $guess guess=huckel $end
 $data
VM2 Rank=1      G=15.407            E=-2.451            -TS=17.858              
C1
N    7.0       19.6262538272       18.8413387840       24.1383383963
H    1.0       18.6401902449       19.1178974175       24.1681539662
H    1.0       20.0580873171       19.1907727841       24.9999212097
H    1.0       19.6532612124       17.8183261490       24.1874597222
C    6.0       20.3270678934       19.3692968209       22.9024251125
H    1.0       21.3758013262       19.0640885211       22.9527149677
H    1.0       20.2864467661       20.4615416128       22.9319745497
C    6.0       19.7034531227       18.8636801408       21.5887584149
H    1.0       19.7320089694       17.7660441544       21.5695300955
H    1.0       18.6464275193       19.1587924819       21.5488330972
C    6.0       20.4461678815       19.4242736102       20.3560239806
H    1.0       21.5050163018       19.1318992411       20.3970721515
H    1.0       20.4208112832       20.5230289870       20.3764679967
C    6.0       19.8260572752       18.9214106440       19.0344540956
H    1.0       19.8682754871       17.8263338132       18.9694105667
H    1.0       20.3674568474       19.3305728464       18.1715972776
H    1.0       18.7755441577       19.2284387216       18.9486419003
 $end
$$$$
! Edit this basic GAMESS input file as needed.
! Conformer was generated by a VeraChem VCPack run 
! and contains     17 atoms.
!
 $contrl scftyp=rhf runtyp=optimize nzvar=0
  maxit=200 icharg=0 $end
 $system mwords=50 $end
 $basis gbasis=pm3 $end
 $statpt nstep=200 $end
 $guess guess=huckel $end
 $data
VM2 Rank=2      G=15.753            E=-2.202            -TS=17.955              
C1
N    7.0       19.2948324475       19.3739384296       23.6868766018
H    1.0       19.4571227349       19.6752030175       24.6531835279
H    1.0       18.6078045986       18.6148966125       23.7241750039
H    1.0       18.8518491908       20.1590144841       23.2013163539
C    6.0       20.5806342820       18.9410363363       23.0085819910
H    1.0       21.0149303642       18.1344427710       23.6055884510
H    1.0       21.2743626154       19.7859877585       23.0244863252
C    6.0       20.3889117600       18.4550475384       21.5582354858
H    1.0       21.3496865541       18.0703143166       21.1910649505
H    1.0       19.6881210729       17.6097273308       21.5441641274
C    6.0       19.8905724659       19.5726736164       20.6119964927
H    1.0       20.5811625677       20.4268761769       20.6524836090
H    1.0       18.9108771373       19.9408054340       20.9455499175
C    6.0       19.7740490445       19.0773040794       19.1543094287
H    1.0       19.4188815663       19.8825447249       18.4982002877
H    1.0       19.0653402343       18.2425454238       19.0761417430
H    1.0       20.7457719244       18.7372360881       18.7731361484
 $end
$$$$
! Edit this basic GAMESS input file as needed.
! Conformer was generated by a VeraChem VCPack run 
! and contains     17 atoms.
!
 $contrl scftyp=rhf runtyp=optimize nzvar=0
  maxit=200 icharg=0 $end
 $system mwords=50 $end
 $basis gbasis=pm3 $end
 $statpt nstep=200 $end
 $guess guess=huckel $end
 $data
VM2 Rank=3      G=15.773            E=-2.182            -TS=17.955              
C1
N    7.0       20.0682210055       18.3817622529       23.7016489907
H    1.0       19.1638911519       17.9015307653       23.7349481149
H    1.0       20.3861810344       18.4835057065       24.6708754736
H    1.0       20.7281438069       17.7516857362       23.2370506466
C    6.0       19.9722617617       19.7215453949       22.9969857163
H    1.0       20.9607456507       20.1883363019       23.0184417788
H    1.0       19.2876940651       20.3504781174       23.5726867071
C    6.0       19.4750384070       19.6273919412       21.5408438384
H    1.0       18.4844880100       19.1537911498       21.5212838873
H    1.0       19.3418459173       20.6460387726       21.1528485926
C    6.0       20.4506360194       18.8541502354       20.6226398504
H    1.0       20.5635493637       17.8205696741       20.9769600991
H    1.0       21.4469410372       19.3161501274       20.6689687036
C    6.0       19.9628428065       18.8351501756       19.1578816041
H    1.0       18.9814966949       18.3501668522       19.0745044047
H    1.0       20.6663243584       18.2822570903       18.5219103430
H    1.0       19.8759013953       19.8532822174       18.7565914889
 $end
$$$$
! Edit this basic GAMESS input file as needed.
! Conformer was generated by a VeraChem VCPack run 
! and contains     17 atoms.
!
 $contrl scftyp=rhf runtyp=optimize nzvar=0
  maxit=200 icharg=0 $end
 $system mwords=50 $end
 $basis gbasis=pm3 $end
 $statpt nstep=200 $end
 $guess guess=huckel $end
 $data
VM2 Rank=4      G=15.778            E=-2.176            -TS=17.955              
C1
N    7.0       19.5539513375       18.9865845389       24.0025885638
H    1.0       20.4351641982       18.7384137464       24.4625046942
H    1.0       18.9632215928       18.1495784169       24.0129906731
H    1.0       19.0938206837       19.6815534226       24.5993641058
C    6.0       19.7744556024       19.5082952225       22.5966896291
H    1.0       20.3838610676       20.4135687310       22.6638755480
H    1.0       18.8000848984       19.7807245833       22.1828985649
C    6.0       20.4647618538       18.4873434977       21.6719779556
H    1.0       21.4239070504       18.1902155424       22.1165363751
H    1.0       19.8534627367       17.5774970494       21.6057879326
C    6.0       20.7195352213       19.0453703281       20.2522245254
H    1.0       21.2829452738       18.3011443925       19.6719852835
H    1.0       21.3590274772       19.9372247089       20.3140976751
C    6.0       19.4162959851       19.3924064127       19.4965193261
H    1.0       18.7557817419       18.5184087236       19.4259967424
H    1.0       19.6408073187       19.7255314746       18.4749380137
H    1.0       18.8644029677       20.1999929686       19.9938205272
 $end
$$$$
! Edit this basic GAMESS input file as needed.
! Conformer was generated by a VeraChem VCPack run 
! and contains     17 atoms.
!
 $contrl scftyp=rhf runtyp=optimize nzvar=0
  maxit=200 icharg=0 $end
 $system mwords=50 $end
 $basis gbasis=pm3 $end
 $statpt nstep=200 $end
 $guess guess=huckel $end
 $data
VM2 Rank=5      G=15.815            E=-2.140            -TS=17.955              
C1
N    7.0       19.7513597576       18.7333238458       24.0063497320
H    1.0       18.7953403734       18.3649962984       24.0098356612
H    1.0       19.7194103004       19.6568038634       24.4488552433
H    1.0       20.3042211453       18.1286291554       24.6224119700
C    6.0       20.3312652165       18.7938277993       22.6072775249
H    1.0       20.3632599046       17.7749653105       22.2126455725
H    1.0       21.3569455646       19.1649747149       22.6823588329
C    6.0       19.5233325777       19.6952663103       21.6540655170
H    1.0       18.4927442344       19.3234118070       21.5798997500
H    1.0       19.4632223137       20.7059558893       22.0792362481
C    6.0       20.1470478811       19.7799114367       20.2413313037
H    1.0       21.1671282067       20.1834478687       20.3104464942
H    1.0       19.5714498838       20.4971052123       19.6394176519
C    6.0       20.1759945672       18.4176706079       19.5109759224
H    1.0       20.8169961290       17.6946366919       20.0310047364
H    1.0       20.5685758737       18.5351987698       18.4926081559
H    1.0       19.1682084686       17.9892590472       19.4338070544
 $end
$$$$
! Edit this basic GAMESS input file as needed.
! Conformer was generated by a VeraChem VCPack run 
! and contains     17 atoms.
!
 $contrl scftyp=rhf runtyp=optimize nzvar=0
  maxit=200 icharg=0 $end
 $system mwords=50 $end
 $basis gbasis=pm3 $end
 $statpt nstep=200 $end
 $guess guess=huckel $end
 $data
VM2 Rank=6      G=16.319            E=-1.812            -TS=18.131              
C1
N    7.0       19.6053687219       18.3342626120       23.4319971422
H    1.0       19.4468352187       17.5579807693       22.7833817054
H    1.0       18.8596465035       18.2945632845       24.1341291597
H    1.0       20.4851352091       18.1450712456       23.9214822137
C    6.0       19.6333157106       19.6696629697       22.7138183522
H    1.0       19.7676023305       20.4503235403       23.4675256922
H    1.0       18.6597017044       19.8210297736       22.2405662736
C    6.0       20.7497209196       19.7842649790       21.6553161078
H    1.0       20.7338374461       20.7992551185       21.2365719985
H    1.0       21.7252149059       19.6716398883       22.1467175523
C    6.0       20.6330255549       18.7559700276       20.5026883816
H    1.0       20.7394729870       17.7354367000       20.8949057651
H    1.0       21.4736275497       18.9037960000       19.8102718443
C    6.0       19.3075690930       18.8758394117       19.7161800162
H    1.0       18.4406016117       18.6459475081       20.3482128008
H    1.0       19.2964021452       18.1749820797       18.8714054828
H    1.0       19.1784402489       19.8884962911       19.3125490716
 $end
$$$$
! Edit this basic GAMESS input file as needed.
! Conformer was generated by a VeraChem VCPack run 
! and contains     17 atoms.
!
 $contrl scftyp=rhf runtyp=optimize nzvar=0
  maxit=200 icharg=0 $end
 $system mwords=50 $end
 $basis gbasis=pm3 $end
 $statpt nstep=200 $end
 $guess guess=huckel $end
 $data
VM2 Rank=7      G=16.365            E=-1.766            -TS=18.131              
C1
N    7.0       19.1396485696       18.9320241184       23.4232190540
H    1.0       18.3575310000       18.9560414051       22.7627943042
H    1.0       19.1644018511       19.8402095657       23.8964681844
H    1.0       18.9087202234       18.2316563851       24.1351345521
C    6.0       20.4514611799       18.6196477764       22.7293689151
H    1.0       20.3668685969       17.6300123114       22.2730026437
H    1.0       21.2303914964       18.5730040041       23.4952871183
C    6.0       20.8507478824       19.6545544881       21.6572418400
H    1.0       20.9729891105       20.6368982272       22.1324333339
H    1.0       21.8369603432       19.3835597912       21.2575547065
C    6.0       19.8418034459       19.7713034395       20.4876438049
H    1.0       20.2005596406       20.5374957326       19.7861118364
H    1.0       18.8727174291       20.1308991266       20.8594194235
C    6.0       19.6453389222       18.4424701777       19.7225263860
H    1.0       18.9751727615       18.5872279766       18.8652682620
H    1.0       19.2015078908       17.6696172257       20.3625736613
H    1.0       20.6013967851       18.0626349740       19.3394522828
 $end
$$$$
! Edit this basic GAMESS input file as needed.
! Conformer was generated by a VeraChem VCPack run 
! and contains     17 atoms.
!
 $contrl scftyp=rhf runtyp=optimize nzvar=0
  maxit=200 icharg=0 $end
 $system mwords=50 $end
 $basis gbasis=pm3 $end
 $statpt nstep=200 $end
 $guess guess=huckel $end
 $data
VM2 Rank=8      G=18.226            E=0.210             -TS=18.016              
C1
N    7.0       19.4442185254       18.2038794184       23.2130359228
H    1.0       19.3470687248       17.5464593865       22.4350849463
H    1.0       18.5073986186       18.5598486623       23.4254823295
H    1.0       19.7491278056       17.6637934694       24.0292223982
C    6.0       20.4117873945       19.3245788494       22.8845952344
H    1.0       21.4054964789       18.8938989995       22.7350678964
H    1.0       20.4547774612       19.9770428382       23.7609395292
C    6.0       20.0154261713       20.1640105977       21.6517685097
H    1.0       18.9413761986       20.3904717431       21.6811093236
H    1.0       20.5293337927       21.1315891659       21.7261786089
C    6.0       20.3949939018       19.5262558222       20.2909214076
H    1.0       21.4810862355       19.3628373870       20.2494668367
H    1.0       20.1658349513       20.2482299178       19.4945360181
C    6.0       19.6625740069       18.2012753122       19.9796789255
H    1.0       20.0159031574       17.3858525985       20.6214904231
H    1.0       19.8494843452       17.8980277246       18.9412851263
H    1.0       18.5771139000       18.3067585247       20.1053871167
 $end
$$$$
! Edit this basic GAMESS input file as needed.
! Conformer was generated by a VeraChem VCPack run 
! and contains     17 atoms.
!
 $contrl scftyp=rhf runtyp=optimize nzvar=0
  maxit=200 icharg=0 $end
 $system mwords=50 $end
 $basis gbasis=pm3 $end
 $statpt nstep=200 $end
 $guess guess=huckel $end
 $data
VM2 Rank=9      G=18.277            E=0.262             -TS=18.016              
C1
N    7.0       18.9769889023       18.8033733984       23.2041602768
H    1.0       19.0902015880       17.8120882090       23.4365776381
H    1.0       18.3269990404       18.8552670954       22.4157027882
H    1.0       18.5161007061       19.2458676585       24.0057869168
C    6.0       20.3047179588       19.4619594132       22.8825507803
H    1.0       20.9352471728       19.3606067129       23.7700743598
H    1.0       20.1320599107       20.5277895536       22.7108033595
C    6.0       21.0395060294       18.8500205488       21.6712591291
H    1.0       22.1021515504       19.1135152302       21.7561183122
H    1.0       20.9962202541       17.7539097871       21.7202188463
C    6.0       20.5334716692       19.3485825618       20.2935544517
H    1.0       21.1889529428       18.9354954756       19.5140074367
H    1.0       20.6409881136       20.4407604757       20.2334783504
C    6.0       19.0743154404       18.9560640778       19.9684753620
H    1.0       18.9095869987       17.8801854553       20.1116609172
H    1.0       18.8408798858       19.1921829295       18.9220950705
H    1.0       18.3607911965       19.5094609426       20.5900160256
 $end
