$$$$
! Edit this basic GAMESS input file as needed.
! Conformer was generated by a VeraChem VCPack run 
! and contains    146 atoms.
!
 $contrl scftyp=rhf runtyp=optimize nzvar=0
  maxit=200 icharg=0 $end
 $system mwords=50 $end
 $basis gbasis=pm3 $end
 $statpt nstep=200 $end
 $guess guess=huckel $end
 $data
FE Rank=1      G=545.591           E=351.827           -TS=193.764              
C1
C    6.0       16.3751886619       15.2922137112       20.6733636282
H    1.0       15.3613792243       15.1423733880       20.2802527675
O    8.0       16.5599560114       16.6324755924       21.1766008782
C    6.0       16.6597970056       14.3010077947       21.8322888422
H    1.0       16.5268265176       13.2857952229       21.4363817451
O    8.0       15.7442798918       14.5063611327       22.9205381321
H    1.0       15.6631659890       15.4838733420       23.0614117840
C    6.0       18.1221641516       14.4324840342       22.3247530936
H    1.0       18.2318520649       15.4189132455       22.7916875302
O    8.0       18.4046459107       13.4093878873       23.2851832166
H    1.0       17.6279354922       13.4021631786       23.8879338262
C    6.0       19.1198504554       14.3365676445       21.1441473215
H    1.0       19.1183495886       13.3024437985       20.7749563818
C    6.0       18.7282680378       15.2928873918       19.9845100646
H    1.0       18.8399569386       16.3233128861       20.3396912639
O    8.0       17.3457367557       15.0581797394       19.6307346362
C    6.0       19.5774477991       15.1514196181       18.6942977675
H    1.0       20.4471010695       15.8137777160       18.7691614978
H    1.0       18.9814811044       15.5120796670       17.8452843590
O    8.0       20.0149238667       13.8108297230       18.4468929258
H    1.0       20.8033096277       13.6555435277       19.0176416025
C    6.0       14.6407999847       20.3332451507       21.2059919607
H    1.0       13.9205336225       21.1577018660       21.1368544933
O    8.0       15.9939461419       20.8160959716       21.3346459577
C    6.0       14.3113862268       19.4024129720       22.4029341550
H    1.0       13.3245566585       18.9629179559       22.2068086585
O    8.0       14.2517559610       20.1231423536       23.6420848828
H    1.0       15.1028906952       20.6189374457       23.7435240325
C    6.0       15.3345622329       18.2428230883       22.4805612187
H    1.0       16.3253685289       18.6658703768       22.6920919706
O    8.0       14.9593601417       17.3397157635       23.5254254800
H    1.0       14.7101288573       17.9145524281       24.2833837575
C    6.0       15.3960553188       17.4843677558       21.1318950132
H    1.0       14.4697426594       16.9027017358       21.0338442047
C    6.0       15.5414777145       18.4449466735       19.9157463311
H    1.0       16.5545793119       18.8666405340       19.9276986472
O    8.0       14.5771566312       19.5250239667       20.0121606232
C    6.0       15.3475320769       17.7471938131       18.5478699015
H    1.0       16.2212372794       17.1117584889       18.3518186155
H    1.0       15.3222731397       18.5153466065       17.7634093731
O    8.0       14.1526727976       16.9564233630       18.5090303487
H    1.0       14.0661329517       16.5925320955       17.6010476457
C    6.0       18.5378056618       23.9893032372       21.8067329507
H    1.0       19.0305239011       24.9546604788       21.9797812082
O    8.0       19.4487488972       23.0288088885       21.2287409263
C    6.0       17.9927951539       23.4291799282       23.1435225873
H    1.0       17.3151595580       24.1837861701       23.5638502042
O    8.0       19.0636912982       23.1669264606       24.0669035080
H    1.0       19.7638240082       23.8447931923       23.9018814540
C    6.0       17.2001212136       22.1235208995       22.9233977920
H    1.0       17.9287909858       21.3597490278       22.6629758095
O    8.0       16.5589176202       21.7519558566       24.1440192446
H    1.0       17.2345213086       21.9114128288       24.8413369178
C    6.0       16.1844546662       22.1842465394       21.7562548324
H    1.0       15.2569979752       22.6476089667       22.1160650922
C    6.0       16.7334054131       22.9447998567       20.5148308702
H    1.0       17.4479113612       22.2850082200       20.0052213896
O    8.0       17.4207163060       24.1569327665       20.9105077974
C    6.0       15.6418850684       23.3128096776       19.4805401379
H    1.0       15.2353799025       22.3872387166       19.0504104203
H    1.0       16.1171793648       23.8676189226       18.6607373778
O    8.0       14.5846367234       24.0969428851       20.0491544201
H    1.0       14.0484020794       23.5179556182       20.6290241355
C    6.0       23.4990297771       22.5945200617       20.4494479122
H    1.0       24.5413240279       22.6880231844       20.1189705402
O    8.0       23.2051512359       21.2471049995       20.8812444736
C    6.0       23.1801270471       23.6059825341       21.5857840108
H    1.0       23.3407101347       24.6110720165       21.1744027040
O    8.0       24.0346360492       23.4276757919       22.7258275814
H    1.0       23.8233928775       22.5380634312       23.1048875093
C    6.0       21.6995242675       23.5005815401       22.0206801671
H    1.0       21.5745165408       22.5282080671       22.5057569719
O    8.0       21.4103009562       24.5449286799       22.9569601903
H    1.0       22.2042577917       24.5938804551       23.5363637162
C    6.0       20.7258307766       23.5608427012       20.8118460866
H    1.0       20.6388019350       24.6023631460       20.4770987479
C    6.0       21.1964051202       22.6862629097       19.6183214177
H    1.0       21.0407428827       21.6364875780       19.8872420745
O    8.0       22.6056640240       22.9028228224       19.3573811795
C    6.0       20.3985745416       22.9330247406       18.3138997152
H    1.0       19.3966557174       22.4987080052       18.4297513544
H    1.0       20.8933891765       22.3917215728       17.4966309593
O    8.0       20.2854579453       24.3227812958       17.9845835770
H    1.0       19.6246638667       24.7183119548       18.5928831236
C    6.0       24.9186444862       17.7189453524       22.2463542533
H    1.0       25.5717639191       16.9386734920       22.6579079846
O    8.0       23.7329385148       17.1579955815       21.6433955349
C    6.0       24.5085318476       18.7265820086       23.3542647924
H    1.0       25.4280165933       19.1957074587       23.7282359544
O    8.0       23.8230454293       18.0904207484       24.4442763246
H    1.0       23.9846781063       17.1190498719       24.3679408786
C    6.0       23.6060109077       19.8265585168       22.7605831818
H    1.0       22.6944925742       19.3312304027       22.4163246131
O    8.0       23.2764997187       20.7815001530       23.7735689804
H    1.0       23.2439886652       20.2501034492       24.6033652255
C    6.0       24.2609816428       20.5153791725       21.5405783452
H    1.0       25.0656987683       21.1734653222       21.8933308169
C    6.0       24.8303267769       19.4784554619       20.5292679401
H    1.0       23.9834400007       18.9929967223       20.0268621767
O    8.0       25.6112452643       18.4687168343       21.2238339860
C    6.0       25.7149255225       20.1094098216       19.4276138322
H    1.0       25.0681422695       20.6731583144       18.7418319285
H    1.0       26.1800474716       19.3015984423       18.8468217494
O    8.0       26.7195043089       20.9755412655       19.9700418047
H    1.0       27.2929164999       21.2685317722       19.2283819314
C    6.0       21.4520642091       13.7355692923       21.5414966549
H    1.0       21.0378589334       12.7220489394       21.4640496673
O    8.0       20.4096833403       14.7281122581       21.6561485559
C    6.0       22.3501600241       13.8321234150       22.7954042689
H    1.0       23.1664622230       13.1078548974       22.6751419167
O    8.0       21.5938969595       13.5082684170       23.9727760512
H    1.0       20.6549815367       13.7503524142       23.7831429652
C    6.0       22.9733695036       15.2410916815       22.9268439662
H    1.0       22.1622436724       15.9358987848       23.1719960575
O    8.0       23.9316915743       15.2234402009       23.9897258592
H    1.0       23.5062485066       14.6951636828       24.7033356827
C    6.0       23.6360622523       15.7184488555       21.6046849581
H    1.0       24.6222581148       15.2480831588       21.5032126263
C    6.0       22.7836707492       15.3968706647       20.3453876572
H    1.0       21.9406258055       16.0942356790       20.3339613639
O    8.0       22.2641639486       14.0451656098       20.3912382499
C    6.0       23.5444343469       15.5956974634       19.0113995465
H    1.0       23.7142531999       16.6703558259       18.8607683960
H    1.0       22.9030257470       15.2505221508       18.1896215170
O    8.0       24.7953051340       14.8985470113       18.9798774989
H    1.0       25.4310218182       15.4017086976       19.5322227641
N    7.0       20.2861452757       20.5005880043       23.4865245679
H    1.0       19.8273217378       21.3801771922       23.2035042440
H    1.0       21.2429257363       20.4993615214       23.1092934023
H    1.0       20.3788411936       20.5533599383       24.5057724534
C    6.0       19.4971245432       19.2801039467       23.0853141105
H    1.0       18.5221333107       19.3895220522       23.5713161686
C    6.0       20.1474569307       18.0078742545       23.6504498643
H    1.0       21.1798130961       17.8985083625       23.3045660025
H    1.0       19.5887032104       17.1141871259       23.3524278999
H    1.0       20.1672455086       18.0385835071       24.7466725095
C    6.0       19.2269998592       19.1744482716       21.5613518537
H    1.0       18.4778029078       18.3906934945       21.4039037723
H    1.0       18.7654066476       20.1011296067       21.2023045572
C    6.0       20.4583746596       18.8685804459       20.6797017655
H    1.0       20.8856804752       17.8978013671       20.9560829423
H    1.0       21.2340436286       19.6193649397       20.8522305027
C    6.0       20.0970672526       18.8676733838       19.1785129988
H    1.0       19.3118789608       18.1358761082       18.9543664047
H    1.0       20.9761737252       18.6229335083       18.5683877388
H    1.0       19.7329417807       19.8527851809       18.8610025521
 $end
