$$$$
! Edit this basic GAMESS input file as needed.
! Conformer was generated by a VeraChem VCPack run 
! and contains    148 atoms.
!
 $contrl scftyp=rhf runtyp=optimize nzvar=0
  maxit=200 icharg=0 $end
 $system mwords=50 $end
 $basis gbasis=pm3 $end
 $statpt nstep=200 $end
 $guess guess=huckel $end
 $data
FE Rank=1      G=509.803           E=316.831           -TS=192.972              
C1
C    6.0       16.2377954153       15.2193547068       21.8785303963
H    1.0       15.1813137177       15.0408562181       22.1156185771
O    8.0       16.4963761733       16.6090422257       21.5983313245
C    6.0       17.1323913460       14.7763156349       23.0639803843
H    1.0       16.9794181710       13.6980906801       23.2027703123
O    8.0       16.7749474157       15.4569498197       24.2769072296
H    1.0       16.2835613383       16.2769049398       24.0205507795
C    6.0       18.6264372127       15.0027078833       22.7394097613
H    1.0       18.7960132501       16.0836351479       22.6522749528
O    8.0       19.4176358800       14.4731849072       23.8074308756
H    1.0       18.9768523588       14.7968030534       24.6252270873
C    6.0       19.0137057891       14.3338696196       21.3957208576
H    1.0       19.0682866031       13.2473155154       21.5452100361
C    6.0       17.9985963304       14.6668559632       20.2641935747
H    1.0       18.1253338783       15.7242371495       20.0001465263
O    8.0       16.6362692731       14.4548881075       20.7208022555
C    6.0       18.2187666451       13.8438621022       18.9728210740
H    1.0       19.1418878203       14.1936567881       18.4907832443
H    1.0       17.3912715033       14.0500177737       18.2808496532
O    8.0       18.3106741292       12.4381911306       19.2370247899
H    1.0       18.3707951994       11.9758567417       18.3728095847
C    6.0       14.7338117758       20.3324387126       21.1816220974
H    1.0       14.0569506688       21.1846831516       21.0392984312
O    8.0       16.1087901384       20.7508540816       21.2711434136
C    6.0       14.3847653932       19.5979652912       22.4970280329
H    1.0       13.3574166786       19.2218793331       22.4061338913
O    8.0       14.4639768507       20.5000459392       23.6121350348
H    1.0       15.1260830939       21.1943797373       23.3721122620
C    6.0       15.3231556166       18.3874382070       22.7100028446
H    1.0       16.3395788527       18.7682435269       22.8796376831
O    8.0       14.8840213369       17.6506776511       23.8541264644
H    1.0       14.6895475008       18.3346188074       24.5342177046
C    6.0       15.3501052449       17.4706733936       21.4609623182
H    1.0       14.4101852154       16.9060964765       21.4141324692
C    6.0       15.5346391638       18.2696939827       20.1393443384
H    1.0       16.5588446862       18.6559818058       20.1163991461
O    8.0       14.6157781224       19.3917953000       20.0917430045
C    6.0       15.3514576663       17.4141005627       18.8615206881
H    1.0       16.2281637285       16.7631877669       18.7472176973
H    1.0       15.3309611560       18.0851515657       17.9924969591
O    8.0       14.1636268918       16.6146854505       18.8946005891
H    1.0       14.3603315585       15.8206213008       19.4367497408
C    6.0       18.6573699634       23.9242012902       20.3984683219
H    1.0       19.1148015143       24.8474787337       20.0203997568
O    8.0       19.6438462546       23.0486372301       20.9820458460
C    6.0       17.5433111658       24.2292579497       21.4389318345
H    1.0       16.7693790562       24.8071100855       20.9172002117
O    8.0       18.0303992857       25.0089148576       22.5408665360
H    1.0       18.7099933661       24.4581793573       23.0060632111
C    6.0       16.8927209849       22.9151895795       21.9396973409
H    1.0       17.6490499143       22.3428029556       22.4961542106
O    8.0       15.7854956138       23.2183210161       22.7953194668
H    1.0       16.1137502403       23.9176894062       23.4030651039
C    6.0       16.4104164250       22.0545559158       20.7457104453
H    1.0       15.5309811558       22.5365927277       20.2989199695
C    6.0       17.5103457999       21.8904475250       19.6625351477
H    1.0       18.3135678824       21.2843760031       20.0937149402
O    8.0       18.0331173771       23.1981817623       19.3141096952
C    6.0       17.0539623323       21.1671326476       18.3682731746
H    1.0       17.2216822304       20.0901370305       18.4944217496
H    1.0       17.6995514754       21.4910462578       17.5411310234
O    8.0       15.6790716435       21.4008908833       18.0410284160
H    1.0       15.1424094530       20.8196910300       18.6283552424
C    6.0       23.4363235549       22.6577591839       22.4990024300
H    1.0       24.4456032577       22.7586619757       22.9186296334
O    8.0       23.1650324511       21.2981481082       22.1011269433
C    6.0       22.3847837071       23.1137571245       23.5414309186
H    1.0       22.5388850120       24.1871767986       23.7098271729
O    8.0       22.5606240658       22.4251733576       24.7892759016
H    1.0       22.2370616301       21.4910365571       24.6728821103
C    6.0       20.9610034168       22.9234960766       22.9696471556
H    1.0       20.8195554481       21.8543414880       22.7890987735
O    8.0       19.9707952328       23.3791111492       23.8982188486
H    1.0       19.8102727835       22.6006340970       24.4970913068
C    6.0       20.7983398038       23.6442668928       21.6081040539
H    1.0       20.6714704522       24.7208171595       21.7824385523
C    6.0       21.9952277947       23.3833660425       20.6473822305
H    1.0       21.8840087558       22.3592921219       20.2741106271
O    8.0       23.2737217766       23.4938924325       21.3315898274
C    6.0       22.0125361861       24.3165353684       19.4136386679
H    1.0       21.1755052996       24.0419710114       18.7574928734
H    1.0       22.9389669865       24.1390975507       18.8509346811
O    8.0       21.9091045727       25.6972597745       19.7818489478
H    1.0       22.0062033302       26.2323000522       18.9640078276
C    6.0       25.1033173785       17.6828896579       21.3623502664
H    1.0       25.8386791325       16.9140152412       21.0935055914
O    8.0       23.8192472873       17.0985250949       21.6578389711
C    6.0       25.5788916736       18.4307769113       22.6313776089
H    1.0       26.5681800370       18.8521747077       22.4104302282
O    8.0       25.6902032367       17.5103172455       23.7286867859
H    1.0       24.9313014854       16.8844144657       23.6435575182
C    6.0       24.6359777815       19.6039642653       23.0009512559
H    1.0       23.6912193107       19.1875043440       23.3792948644
O    8.0       25.2701808871       20.3907384028       24.0145284438
H    1.0       25.4596494254       19.7663915723       24.7476668785
C    6.0       24.3130249068       20.4918614808       21.7710215682
H    1.0       25.1915822776       21.1086383002       21.5408860650
C    6.0       23.9394099943       19.6519988150       20.5183641606
H    1.0       22.9809959863       19.1570390586       20.7142341546
O    8.0       24.9540250801       18.6427752703       20.2946901419
C    6.0       23.7667060945       20.4782225649       19.2159561534
H    1.0       22.7118463715       20.7644879461       19.1241409546
H    1.0       23.9904986406       19.8326449523       18.3565071470
O    8.0       24.5919601233       21.6495837532       19.1723757917
H    1.0       24.2835693085       22.2550750264       19.8858215103
C    6.0       21.2984388378       13.9712213989       20.5435025692
H    1.0       20.8558503344       13.0513356117       20.1404267958
O    8.0       20.2853965601       14.8880646038       21.0041785326
C    6.0       22.2785789841       13.6626975237       21.7060459812
H    1.0       23.0831560806       13.0407134198       21.2926776550
O    8.0       21.6368470453       12.9420203701       22.7686669530
H    1.0       20.8929015436       13.5089505820       23.0955072197
C    6.0       22.9163045354       14.9695001067       22.2394981667
H    1.0       22.1234541692       15.5755184321       22.7005576002
O    8.0       23.9127226637       14.6483363746       23.2168266596
H    1.0       23.4931579087       13.9792511861       23.8017359973
C    6.0       23.5546457949       15.7968260633       21.0939688418
H    1.0       24.4770060146       15.2891736796       20.7831462095
C    6.0       22.5965430219       15.9422398760       19.8739319530
H    1.0       21.7738795598       16.5989761706       20.1717835367
O    8.0       22.0631158835       14.6414155063       19.5188080138
C    6.0       23.2171019011       16.5618184525       18.5965562489
H    1.0       23.1069360619       17.6510522257       18.6483306427
H    1.0       22.6300396980       16.2296691230       17.7298020977
O    8.0       24.5960871094       16.2241194214       18.4132414332
H    1.0       25.1167329040       16.9223522098       18.8695156343
C    6.0       20.2212904722       19.8942703927       24.4570658579
O    8.0       21.4071681985       19.8678849166       24.7226551850
O    8.0       19.4658771407       20.7587156191       24.8589819229
C    6.0       19.7091899471       18.9194537057       23.4029425675
H    1.0       18.6306851514       18.7881391894       23.5457962268
H    1.0       20.1849671721       17.9491384627       23.5880629263
C    6.0       20.0110991111       19.3979992054       21.9617256495
H    1.0       19.4993759776       20.3512210930       21.7829085441
H    1.0       21.0873247782       19.5862298061       21.8712694217
C    6.0       19.5736998145       18.3702699487       20.9041085446
H    1.0       18.4877615256       18.2508153368       20.9505949615
H    1.0       20.0060355187       17.3983927153       21.1564061577
C    6.0       20.0082483482       18.7726622212       19.4786268024
H    1.0       19.6315655057       19.7727542224       19.2387855687
H    1.0       21.1011710614       18.8349426611       19.4346870749
C    6.0       19.5110274480       17.7678805170       18.4207634496
H    1.0       18.4166607228       17.7020189009       18.4597334668
H    1.0       19.9010523212       16.7661762596       18.6456498118
C    6.0       19.9463779072       18.1808534114       17.0017436687
H    1.0       19.5358433326       19.1636595757       16.7361109352
H    1.0       19.5900428073       17.4532300989       16.2613395406
H    1.0       21.0398220170       18.2346566410       16.9252178892
 $end
