$$$$
! Edit this basic GAMESS input file as needed.
! Conformer was generated by a VeraChem VCPack run 
! and contains    143 atoms.
!
 $contrl scftyp=rhf runtyp=optimize nzvar=0
  maxit=200 icharg=0 $end
 $system mwords=50 $end
 $basis gbasis=pm3 $end
 $statpt nstep=200 $end
 $guess guess=huckel $end
 $data
FE Rank=1      G=513.099           E=333.442           -TS=179.657              
C1
C    6.0       16.1148541816       15.1518144740       21.6404881015
H    1.0       15.0305825073       15.0093398131       21.7352171610
O    8.0       16.4653401374       16.5450826042       21.5525969754
C    6.0       16.8328862809       14.5491971403       22.8712853318
H    1.0       16.6205193611       13.4721816813       22.8824576226
O    8.0       16.3422205951       15.1407106941       24.0852006249
H    1.0       15.9175962619       15.9991576230       23.8368463820
C    6.0       18.3634322443       14.7327271675       22.7573757325
H    1.0       18.5897553077       15.8048032058       22.8432497391
O    8.0       19.0036040746       14.0178661039       23.8200017382
H    1.0       18.5164128223       14.2842699423       24.6313566528
C    6.0       18.8941564669       14.2287233708       21.3923737844
H    1.0       18.9426764920       13.1320161455       21.4215810059
C    6.0       18.0280130365       14.6976077400       20.1865342997
H    1.0       18.2140484985       15.7681974190       20.0408606532
O    8.0       16.6162699492       14.4976615799       20.4571802922
C    6.0       18.3760474768       13.9925992195       18.8539978634
H    1.0       19.3544383656       14.3561889681       18.5116649263
H    1.0       17.6368624612       14.2883621736       18.0973604123
O    8.0       18.4068955496       12.5665554591       18.9907290723
H    1.0       18.5560325830       12.1846136346       18.0984382698
C    6.0       14.7551467783       20.2860415929       20.9798241520
H    1.0       14.0842652304       21.1197215542       20.7363176295
O    8.0       16.0559208484       20.7470519560       21.3936565401
C    6.0       14.1670382869       19.4626956868       22.1517870548
H    1.0       13.1946059554       19.0693108264       21.8281275961
O    8.0       13.9826651936       20.2936675822       23.3092591877
H    1.0       14.6817698225       20.9940089230       23.2771025917
C    6.0       15.0840695851       18.2631666993       22.4863315189
H    1.0       16.0321892686       18.6530396046       22.8820747528
O    8.0       14.4535147795       17.4363681367       23.4697515373
H    1.0       14.1014327713       18.0640629549       24.1403000394
C    6.0       15.3921774926       17.4380153928       21.2140241647
H    1.0       14.4827953788       16.9003240288       20.9148342644
C    6.0       15.8679598124       18.3270850814       20.0313781901
H    1.0       16.8451880533       18.7473413783       20.2898677051
O    8.0       14.9241463814       19.4121446346       19.8397801761
C    6.0       16.0573577045       17.5712440763       18.6901380683
H    1.0       17.0912928591       17.2071338071       18.6416197508
H    1.0       15.9345066536       18.2846699207       17.8644939752
O    8.0       15.1569761772       16.4688652958       18.5269093600
H    1.0       15.4796400275       15.7426520759       19.1090892700
C    6.0       18.5186706241       24.1194418707       21.1482715570
H    1.0       18.8971414427       25.1278691983       20.9386169412
O    8.0       19.5358573026       23.2810419712       21.7253708602
C    6.0       17.3583687615       24.1965666264       22.1727374250
H    1.0       16.5812882888       24.8449913279       21.7476248396
O    8.0       17.8270896158       24.7591063279       23.4090531938
H    1.0       18.7468852122       24.4197073889       23.5428506305
C    6.0       16.7378819094       22.7994576998       22.4183257377
H    1.0       17.4832365278       22.1776441286       22.9340674349
O    8.0       15.5661611410       22.9295457219       23.2309718741
H    1.0       15.8300453369       23.5271878074       23.9657574583
C    6.0       16.3794772047       22.1123151125       21.0796133065
H    1.0       15.5347887156       22.6461507257       20.6245549959
C    6.0       17.5841578231       22.1213152619       20.1021888863
H    1.0       18.3862005096       21.5221376473       20.5507612166
O    8.0       18.0382609924       23.4888555121       19.9397775633
C    6.0       17.2962042714       21.5178137484       18.7042280965
H    1.0       17.4447881439       20.4324509115       18.7614350548
H    1.0       18.0389286090       21.9033618930       17.9935877230
O    8.0       15.9732633059       21.7936313357       18.2317281773
H    1.0       15.3869064956       21.1029285022       18.6162993403
C    6.0       23.7102073525       22.8616570789       21.7463390246
H    1.0       24.7848704342       23.0677295626       21.6639249920
O    8.0       23.4641307914       21.4860958487       22.0810978058
C    6.0       23.0949597195       23.7206087230       22.8795479055
H    1.0       23.2920601925       24.7742031060       22.6430155322
O    8.0       23.7093848436       23.3891963158       24.1349692205
H    1.0       23.8602387855       22.4120794061       24.1160428722
C    6.0       21.5607675768       23.5252426117       22.9623865105
H    1.0       21.3603337870       22.4972262990       23.2974022080
O    8.0       21.0110198270       24.4624943374       23.8971770547
H    1.0       21.5762771199       24.3847846017       24.6972914643
C    6.0       20.9001847900       23.7174913174       21.5767203762
H    1.0       20.9636937569       24.7802724877       21.3090093906
C    6.0       21.6098870301       22.8590707218       20.4921769792
H    1.0       21.4613110033       21.8014214215       20.7467430857
O    8.0       23.0284798197       23.1655667217       20.5094319947
C    6.0       21.0946396851       23.0565002751       19.0436351071
H    1.0       20.2312745082       22.3981582232       18.8880947593
H    1.0       21.8748101743       22.7252816632       18.3458703463
O    8.0       20.7272252881       24.4090970977       18.7538931422
H    1.0       19.7641562036       24.4813785210       18.9387560061
C    6.0       25.1008390397       17.6535725708       21.5189396372
H    1.0       25.8168374288       16.8500596795       21.3044362709
O    8.0       23.7923114158       17.1235599552       21.7905374395
C    6.0       25.5577621858       18.4359439327       22.7760854666
H    1.0       26.5740406718       18.8041424378       22.5850109389
O    8.0       25.5739396180       17.5644589776       23.9172951449
H    1.0       24.8010138890       16.9593818829       23.8065062436
C    6.0       24.6492146237       19.6605094655       23.0457047009
H    1.0       23.6521139113       19.2968956180       23.3366449861
O    8.0       25.2165102292       20.4438940024       24.1034776781
H    1.0       25.4200307861       19.7992413700       24.8165339920
C    6.0       24.4907994695       20.5262256299       21.7728872422
H    1.0       25.4516645493       21.0097761403       21.5537855968
C    6.0       24.0503072093       19.6494389693       20.5667751580
H    1.0       23.0578997533       19.2352171599       20.7941207790
O    8.0       25.0064521711       18.5693912863       20.4068224158
C    6.0       23.9415832636       20.3822926591       19.2056723180
H    1.0       22.9309284066       20.7968762851       19.1160874541
H    1.0       24.0509098054       19.6447814215       18.3998498667
O    8.0       24.9118319644       21.4215449719       19.0424422842
H    1.0       24.5207460568       22.2306020639       19.4450333392
C    6.0       21.2320208154       13.9841741174       20.7031706308
H    1.0       20.8253025858       13.0564870306       20.2804491580
O    8.0       20.1940887743       14.8231514641       21.2378216867
C    6.0       22.2469681438       13.6802015756       21.8357366414
H    1.0       23.0406279332       13.0589155286       21.4010088251
O    8.0       21.6230704950       12.9587735761       22.9103534286
H    1.0       20.8054819532       13.4589877997       23.1632216922
C    6.0       22.9013229414       14.9814482846       22.3657364704
H    1.0       22.1299929915       15.5681853396       22.8847204905
O    8.0       23.9526533863       14.6398075980       23.2772516871
H    1.0       23.5582797594       13.9767465979       23.8856864165
C    6.0       23.4662222480       15.8451046365       21.2089007350
H    1.0       24.3533733459       15.3415350560       20.8035504157
C    6.0       22.4116910686       16.0363092387       20.0806180478
H    1.0       21.5869489115       16.6404384144       20.4816371826
O    8.0       21.9167627542       14.7347799740       19.6810436325
C    6.0       22.9144029034       16.7428454524       18.7982982028
H    1.0       22.7648848658       17.8213472222       18.9177421608
H    1.0       22.2780084381       16.4297768405       17.9601900245
O    8.0       24.2862725711       16.4675677361       18.4951837862
H    1.0       24.8208152208       17.0963453175       19.0328615234
C    6.0       20.5208032740       18.8626141404       22.3148994423
O    8.0       20.9925678798       17.9027215095       22.8903918414
O    8.0       20.8553860679       20.0140778136       22.5086022661
C    6.0       19.4150485724       18.6142867584       21.2995664894
H    1.0       18.5351137221       19.1499684428       21.6701552431
H    1.0       19.1738717490       17.5462212420       21.3044377420
C    6.0       19.7691955140       19.0905527468       19.9028592738
H    1.0       20.0035576448       20.1491550016       19.8231174273
C    6.0       19.8119181978       18.3081528902       18.8213802250
H    1.0       19.5940202092       17.2445479222       18.8980333047
C    6.0       20.1462908909       18.8041237599       17.4326211664
H    1.0       20.4626812202       19.8555670088       17.4619309424
H    1.0       20.9895582885       18.2320208976       17.0254206702
C    6.0       18.9396169607       18.6579761699       16.4853886140
H    1.0       18.0877648403       19.2527778607       16.8359483643
H    1.0       19.1978989695       19.0013235895       15.4753905851
H    1.0       18.6207978194       17.6098656726       16.4157486143
 $end
