$$$$
! Edit this basic GAMESS input file as needed.
! Conformer was generated by a VeraChem VCPack run 
! and contains    143 atoms.
!
 $contrl scftyp=rhf runtyp=optimize nzvar=0
  maxit=200 icharg=0 $end
 $system mwords=50 $end
 $basis gbasis=pm3 $end
 $statpt nstep=200 $end
 $guess guess=huckel $end
 $data
FE Rank=1      G=552.762           E=364.360           -TS=188.401              
C1
C    6.0       16.5572585782       15.2435573705       22.1724438134
H    1.0       15.5557433984       15.2188332832       22.6209698857
O    8.0       16.8477964649       16.5305390493       21.5943880330
C    6.0       17.6249696332       14.9274712813       23.2458788162
H    1.0       17.3931892688       13.9333829198       23.6502607844
O    8.0       17.6068748976       15.8986010145       24.3081018253
H    1.0       16.7247804510       16.3460373143       24.2727994436
C    6.0       19.0406286000       14.8899713938       22.6352822646
H    1.0       19.3130725227       15.9197055871       22.3918640681
O    8.0       19.9394323054       14.3901270693       23.6287766418
H    1.0       19.5921153770       14.7246705535       24.4852491049
C    6.0       19.1423609344       14.0765802914       21.3161738535
H    1.0       19.2917477801       13.0147482661       21.5510097962
C    6.0       17.9081035600       14.2540205874       20.3835458490
H    1.0       18.0085089019       15.2232440642       19.8786856891
O    8.0       16.6676233525       14.2498251150       21.1339308914
C    6.0       17.8192958523       13.1782172564       19.2753402556
H    1.0       18.6440843116       13.3388244537       18.5679530674
H    1.0       16.8816081981       13.3215157728       18.7216919395
O    8.0       17.8864830609       11.8488583843       19.8059152217
H    1.0       17.7544521084       11.2229931712       19.0603964325
C    6.0       14.8837591237       20.2147249534       21.1786336986
H    1.0       14.1091498061       20.9692238111       20.9932688395
O    8.0       16.1831490803       20.8128677635       21.3554093751
C    6.0       14.5505571179       19.4200732744       22.4687453266
H    1.0       13.5676453128       18.9541799236       22.3202226500
O    8.0       14.4866505014       20.2926714678       23.6082189184
H    1.0       15.1321012607       21.0281365873       23.4560456426
C    6.0       15.5783731247       18.2872578117       22.7111702979
H    1.0       16.5531123678       18.7447442843       22.9273220730
O    8.0       15.1515296006       17.5005082230       23.8289860835
H    1.0       14.8446562717       18.1580073831       24.4940952764
C    6.0       15.7203203155       17.4111529372       21.4397112217
H    1.0       14.7899259592       16.8483686172       21.2867237177
C    6.0       15.9939106988       18.2783093946       20.1833322218
H    1.0       16.9664229324       18.7696702752       20.3079893416
O    8.0       14.9611008932       19.2876992342       20.0725111810
C    6.0       16.0604033774       17.4685068254       18.8629938453
H    1.0       17.0744997952       17.0612599434       18.7585546482
H    1.0       15.9015749499       18.1545183949       18.0203761390
O    8.0       15.1105354952       16.3966408602       18.8148818838
H    1.0       15.3893150680       15.7294425967       19.4810110443
C    6.0       18.4197656952       24.2377253818       20.8490731759
H    1.0       18.8234602700       25.2351893472       20.6329170092
O    8.0       19.4636488167       23.2864439655       21.1588464491
C    6.0       17.4357918497       24.2861176491       22.0447805636
H    1.0       16.5852021134       24.9121764414       21.7449542716
O    8.0       18.0451389852       24.8585025186       23.2115034610
H    1.0       18.9366694191       24.4401195890       23.3203371726
C    6.0       16.8993185683       22.8664523081       22.3444089735
H    1.0       17.7402129125       22.2440883844       22.6794925888
O    8.0       15.9118376632       22.9329661009       23.3773179716
H    1.0       16.2872847031       23.5455550578       24.0491402236
C    6.0       16.2868551931       22.2225720847       21.0749420990
H    1.0       15.3070270805       22.6851475167       20.9002793344
C    6.0       17.1775019335       22.3944655243       19.8083242467
H    1.0       18.0367831455       21.7243180048       19.8928753765
O    8.0       17.6718945630       23.7523425202       19.7128960184
C    6.0       16.4656694529       22.0310987679       18.4822222990
H    1.0       16.3554778386       20.9398183905       18.4281445422
H    1.0       17.1149025754       22.3308289147       17.6488892460
O    8.0       15.1834912380       22.6564862849       18.3513494027
H    1.0       14.5209195203       22.0642339151       18.7660537829
C    6.0       23.5677120315       22.8134362375       21.4714483906
H    1.0       24.6593119511       22.9253076828       21.4968958404
O    8.0       23.1821210421       21.4224532673       21.4148552236
C    6.0       22.9053810409       23.4943407105       22.6987025031
H    1.0       23.1215578241       24.5682117648       22.6245378214
O    8.0       23.4327585645       23.0063146070       23.9408594838
H    1.0       23.2066235062       22.0437015725       23.9928360684
C    6.0       21.3688061793       23.3168900306       22.6462556007
H    1.0       21.1415323225       22.2484199041       22.7496556254
O    8.0       20.7762959889       24.0393836139       23.7285389447
H    1.0       21.3437648408       23.8437287414       24.5078301184
C    6.0       20.7982979135       23.8183319984       21.2934861046
H    1.0       20.8039288606       24.9162011503       21.3082934632
C    6.0       21.6129676333       23.3085651370       20.0703763560
H    1.0       21.3937372287       22.2424876523       19.9323260492
O    8.0       23.0359507608       23.4684102483       20.3000785857
C    6.0       21.2434324577       24.0276220603       18.7507734955
H    1.0       20.2322291739       23.7157460030       18.4559957634
H    1.0       21.9317083090       23.6920732405       17.9635415886
O    8.0       21.2915821181       25.4542862840       18.8808440301
H    1.0       21.0964085585       25.8402541565       17.9990895275
C    6.0       24.5210695000       17.5506747026       22.0853094642
H    1.0       25.0966510625       16.6680857963       22.3880121065
O    8.0       23.4620962514       17.2070677199       21.1660530269
C    6.0       23.8964114809       18.2407074146       23.3272024453
H    1.0       24.7205806010       18.4892754508       24.0085365707
O    8.0       22.9591233815       17.3771592263       24.0019930487
H    1.0       23.3087976555       16.4587391631       23.9045369027
C    6.0       23.1858966602       19.5516542052       22.9251538944
H    1.0       22.3203924037       19.2741604829       22.3208436151
O    8.0       22.7584009313       20.2249543094       24.1119804225
H    1.0       22.4560552757       19.5039007115       24.7079296545
C    6.0       24.0685071472       20.4749867782       22.0504278376
H    1.0       24.8127662033       20.9664419865       22.6910848369
C    6.0       24.7776364550       19.6918379234       20.9115556791
H    1.0       24.0200876532       19.4041631202       20.1706254944
O    8.0       25.4000500558       18.4954386623       21.4387437486
C    6.0       25.8550707633       20.5208580216       20.1717966576
H    1.0       25.3503486395       21.2860661852       19.5665301379
H    1.0       26.3919780654       19.8589679138       19.4791359728
O    8.0       26.7736315861       21.1465142982       21.0769097707
H    1.0       27.4695600542       21.5844197651       20.5396040310
C    6.0       21.3352691888       13.7815095753       20.1739209734
H    1.0       20.9580836750       12.8244165060       19.7915522585
O    8.0       20.2552506081       14.6454495560       20.5925603866
C    6.0       22.3560199371       13.5712074135       21.3230861078
H    1.0       23.2324476709       13.0792968870       20.8808538485
O    8.0       21.8493221161       12.7268014646       22.3660146448
H    1.0       21.1381379197       13.2381594060       22.8259435819
C    6.0       22.8186545174       14.9403262264       21.8789560666
H    1.0       21.9464407734       15.4563230015       22.2995806669
O    8.0       23.7859719111       14.7101384783       22.9098637036
H    1.0       23.4675446966       13.9075400003       23.3827141188
C    6.0       23.3965872675       15.8286713220       20.7368554951
H    1.0       24.3918201728       15.4543788803       20.4660687444
C    6.0       22.4864107341       15.8298624811       19.4732639895
H    1.0       21.6003924742       16.4381654447       19.6976155349
O    8.0       22.0584582699       14.4827897130       19.1389269135
C    6.0       23.1566397166       16.4623556879       18.2286724049
H    1.0       23.2423869092       17.5454796641       18.3894620046
H    1.0       22.4947606978       16.3146358054       17.3650371769
O    8.0       24.4501852628       15.9096459608       17.9554984205
H    1.0       25.0720694428       16.2640765484       18.6265827793
N    7.0       19.9520945238       17.7497978022       24.4328794930
H    1.0       20.8870957081       17.3436585295       24.2679738556
H    1.0       19.2439807180       17.0074480614       24.3130478905
H    1.0       19.9191293536       18.0270430113       25.4182894698
C    6.0       19.6906412877       18.9247624403       23.5137881682
H    1.0       20.4373724968       19.6907983821       23.7367339280
H    1.0       18.7037529710       19.3331720056       23.7477502008
C    6.0       19.7643506360       18.5577217943       22.0209288278
H    1.0       20.6552809326       17.9456758018       21.8263442652
H    1.0       18.8967192578       17.9495351557       21.7516303756
C    6.0       19.7874653021       19.8165345193       21.1359269680
H    1.0       20.6127170269       20.4729811639       21.4370223239
H    1.0       18.8643463657       20.3809919377       21.3072509095
C    6.0       19.9393339914       19.4671159739       19.6401831386
H    1.0       20.8929937802       18.9556213429       19.4553390754
H    1.0       19.9225710527       20.3755298172       19.0247503029
H    1.0       19.1294720762       18.8107560785       19.2987871238
 $end
