$$$$
! Edit this basic GAMESS input file as needed.
! Conformer was generated by a VeraChem VCPack run 
! and contains    148 atoms.
!
 $contrl scftyp=rhf runtyp=optimize nzvar=0
  maxit=200 icharg=0 $end
 $system mwords=50 $end
 $basis gbasis=pm3 $end
 $statpt nstep=200 $end
 $guess guess=huckel $end
 $data
FE Rank=1      G=578.665           E=384.747           -TS=193.917              
C1
C    6.0       16.0805743259       14.9666220632       21.5232553598
H    1.0       14.9867189366       14.8859789017       21.4882188222
O    8.0       16.5106463088       16.3334078561       21.6889690426
C    6.0       16.6227235163       14.1306175186       22.7051150517
H    1.0       16.3403052530       13.0843854672       22.5299477873
O    8.0       16.0445794469       14.5801398559       23.9410319423
H    1.0       15.8980791303       15.5549672347       23.8556164442
C    6.0       18.1641941274       14.2059057308       22.7674232492
H    1.0       18.4275446777       15.2279679439       23.0610841118
O    8.0       18.6522752778       13.2907774340       23.7545221495
H    1.0       18.1097059708       13.4669308631       24.5547284194
C    6.0       18.8282555708       13.9006073091       21.3985662451
H    1.0       18.8462391765       12.8112328370       21.2641209308
C    6.0       18.1056537911       14.5823672053       20.1939371201
H    1.0       18.3689056387       15.6474326263       20.2028014515
O    8.0       16.6650020496       14.4517853801       20.3120459630
C    6.0       18.5024500479       14.0189386841       18.8070685231
H    1.0       19.5016877111       14.3855629506       18.5440143800
H    1.0       17.8086617484       14.4214074168       18.0567230796
O    8.0       18.4837329861       12.5864304644       18.7782756591
H    1.0       18.6759983819       12.3044715059       17.8574823112
C    6.0       14.9929948361       20.2214863080       21.1804879509
H    1.0       14.2986441837       21.0437396713       20.9650545422
O    8.0       16.3203840969       20.7123729393       21.4570732287
C    6.0       14.4906735502       19.4389507572       22.4214084829
H    1.0       13.4737239575       19.0892688138       22.2010096291
O    8.0       14.4572259407       20.2928953329       23.5762760964
H    1.0       15.0588081172       21.0558570362       23.3886547178
C    6.0       15.3720447105       18.1986909973       22.6932650563
H    1.0       16.3642791894       18.5561228599       22.9918601015
O    8.0       14.7988033711       17.4180876745       23.7469347063
H    1.0       14.5556803347       18.0695370623       24.4420553274
C    6.0       15.5180618322       17.3415118366       21.4134732675
H    1.0       14.5397943491       16.9029152247       21.1764406057
C    6.0       15.9924650361       18.2058217491       20.2138392233
H    1.0       16.9936748504       18.5864765957       20.4451075011
O    8.0       15.0796999674       19.3218145303       20.0520044857
C    6.0       16.0960788599       17.4532015522       18.8627285964
H    1.0       17.0829945141       16.9774880582       18.8037606718
H    1.0       16.0481904029       18.1882979149       18.0482167194
O    8.0       15.0776745553       16.4619818369       18.6900795364
H    1.0       15.3886691833       15.6524290738       19.1572557232
C    6.0       18.5950237559       24.1941765870       20.8523300568
H    1.0       18.9218453879       25.1879175072       20.5223674455
O    8.0       19.6371160790       23.4985810172       21.5576071522
C    6.0       17.4056537442       24.3174065853       21.8401907048
H    1.0       16.6003341171       24.8587925433       21.3269784089
O    8.0       17.8072972012       25.0505824554       23.0091500544
H    1.0       18.7102101838       24.7283413399       23.2498516010
C    6.0       16.8678180729       22.9206655347       22.2447958355
H    1.0       17.6367276335       22.4163376913       22.8444963491
O    8.0       15.6719232842       23.0700586382       23.0169998275
H    1.0       15.8768715242       23.7712430121       23.6748151862
C    6.0       16.5853975882       22.0525903512       20.9960030821
H    1.0       15.7276830284       22.4828214935       20.4622438068
C    6.0       17.8049755712       22.0220928730       20.0376135148
H    1.0       18.6361608574       21.5258544725       20.5488108845
O    8.0       18.1808117908       23.3864625695       19.7268022067
C    6.0       17.5711583306       21.2524150702       18.7126498614
H    1.0       17.7799398457       20.1894432690       18.8876173088
H    1.0       18.3013690515       21.6032019036       17.9713704803
O    8.0       16.2416481939       21.3989070705       18.2011508331
H    1.0       15.6673702696       20.7864864122       18.7171872554
C    6.0       23.7023707733       22.9644793647       21.8456694617
H    1.0       24.7960214996       23.0482935632       21.8802246233
O    8.0       23.2665692403       21.5989710618       22.0038048898
C    6.0       23.0823414239       23.8102080459       22.9818620003
H    1.0       23.3833258039       24.8539730666       22.8237376193
O    8.0       23.5671242476       23.3595648900       24.2570834831
H    1.0       23.7316426029       22.3872191503       24.1752391487
C    6.0       21.5395618552       23.7426562796       22.9366735491
H    1.0       21.2512392881       22.7236557940       23.2196416797
O    8.0       20.9859518302       24.6679335886       23.8784348962
H    1.0       21.4891455745       24.5181786652       24.7092274582
C    6.0       20.9728869407       24.0371778583       21.5228053385
H    1.0       20.9746013854       25.1238602381       21.3698822073
C    6.0       21.7655774001       23.3236262338       20.3853715253
H    1.0       21.5010065581       22.2587827674       20.4117157350
O    8.0       23.1949491297       23.4606108968       20.5922396721
C    6.0       21.4545362288       23.8396623955       18.9583679641
H    1.0       20.4467100796       23.5193392037       18.6678592911
H    1.0       22.1522590285       23.3576718199       18.2607119515
O    8.0       21.5713037795       25.2638453162       18.8489217061
H    1.0       20.7629778899       25.6662228768       19.2277960638
C    6.0       24.8122125687       17.7087006974       21.5605149381
H    1.0       25.5258706068       16.8926976454       21.3879254344
O    8.0       23.4728945118       17.2027583185       21.7255711502
C    6.0       25.2121013267       18.4735645227       22.8490849411
H    1.0       26.2466562377       18.8168815518       22.7191337059
O    8.0       25.1427772047       17.6010036687       23.9881668401
H    1.0       24.5688937366       16.8401311142       23.7270768811
C    6.0       24.3219916378       19.7194454440       23.0678502006
H    1.0       23.3073319593       19.3705656556       23.2959558523
O    8.0       24.8294499980       20.4889973603       24.1632672035
H    1.0       25.0043605862       19.8330028688       24.8741828401
C    6.0       24.2717045582       20.5884404736       21.7884776230
H    1.0       25.2661439439       21.0244831242       21.6254599714
C    6.0       23.8796213951       19.7351149234       20.5525071323
H    1.0       22.8655355872       19.3516339468       20.7162171342
O    8.0       24.8048554515       18.6235632880       20.4417958465
C    6.0       23.8677310246       20.4960784413       19.2021786529
H    1.0       22.8898172257       20.9781327659       19.0817030111
H    1.0       23.9636562861       19.7656322590       18.3877638712
O    8.0       24.9021860893       21.4803349092       19.1014787329
H    1.0       24.5582025101       22.2967119142       19.5324632674
C    6.0       21.2145910455       13.7946389667       20.7788984447
H    1.0       20.8841313930       12.8350828550       20.3605395542
O    8.0       20.1599743945       14.4433435035       21.5130552779
C    6.0       22.3815235439       13.5798352407       21.7779514970
H    1.0       23.1917007197       13.0698223729       21.2408503595
O    8.0       21.9461363497       12.7653138633       22.8786365536
H    1.0       21.0519420722       13.0972330615       23.1352919753
C    6.0       22.9246965192       14.9337899985       22.3031690678
H    1.0       22.1488054214       15.3903121229       22.9298602231
O    8.0       24.1044762670       14.7129645315       23.0831129147
H    1.0       23.8832218830       13.9628982210       23.6786110045
C    6.0       23.2351187300       15.9062729216       21.1401908975
H    1.0       24.1127272820       15.5301860051       20.5978890313
C    6.0       22.0441457866       16.0149271691       20.1520207564
H    1.0       21.2036806653       16.4803029207       20.6752335594
O    8.0       21.6678974537       14.6821537747       19.7315873774
C    6.0       22.3178136200       16.8705394659       18.8889008657
H    1.0       22.1010120627       17.9193583024       19.1249835221
H    1.0       21.6108112425       16.5697694906       18.1043682235
O    8.0       23.6619098571       16.7551288183       18.4082745341
H    1.0       24.2285151168       17.2992344995       19.0036391996
C    6.0       19.8228511096       19.0026081425       21.8587261332
H    1.0       20.6580023372       18.7824871776       21.1830304862
H    1.0       18.9800339830       19.2844971981       21.2174744349
C    6.0       20.2124672893       20.2083833598       22.7347580516
H    1.0       21.2725804444       20.1418769965       22.9993907331
H    1.0       20.1237732282       21.1068135688       22.1211412080
C    6.0       19.3785366657       20.3835059735       24.0226822246
H    1.0       18.3288879797       20.1082443641       23.8552039651
H    1.0       19.3745020902       21.4505161736       24.2827936658
C    6.0       19.9845776340       19.6116402577       25.2226365294
H    1.0       21.0441533279       19.8812180182       25.3213380766
H    1.0       19.5063848667       19.9642652652       26.1458881696
C    6.0       19.8715575815       18.0703058209       25.1803028462
H    1.0       20.5160443978       17.6786094458       25.9799654817
C    6.0       20.3251284655       17.4046608438       23.8578196105
H    1.0       21.3713800818       17.6611945994       23.6484262199
H    1.0       20.3086948338       16.3198870280       24.0220590310
C    6.0       19.4391464104       17.7231584390       22.6264767658
H    1.0       19.4846402928       16.8882572694       21.9231621672
H    1.0       18.3897826976       17.7771200993       22.9255171489
O    8.0       18.5315117784       17.6976851820       25.4714738116
H    1.0       17.9930309862       18.1000282195       24.7650273477
 $end
