$$$$
! Edit this basic GAMESS input file as needed.
! Conformer was generated by a VeraChem VCPack run 
! and contains    142 atoms.
!
 $contrl scftyp=rhf runtyp=optimize nzvar=0
  maxit=200 icharg=0 $end
 $system mwords=50 $end
 $basis gbasis=pm3 $end
 $statpt nstep=200 $end
 $guess guess=huckel $end
 $data
FE Rank=1      G=493.067           E=311.169           -TS=181.898              
C1
C    6.0       16.2643620425       15.0828567691       21.8228787903
H    1.0       15.2020833818       14.9168066609       22.0432852494
O    8.0       16.5908570005       16.4849818229       21.7931129997
C    6.0       17.1336732509       14.4099063749       22.9099645029
H    1.0       16.9255025805       13.3325016237       22.8787729316
O    8.0       16.7939214661       14.9201666748       24.2093774498
H    1.0       16.4563797262       15.8405341453       24.0776317183
C    6.0       18.6389222991       14.6122475665       22.6190049276
H    1.0       18.8754792710       15.6751729721       22.7613186500
O    8.0       19.3988776308       13.8237921930       23.5405274995
H    1.0       19.0565786473       14.0744987532       24.4271802257
C    6.0       18.9999523255       14.2191676559       21.1621046105
H    1.0       19.0728880766       13.1252472453       21.1007277233
C    6.0       17.9807313000       14.7505895788       20.1130932322
H    1.0       18.1410828037       15.8318433766       20.0139460633
O    8.0       16.6163044244       14.5131999603       20.5460509795
C    6.0       18.1638024450       14.1348919883       18.7055350560
H    1.0       19.0952855745       14.5252716688       18.2733652762
H    1.0       17.3393711254       14.4743443899       18.0641765632
O    8.0       18.2084690625       12.7031249550       18.7442247838
H    1.0       18.2502536160       12.3809762890       17.8174789857
C    6.0       14.7890299037       20.2323245648       21.4983305515
H    1.0       14.0644998189       21.0478607475       21.3786269279
O    8.0       16.1330258098       20.7319564079       21.6343837739
C    6.0       14.4656272225       19.4317985855       22.7843152828
H    1.0       13.4469213976       19.0355684171       22.6826406680
O    8.0       14.5302186135       20.2910661227       23.9338377478
H    1.0       15.2162554209       20.9758994106       23.7381225196
C    6.0       15.4326859619       18.2348795944       22.9476312958
H    1.0       16.4401244215       18.6289112326       23.1403936441
O    8.0       15.0116803257       17.4243865691       24.0497239726
H    1.0       14.8208734526       18.0600682366       24.7752111862
C    6.0       15.4795090757       17.3867272580       21.6541528785
H    1.0       14.5240431993       16.8562477703       21.5481622678
C    6.0       15.7198341214       18.2613256434       20.3932834236
H    1.0       16.7237128496       18.6925340768       20.4660932355
O    8.0       14.7451154256       19.3350205159       20.3657335820
C    6.0       15.6625682753       17.4937466799       19.0468433664
H    1.0       16.6674355609       17.1153175145       18.8202694606
H    1.0       15.4037284023       18.2032098411       18.2496457891
O    8.0       14.7333503894       16.4041164764       19.0543516875
H    1.0       15.1723505088       15.6565893301       19.5229568785
C    6.0       18.5304961740       23.9955251727       20.6400792329
H    1.0       18.9097458391       24.9557406502       20.2674534174
O    8.0       19.5977247267       23.1322092116       21.0796444443
C    6.0       17.5632011306       24.2083313368       21.8333816811
H    1.0       16.7211351394       24.8103804638       21.4679847514
O    8.0       18.2043816306       24.9094922907       22.9100961378
H    1.0       19.0828420871       24.4769023050       23.0647211453
C    6.0       16.9997083456       22.8512223943       22.3221530751
H    1.0       17.8288164938       22.2571371874       22.7328194146
O    8.0       16.0132646685       23.0769918472       23.3356076790
H    1.0       16.4158573332       23.7401471072       23.9394909383
C    6.0       16.3711419592       22.0646901430       21.1462147417
H    1.0       15.4410379607       22.5708812494       20.8569160176
C    6.0       17.3227886259       21.9863413649       19.9187955011
H    1.0       18.1777979249       21.3537316941       20.1864131907
O    8.0       17.7972680720       23.3167180168       19.5975509313
C    6.0       16.6852278906       21.3853540079       18.6394485549
H    1.0       16.7577072910       20.2937037759       18.6888224571
H    1.0       17.2793494502       21.7032102205       17.7722817481
O    8.0       15.3140163748       21.7576793160       18.4618407835
H    1.0       14.7781475793       21.1108336096       18.9735781085
C    6.0       23.7174182732       22.8004210850       21.2809370380
H    1.0       24.8061172994       22.9388163542       21.2656571321
O    8.0       23.3671151183       21.4007542125       21.3281001468
C    6.0       23.0702506267       23.5594289057       22.4703235706
H    1.0       23.2408122369       24.6295048901       22.2936908300
O    8.0       23.6622676284       23.2107536749       23.7299894976
H    1.0       23.4337621602       22.2621521435       23.8986927491
C    6.0       21.5395647653       23.3255359725       22.4845684844
H    1.0       21.3445232791       22.2590377367       22.6672796214
O    8.0       20.9526245347       24.1151511748       23.5243998030
H    1.0       21.5175820567       23.9597504676       24.3137041133
C    6.0       20.9172849268       23.7095865711       21.1184013870
H    1.0       20.8871371191       24.8053459302       21.0554973656
C    6.0       21.7108845643       23.1345457926       19.9095413460
H    1.0       21.5215824441       22.0547395032       19.8589254458
O    8.0       23.1350947056       23.3545622658       20.0819426267
C    6.0       21.2829215195       23.7422501741       18.5521260555
H    1.0       20.2746164561       23.3801470269       18.3106304410
H    1.0       21.9592457717       23.3677534797       17.7721531667
O    8.0       21.2900372727       25.1756598623       18.5744907483
H    1.0       21.0670203016       25.4882362353       17.6706930747
C    6.0       24.6041421342       17.6095076339       22.3849418451
H    1.0       25.1078308012       16.7076439410       22.7510224027
O    8.0       23.4744987945       17.3007050258       21.5426550620
C    6.0       24.0947369869       18.4617562642       23.5733179012
H    1.0       24.9747961108       18.8123709434       24.1271633723
O    8.0       23.2777596435       17.6766354312       24.4557561045
H    1.0       22.3829614573       17.5815704312       24.0285576460
C    6.0       23.3413288938       19.7025187528       23.0322986516
H    1.0       22.4896307021       19.3523877619       22.4430204156
O    8.0       22.8563978868       20.5121799973       24.1079593542
H    1.0       21.9276644240       20.1866941012       24.2604947783
C    6.0       24.2392751547       20.5224393685       22.0713480043
H    1.0       24.9829863419       21.0745241644       22.6607309544
C    6.0       24.9492457487       19.6214775695       21.0177240209
H    1.0       24.1939511898       19.3079922011       20.2865715948
O    8.0       25.5201127598       18.4363859733       21.6330135874
C    6.0       26.0635365099       20.3555033347       20.2345076895
H    1.0       25.5930915884       21.0917588592       19.5687328690
H    1.0       26.5841238237       19.6265326712       19.5991417497
O    8.0       26.9933491058       21.0124680048       21.1050586551
H    1.0       27.7083380693       21.3897807388       20.5472723661
C    6.0       21.2756628394       14.0728497112       20.2326064726
H    1.0       20.8580147052       13.1821335529       19.7458428353
O    8.0       20.2526490805       14.8629307747       20.8685454410
C    6.0       22.3387083064       13.6905608379       21.2916990916
H    1.0       23.1518644574       13.1812331608       20.7582893809
O    8.0       21.8016574345       12.7955392692       22.2778120439
H    1.0       21.0153759486       13.2441703017       22.6815084863
C    6.0       22.9359986828       14.9533076267       21.9655612516
H    1.0       22.1546991383       15.4164235067       22.5856679975
O    8.0       24.0322064511       14.5344830359       22.7855043197
H    1.0       23.6787467104       13.7961597911       23.3286848956
C    6.0       23.4082610166       16.0051350470       20.9173148917
H    1.0       24.3838206432       15.7046640764       20.5158471742
C    6.0       22.3926453687       16.1873166086       19.7534002788
H    1.0       21.5297526805       16.7370188529       20.1495616712
O    8.0       21.9414950527       14.9033889648       19.2597530276
C    6.0       22.9360628143       17.0173073454       18.5644235666
H    1.0       22.9670700233       18.0727777693       18.8629742992
H    1.0       22.2225217688       16.9422019713       17.7331453336
O    8.0       24.2370674291       16.5941246720       18.1377028782
H    1.0       24.8740198353       16.8411917906       18.8413713116
C    6.0       20.1288030305       18.5407442181       23.0596199832
O    8.0       20.1915393764       19.5920514489       23.6689077139
O    8.0       20.7017456585       17.5289761549       23.4123953934
C    6.0       19.4393146266       18.5253905244       21.6998947119
H    1.0       18.4465281771       18.9652031237       21.8314384811
H    1.0       19.3002435243       17.4798967443       21.4062936799
C    6.0       20.2161728207       19.2842973545       20.5953677116
H    1.0       20.1777065308       20.3598569382       20.8104642505
H    1.0       21.2745661327       18.9986812675       20.6224034050
C    6.0       19.6508394780       18.9858681184       19.1911907383
H    1.0       18.5652615337       19.1211940936       19.1909385830
H    1.0       19.8338227892       17.9332127374       18.9369793290
C    6.0       20.2766979853       19.8945918653       18.1165433321
H    1.0       20.0193207255       20.9447298457       18.2997275971
H    1.0       19.9060574330       19.6255522433       17.1192057495
H    1.0       21.3702876672       19.8043871192       18.1100614536
 $end
