$$$$
! Edit this basic GAMESS input file as needed.
! Conformer was generated by a VeraChem VCPack run 
! and contains    155 atoms.
!
 $contrl scftyp=rhf runtyp=optimize nzvar=0
  maxit=200 icharg=0 $end
 $system mwords=50 $end
 $basis gbasis=pm3 $end
 $statpt nstep=200 $end
 $guess guess=huckel $end
 $data
FE Rank=1      G=568.882           E=360.270           -TS=208.611              
C1
C    6.0       16.2210858976       15.1560175831       21.1180195981
H    1.0       15.1618569976       14.9569623773       20.9115679692
O    8.0       16.4520351421       16.5449512121       21.4232386337
C    6.0       16.6766557847       14.3332036477       22.3495541811
H    1.0       16.5007099457       13.2730575414       22.1254325866
O    8.0       15.9154044994       14.7089601483       23.5091987110
H    1.0       15.6697322778       15.6611106794       23.3990457852
C    6.0       18.1889211384       14.5235354761       22.6151417309
H    1.0       18.3503556245       15.5598542419       22.9360766502
O    8.0       18.6155333335       13.6289504842       23.6475835936
H    1.0       17.9313987687       13.7047662387       24.3496654716
C    6.0       19.0119792729       14.2779488422       21.3288136152
H    1.0       18.9755228200       13.2055252003       21.0960265675
C    6.0       18.4535750871       15.0829858561       20.1242157169
H    1.0       18.5836253685       16.1481004665       20.3400497101
O    8.0       17.0393609142       14.7978341390       19.9816804771
C    6.0       19.1606278315       14.8144639415       18.7709946091
H    1.0       20.0367447071       15.4718677592       18.6997248722
H    1.0       18.4802104551       15.0995149032       17.9576778649
O    8.0       19.5734858411       13.4535671056       18.6099923069
H    1.0       20.4670623852       13.3787402191       19.0161106008
C    6.0       14.8387370818       20.3358865525       20.7744826272
H    1.0       14.1940697867       21.1799897831       20.4979354350
O    8.0       16.1682732610       20.7771432648       21.1197015672
C    6.0       14.2406130171       19.5403467658       21.9679789838
H    1.0       13.2615000026       19.1604114099       21.6484736068
O    8.0       14.0646813391       20.3672717034       23.1289817149
H    1.0       14.9526644200       20.7323010921       23.3685657000
C    6.0       15.1373920825       18.3262422920       22.3067352766
H    1.0       16.0989653149       18.7107801254       22.6635484395
O    8.0       14.5281496075       17.5325971259       23.3302374072
H    1.0       14.1713140493       18.1783169704       23.9801210684
C    6.0       15.4048175763       17.4603937080       21.0532047412
H    1.0       14.4736054672       16.9420322878       20.7894294048
C    6.0       15.8863499526       18.3203153992       19.8504927482
H    1.0       16.8788049842       18.7199656459       20.0884721469
O    8.0       14.9636397825       19.4222976978       19.6607797607
C    6.0       16.0289003496       17.5578312461       18.5090490995
H    1.0       17.0229845817       17.0945796343       18.4757286498
H    1.0       15.9899732667       18.2865993343       17.6884494712
O    8.0       15.0273295805       16.5526429876       18.3211208127
H    1.0       15.3889150476       15.7203515960       18.6998871749
C    6.0       18.5033701620       24.0516648900       21.9244276939
H    1.0       18.9635819333       25.0166154371       22.1734433685
O    8.0       19.4536090765       23.1314780692       21.3504683594
C    6.0       17.8872885781       23.3985089066       23.1863097089
H    1.0       17.0717877642       24.0475090076       23.5315217207
O    8.0       18.8557097381       23.2514556955       24.2370345177
H    1.0       19.7092003759       23.6212988335       23.9021936812
C    6.0       17.2946127962       22.0207311327       22.8230370252
H    1.0       18.1329504970       21.3857022328       22.5169238089
O    8.0       16.6611299553       21.4543820821       23.9757498625
H    1.0       17.1755360330       21.8233142993       24.7319288384
C    6.0       16.3008069999       22.1162363327       21.6367665116
H    1.0       15.3471667326       22.5120963544       22.0103284115
C    6.0       16.8295657928       23.0036775450       20.4697869921
H    1.0       17.5939387513       22.4277370213       19.9329326297
O    8.0       17.4319863647       24.2251407836       20.9737744039
C    6.0       15.7433105880       23.3847261003       19.4356933702
H    1.0       15.4822797346       22.4883894150       18.8570680567
H    1.0       16.1696764055       24.1127805166       18.7325518352
O    8.0       14.5690998994       23.9213915786       20.0573224693
H    1.0       13.9642364544       24.2211678563       19.3438442237
C    6.0       23.5043099917       22.6902254522       20.6149364861
H    1.0       24.5499986560       22.8036602340       20.3014212103
O    8.0       23.2086701893       21.3223154856       20.9732710767
C    6.0       23.1680924019       23.6376177164       21.8002967223
H    1.0       23.3068883652       24.6641814667       21.4367008015
O    8.0       24.0343822956       23.4299761352       22.9251657559
H    1.0       23.8692497557       22.5088652530       23.2496482446
C    6.0       21.6857808394       23.4821559341       22.2197399988
H    1.0       21.5472944556       22.4667850486       22.6170106637
O    8.0       21.3770422275       24.4454243476       23.2323592036
H    1.0       22.1655887798       24.4576780427       23.8212560207
C    6.0       20.7432913117       23.6603090667       21.0000363263
H    1.0       20.6900930804       24.7228188452       20.7301271946
C    6.0       21.2123849660       22.8377498289       19.7711466242
H    1.0       21.0433224274       21.7820074820       20.0049070634
O    8.0       22.6244103314       23.0528851917       19.5291802793
C    6.0       20.4272647302       23.1363292098       18.4699212218
H    1.0       19.4470108401       22.6464648432       18.5331227121
H    1.0       20.9625082246       22.6774280269       17.6279619949
O    8.0       20.2506265937       24.5382599619       18.2353542052
H    1.0       19.5711002437       24.8594313777       18.8666287761
C    6.0       24.9070490309       17.7066845370       22.0747086289
H    1.0       25.5652669187       16.8936289320       22.4070152296
O    8.0       23.6717849964       17.1984441466       21.5255953797
C    6.0       24.6029728228       18.6692312381       23.2539219410
H    1.0       25.5630827569       19.0885302762       23.5821773237
O    8.0       23.9842574639       17.9964449363       24.3615302337
H    1.0       24.0998959631       17.0260019827       24.2190916934
C    6.0       23.7047839692       19.8357014080       22.7902398966
H    1.0       22.7315005039       19.4151614808       22.5190482568
O    8.0       23.5431250760       20.7568270432       23.8720156430
H    1.0       23.3722228293       20.1854496932       24.6549464361
C    6.0       24.2846688598       20.5482656181       21.5435148109
H    1.0       25.1262471708       21.1794579868       21.8583683048
C    6.0       24.7560007870       19.5421108867       20.4539197636
H    1.0       23.8650114296       19.0971700864       19.9947867551
O    8.0       25.5549848992       18.4852420552       21.0460797713
C    6.0       25.5724741040       20.1997995677       19.3160223825
H    1.0       24.8911387744       20.8076159007       18.7052948650
H    1.0       25.9722051585       19.4077067735       18.6687202394
O    8.0       26.6362171794       21.0186981122       19.8171586795
H    1.0       27.1593318266       21.3326834868       19.0475659802
C    6.0       21.3928360509       13.7605990085       21.3901444987
H    1.0       20.9913470954       12.7446634530       21.2855778575
O    8.0       20.3497787256       14.7324126233       21.6045523107
C    6.0       22.3562452405       13.8162078328       22.5965084393
H    1.0       23.1759544821       13.1138062615       22.3963351771
O    8.0       21.6787623324       13.4242820806       23.8013295321
H    1.0       20.7323759991       13.6994720296       23.7076138205
C    6.0       22.9646969192       15.2279710475       22.7561836767
H    1.0       22.1604969002       15.9051522412       23.0691835157
O    8.0       23.9769358740       15.1719864046       23.7664042306
H    1.0       23.5935976289       14.6041444260       24.4736057171
C    6.0       23.5546291264       15.7629883878       21.4223716446
H    1.0       24.5292895516       15.2907344662       21.2459055432
C    6.0       22.6340658747       15.4955531044       20.1975417976
H    1.0       21.7846394317       16.1871687701       20.2570890455
O    8.0       22.1308709929       14.1365647467       20.2113747255
C    6.0       23.3368253750       15.7426204932       18.8390055527
H    1.0       23.5615245406       16.8129654338       18.7448502170
H    1.0       22.6374247778       15.4837569747       18.0330482794
O    8.0       24.5457400971       14.9873360958       18.6978997330
H    1.0       25.2319949040       15.4124976031       19.2546004767
C    6.0       21.9849876734       19.2793943571       16.4553820032
H    1.0       22.5780903082       20.1694885194       16.7035311737
H    1.0       22.6278852915       18.3968139662       16.5682457169
H    1.0       21.6950262610       19.3519071554       15.3991490614
C    6.0       20.7366926761       19.1770358253       17.3563382482
H    1.0       20.1452264714       18.2976825255       17.0655765605
H    1.0       20.0985528102       20.0570700611       17.1957702352
C    6.0       21.1255848049       19.0779406722       18.8454254783
H    1.0       21.7490776317       18.1910023488       18.9996877105
H    1.0       21.7451058590       19.9405969094       19.1175834216
C    6.0       19.8895136934       18.9977106802       19.7667607170
H    1.0       19.3109158323       18.1016584197       19.5127071275
H    1.0       19.2329826171       19.8609281056       19.5881414139
C    6.0       20.2904270801       18.9610259778       21.2580308743
H    1.0       21.0555201114       18.1896434557       21.4148141586
H    1.0       20.7407584648       19.9253830723       21.5306653595
C    6.0       19.0799907093       18.6797077529       22.1760283940
H    1.0       18.7372242214       17.6513730183       22.0252635508
H    1.0       18.2529316767       19.3271689166       21.8703618001
C    6.0       19.3692030801       18.9111871702       23.6747913428
H    1.0       19.8017266378       19.9099574641       23.7927202708
C    6.0       20.3664053487       17.8804795231       24.2284118089
H    1.0       19.9990119404       16.8550687179       24.0997443854
H    1.0       21.3351079045       17.9621864252       23.7256362695
H    1.0       20.5439495138       18.0473666971       25.2977979767
N    7.0       18.1025462043       18.9019178888       24.4848815501
H    1.0       17.4720182713       19.6665912069       24.1994556378
H    1.0       18.3018328729       19.0341871319       25.4804464011
H    1.0       17.5956294578       18.0177048987       24.3847427193
 $end
