$$$$
! Edit this basic GAMESS input file as needed.
! Conformer was generated by a VeraChem VCPack run 
! and contains    152 atoms.
!
 $contrl scftyp=rhf runtyp=optimize nzvar=0
  maxit=200 icharg=0 $end
 $system mwords=50 $end
 $basis gbasis=pm3 $end
 $statpt nstep=200 $end
 $guess guess=huckel $end
 $data
FE Rank=1      G=560.691           E=355.322           -TS=205.369              
C1
C    6.0       16.1834743280       15.1034587866       21.3382578679
H    1.0       15.1299030179       14.8377801772       21.1833964878
O    8.0       16.3391361686       16.5211412456       21.5545249899
C    6.0       16.7212913075       14.3760697793       22.5957042184
H    1.0       16.5926916325       13.2978443753       22.4339215322
O    8.0       15.9737997196       14.7757609891       23.7549281246
H    1.0       15.7041373273       15.7129218526       23.6043056345
C    6.0       18.2298129133       14.6508779465       22.8099946752
H    1.0       18.3499466496       15.7077018919       23.0720555559
O    8.0       18.7012133810       13.8315705440       23.8856391821
H    1.0       17.9924962231       13.8792285024       24.5669969773
C    6.0       19.0390346768       14.3880202012       21.5129008913
H    1.0       19.1013172866       13.3060003260       21.3387214873
C    6.0       18.3855706016       15.0665507307       20.2806336413
H    1.0       18.4685419384       16.1514453708       20.4139158576
O    8.0       16.9832980270       14.7099939627       20.2015026666
C    6.0       19.0760458927       14.7153684423       18.9376030722
H    1.0       19.9947965161       15.3106483320       18.8525949079
H    1.0       18.4183652482       15.0169106144       18.1119923179
O    8.0       19.3957070631       13.3241237782       18.8233107210
H    1.0       20.1393644083       13.1422821447       19.4382047041
C    6.0       14.8277774140       20.2447107087       20.5009030723
H    1.0       14.2398548917       21.0828215565       20.1049383975
O    8.0       16.1018757434       20.6863484612       21.0189758583
C    6.0       14.0577016684       19.5187807201       21.6334714607
H    1.0       13.1175901037       19.1485353781       21.2042662773
O    8.0       13.7594246151       20.4144285046       22.7162181798
H    1.0       14.6007603619       20.8771194427       22.9616019918
C    6.0       14.8597278161       18.2982489500       22.1474290520
H    1.0       15.7539386200       18.6767550632       22.6544339659
O    8.0       14.0639199445       17.5567281453       23.0773409514
H    1.0       13.6665580103       18.2312993770       23.6716772417
C    6.0       15.3163537096       17.3710656501       20.9913651198
H    1.0       14.4438075100       16.7993712180       20.6492710545
C    6.0       15.9258739100       18.1649605079       19.7988684191
H    1.0       16.8954228346       18.5514652643       20.1200586810
O    8.0       15.0676976138       19.2787440393       19.4561310133
C    6.0       16.1787265090       17.3480220752       18.5059227520
H    1.0       17.1928625087       16.9360188091       18.5459245798
H    1.0       16.1533963149       18.0348947613       17.6493240345
O    8.0       15.2380141603       16.2881488980       18.3080876397
H    1.0       15.5723950207       15.5155293436       18.8186897479
C    6.0       18.4250097090       24.1086362031       21.4655145992
H    1.0       18.8196985449       25.1311208401       21.5261855616
O    8.0       19.4891242040       23.1315613143       21.4234640155
C    6.0       17.4787278099       23.7983184688       22.6560739269
H    1.0       16.6180884819       24.4744283657       22.5690002255
O    8.0       18.1115339235       24.0264052747       23.9229935367
H    1.0       18.9160284409       23.4501498171       23.9588332502
C    6.0       16.9511585575       22.3466837835       22.5501406714
H    1.0       17.8085707144       21.6669968162       22.6329412430
O    8.0       16.0230173517       22.0916717596       23.6089803958
H    1.0       16.4360925473       22.4837299435       24.4106078152
C    6.0       16.2649592160       22.1123924164       21.1807345477
H    1.0       15.2982205829       22.6334144261       21.1924776207
C    6.0       17.1283572919       22.6278199585       19.9927850796
H    1.0       17.9789651725       21.9477933444       19.8726897022
O    8.0       17.6356122225       23.9589923653       20.2657750217
C    6.0       16.3673176802       22.6640363367       18.6454852198
H    1.0       16.2013127291       21.6322736046       18.3081656588
H    1.0       17.0039400987       23.1537728659       17.8964720080
O    8.0       15.1110877767       23.3448634608       18.7541751445
H    1.0       14.7216467044       23.3983134483       17.8542473690
C    6.0       23.5491655686       22.4994189884       21.9589611066
H    1.0       24.6196703357       22.5744251637       22.1870630543
O    8.0       23.2556492681       21.3303825942       21.1620773248
C    6.0       22.7154958354       22.4460963003       23.2666891398
H    1.0       22.9221413654       23.3680994543       23.8256557263
O    8.0       23.0500470612       21.3069384521       24.0793442986
H    1.0       23.9881238897       21.0752263918       23.8771807048
C    6.0       21.2103277856       22.3986635624       22.9389119975
H    1.0       21.0383769106       21.4479387003       22.4309655649
O    8.0       20.4712368972       22.4410456016       24.1615199246
H    1.0       20.9963793529       21.8839430705       24.7803638724
C    6.0       20.7667760137       23.5250653011       21.9739895522
H    1.0       20.7050323558       24.4673600147       22.5344410350
C    6.0       21.7425841814       23.6738968745       20.7719121477
H    1.0       21.5865323417       22.8196238166       20.0999945969
O    8.0       23.1213432684       23.6671093354       21.2238287360
C    6.0       21.4999911685       24.9587111404       19.9443747123
H    1.0       20.5507264785       24.8489149100       19.4024860469
H    1.0       22.2965384056       25.0480699084       19.1936068726
O    8.0       21.4554803417       26.1315456169       20.7670460399
H    1.0       21.3702843637       26.9090051850       20.1728909839
C    6.0       24.9965356081       17.6291877942       20.3760263881
H    1.0       25.6183291937       16.7913084679       20.0354963831
O    8.0       23.6948293067       17.1754015120       20.8053773792
C    6.0       25.6971658177       18.4282094107       21.5082437635
H    1.0       26.6144374123       18.8486477569       21.0754321581
O    8.0       26.0598271034       17.5988760538       22.6217019510
H    1.0       25.2145098379       17.3000113981       23.0416656897
C    6.0       24.8144390933       19.6113919816       21.9767684889
H    1.0       23.9107298339       19.1993190855       22.4452374279
O    8.0       25.5590799462       20.3731545836       22.9344179985
H    1.0       26.0488074337       19.7035883539       23.4649481439
C    6.0       24.3744120528       20.4998361045       20.7768166206
H    1.0       25.2265585944       21.1103709059       20.4524449527
C    6.0       23.8683199379       19.6503192215       19.5777770924
H    1.0       22.8963231022       19.2291670202       19.8576780538
O    8.0       24.7871640886       18.5639860389       19.2951171093
C    6.0       23.6427780038       20.4689053315       18.2826924600
H    1.0       22.7527989863       21.0984096899       18.4174889848
H    1.0       23.4240543751       19.7708960114       17.4637371022
O    8.0       24.7678330058       21.2881422945       17.9426855922
H    1.0       24.7864453788       22.0409541146       18.5716747401
C    6.0       21.3516410457       14.1529013258       22.2707406609
H    1.0       20.9144285462       13.2438849690       22.7031793983
O    8.0       20.3468274624       14.9793581833       21.6479176319
C    6.0       22.0664917159       14.9759831188       23.3719182795
H    1.0       22.8303231220       14.3286359759       23.8222102421
O    8.0       21.1428484903       15.4193104797       24.3840583765
H    1.0       20.3904504940       14.7777996744       24.3846725308
C    6.0       22.7598588283       16.2138488549       22.7706380929
H    1.0       21.9601886230       16.8820435978       22.4536406528
O    8.0       23.5413291428       16.8501885981       23.7868348221
H    1.0       23.0645817128       16.6640629055       24.6265992521
C    6.0       23.6074639723       15.9174475483       21.5093939597
H    1.0       24.5901167821       15.5342673144       21.8134948405
C    6.0       22.9133994024       14.9181253428       20.5400136855
H    1.0       22.1123351610       15.4570219772       20.0177765410
O    8.0       22.3314144243       13.8077225517       21.2690603151
C    6.0       23.8617222309       14.3552595425       19.4547629879
H    1.0       24.1023378448       15.1630088785       18.7504399425
H    1.0       23.3272387050       13.5790801429       18.8907614914
O    8.0       25.0691390047       13.8230659514       20.0135456366
H    1.0       25.5836565124       13.4180770361       19.2813777299
C    6.0       19.3020218724       19.2368229352       16.8983384200
H    1.0       18.8390237667       19.8658797241       16.1270185833
H    1.0       20.3707708631       19.1487178226       16.6632126646
H    1.0       18.8541333718       18.2371001881       16.8306814041
C    6.0       19.0915097593       19.8492598645       18.2983409794
H    1.0       18.0155150525       19.9595230130       18.4876716022
H    1.0       19.5261461083       20.8584549380       18.3228358811
C    6.0       19.7315368755       18.9802590437       19.4012825535
H    1.0       19.3075143181       17.9702565907       19.3609479251
H    1.0       20.8046989720       18.8740982664       19.2010259332
C    6.0       19.5206611924       19.5765919181       20.8115259213
H    1.0       18.4521554771       19.6659803185       21.0186090564
H    1.0       19.9240288057       20.5945702183       20.8310692503
C    6.0       20.2039003264       18.7169356444       21.9000234698
H    1.0       19.9311808898       17.6632269490       21.7603444989
H    1.0       21.2872300557       18.7930948510       21.7401557158
C    6.0       19.8885436694       19.1253200279       23.3592571768
H    1.0       20.0602849510       20.1963446437       23.4663331603
C    6.0       18.4258487917       18.8546256834       23.7439570434
H    1.0       18.1593052812       17.8022825749       23.6066225808
H    1.0       17.7431206417       19.4615865600       23.1432045379
H    1.0       18.2477927304       19.1163357293       24.7941022340
N    7.0       20.8220768987       18.4577718054       24.3332128061
H    1.0       21.7996867689       18.7136150331       24.1471560961
H    1.0       20.6144423911       18.7368998061       25.2959132185
H    1.0       20.7551702870       17.4283246206       24.2901620320
 $end
