$$$$
! Edit this basic GAMESS input file as needed.
! Conformer was generated by a VeraChem VCPack run 
! and contains     25 atoms.
!
 $contrl scftyp=rhf runtyp=optimize nzvar=0
  maxit=200 icharg=0 $end
 $system mwords=50 $end
 $basis gbasis=pm3 $end
 $statpt nstep=200 $end
 $guess guess=huckel $end
 $data
VM2 Rank=1      G=-7.962            E=-32.361           -TS=24.399              
C1
C    6.0       20.1600929375       19.3401444968       27.8084374504
O    8.0       21.2157055408       19.7049891687       28.2871760149
O    8.0       19.0777426013       19.5690069007       28.3111914074
C    6.0       20.1941384294       18.5724032295       26.4918164013
H    1.0       19.3547163079       17.8667453130       26.4872180760
H    1.0       21.1163698027       17.9795468862       26.4669631834
C    6.0       20.1205550444       19.4990601093       25.2533048894
H    1.0       19.1984374018       20.0949548805       25.3002188442
H    1.0       20.9599710542       20.2077653841       25.2799462248
C    6.0       20.1566173319       18.6986253814       23.9334491797
H    1.0       19.3170894787       17.9902131281       23.9105737468
H    1.0       21.0790105184       18.1032283735       23.8901606075
C    6.0       20.0828984499       19.6249649218       22.7005976415
H    1.0       19.1605705543       20.2204143987       22.7436745021
H    1.0       20.9223486697       20.3334246107       22.7232259846
C    6.0       20.1188703176       18.8252100851       21.3803798507
H    1.0       19.2795136840       18.1166541271       21.3574443842
H    1.0       21.0411501697       18.2297183123       21.3369531853
C    6.0       20.0451139401       19.7509737487       20.1479509171
H    1.0       19.1227620140       20.3469889404       20.1869748529
H    1.0       20.8843904858       20.4600310166       20.1664599353
C    6.0       20.0812654071       18.9486219580       18.8316962475
H    1.0       19.2340021982       18.2529069493       18.7723324507
H    1.0       20.0279588003       19.6221056110       17.9664415199
H    1.0       21.0088874875       18.3668081261       18.7516441197
 $end
$$$$
! Edit this basic GAMESS input file as needed.
! Conformer was generated by a VeraChem VCPack run 
! and contains     25 atoms.
!
 $contrl scftyp=rhf runtyp=optimize nzvar=0
  maxit=200 icharg=0 $end
 $system mwords=50 $end
 $basis gbasis=pm3 $end
 $statpt nstep=200 $end
 $guess guess=huckel $end
 $data
VM2 Rank=2      G=-7.105            E=-31.612           -TS=24.508              
C1
C    6.0       20.1314435453       19.7074674077       27.5207793360
O    8.0       20.9464606057       19.3333783651       28.3408590159
O    8.0       19.0292429345       20.1289376947       27.8109611714
C    6.0       20.5033908209       19.6201611211       26.0449523121
H    1.0       21.5849716472       19.7776664476       25.9569527997
H    1.0       20.0101023538       20.4506767163       25.5276257077
C    6.0       20.1061417435       18.2641056389       25.4058813979
H    1.0       20.5415576482       17.4515296785       26.0038772720
H    1.0       19.0158654843       18.1385735686       25.4596397202
C    6.0       20.5787559802       18.1093758977       23.9407565081
H    1.0       20.3594583578       17.0848380079       23.6102648241
H    1.0       21.6702440533       18.2246297344       23.8920791532
C    6.0       19.9055855741       19.1060441879       22.9690969337
H    1.0       18.8136456041       19.0255232107       23.0589178515
H    1.0       20.1753313379       20.1347699084       23.2408839383
C    6.0       20.3226139813       18.8453717557       21.5054370259
H    1.0       20.0497806218       17.8193889803       21.2226450602
H    1.0       21.4149826400       18.9218676842       21.4162055223
C    6.0       19.6553808564       19.8414957960       20.5338364785
H    1.0       18.5624234607       19.7668452011       20.6195632572
H    1.0       19.9279181755       20.8691055578       20.8117112658
C    6.0       20.0739839581       19.5776621353       19.0734398204
H    1.0       19.7847776909       18.5664499518       18.7584819978
H    1.0       19.5907396932       20.2944988126       18.3969057486
H    1.0       21.1606612773       19.6768604943       18.9522700023
 $end
$$$$
! Edit this basic GAMESS input file as needed.
! Conformer was generated by a VeraChem VCPack run 
! and contains     25 atoms.
!
 $contrl scftyp=rhf runtyp=optimize nzvar=0
  maxit=200 icharg=0 $end
 $system mwords=50 $end
 $basis gbasis=pm3 $end
 $statpt nstep=200 $end
 $guess guess=huckel $end
 $data
VM2 Rank=3      G=-7.054            E=-31.562           -TS=24.508              
C1
C    6.0       20.1303652716       19.1678641708       27.7050792239
O    8.0       21.2275826249       19.2434879752       28.2218274161
O    8.0       19.2270464370       18.4812056803       28.1399881351
C    6.0       19.8805946068       19.9605912894       26.4270781859
H    1.0       20.4729169344       20.8821645078       26.4766194555
H    1.0       18.8242378662       20.2545328421       26.4095504304
C    6.0       20.2355387259       19.1649587510       25.1468428523
H    1.0       21.2925098567       18.8668831195       25.1860777222
H    1.0       19.6439604989       18.2392938888       25.1191768288
C    6.0       19.9740613708       19.9883896704       23.8671066281
H    1.0       20.5657021781       20.9136251787       23.8989728302
H    1.0       18.9168883928       20.2854478485       23.8310731995
C    6.0       20.3287747085       19.1926389054       22.5923911661
H    1.0       21.3865634387       18.8981490020       22.6262259706
H    1.0       19.7384390934       18.2673787267       22.5701802291
C    6.0       20.0630860041       20.0172443924       21.3116591582
H    1.0       20.6050394260       20.9703042243       21.3814484365
H    1.0       18.9958462075       20.2701809106       21.2489737430
C    6.0       20.5009374323       19.2974170024       20.0148493233
H    1.0       20.3884879027       19.9920786734       19.1710224590
H    1.0       21.5696664945       19.0485173771       20.0713286407
C    6.0       19.6850128181       18.0202021627       19.7191779109
H    1.0       18.6097759243       18.2392834213       19.6876679419
H    1.0       19.9723384250       17.5975382288       18.7477308970
H    1.0       19.8574926410       17.2492430720       20.4804784276
 $end
$$$$
! Edit this basic GAMESS input file as needed.
! Conformer was generated by a VeraChem VCPack run 
! and contains     25 atoms.
!
 $contrl scftyp=rhf runtyp=optimize nzvar=0
  maxit=200 icharg=0 $end
 $system mwords=50 $end
 $basis gbasis=pm3 $end
 $statpt nstep=200 $end
 $guess guess=huckel $end
 $data
VM2 Rank=4      G=-7.045            E=-31.544           -TS=24.499              
C1
C    6.0       20.0216467333       19.1704172356       27.6698412768
O    8.0       21.0606258336       19.2683859120       28.2923876113
O    8.0       18.9410957768       19.5174569907       28.1041324874
C    6.0       20.0802531507       18.6011142764       26.2568527123
H    1.0       19.1421000679       18.0662942595       26.0659780028
H    1.0       20.8886033404       17.8609254850       26.2210549323
C    6.0       20.3041000783       19.6898389710       25.1785681673
H    1.0       19.4935732865       20.4296559666       25.2359624991
H    1.0       21.2399770430       20.2246487839       25.3922348076
C    6.0       20.3598255557       19.0885923698       23.7573693676
H    1.0       19.4239266702       18.5505881084       23.5582874028
H    1.0       21.1725796830       18.3514937834       23.7023693360
C    6.0       20.5792106493       20.1801360526       22.6845060669
H    1.0       19.7400646670       20.8890145640       22.7000432991
H    1.0       21.4780326681       20.7572350856       22.9413661362
C    6.0       20.7527786144       19.6144173572       21.2548132772
H    1.0       21.5947155586       18.9088965161       21.2379427236
H    1.0       21.0268503731       20.4407227034       20.5847342153
C    6.0       19.4835216319       18.9241204935       20.7061508181
H    1.0       19.2363848443       18.0458695647       21.3168384900
H    1.0       18.6293448847       19.6119851309       20.7727548303
C    6.0       19.6699419759       18.4795203411       19.2413782151
H    1.0       20.5017336118       17.7688030260       19.1498447123
H    1.0       18.7619875270       17.9885839841       18.8676662757
H    1.0       19.8810041555       19.3399349845       18.5929298503
 $end
$$$$
! Edit this basic GAMESS input file as needed.
! Conformer was generated by a VeraChem VCPack run 
! and contains     25 atoms.
!
 $contrl scftyp=rhf runtyp=optimize nzvar=0
  maxit=200 icharg=0 $end
 $system mwords=50 $end
 $basis gbasis=pm3 $end
 $statpt nstep=200 $end
 $guess guess=huckel $end
 $data
VM2 Rank=5      G=-7.036            E=-31.542           -TS=24.506              
C1
C    6.0       20.3737313775       19.6427650595       27.4433010571
O    8.0       21.5152616887       20.0321422345       27.5914026616
O    8.0       19.4210604050       20.1083029998       28.0368971928
C    6.0       20.1198343440       18.5218557655       26.4416547196
H    1.0       19.2736912238       17.9262179694       26.8047101760
H    1.0       20.9987792734       17.8661175005       26.4341129289
C    6.0       19.8321146166       19.0459197899       25.0130843800
H    1.0       18.9554109259       19.7077510180       25.0392937120
H    1.0       20.6832606918       19.6547246449       24.6808058353
C    6.0       19.5831690846       17.8892816570       24.0173760957
H    1.0       18.7803590081       17.2488550193       24.4076496994
H    1.0       20.4797935725       17.2579125407       23.9508044643
C    6.0       19.1821024527       18.3696374642       22.6023945852
H    1.0       18.9053724658       17.4917578472       22.0026919813
H    1.0       18.2825845824       18.9969044626       22.6681052904
C    6.0       20.3046253776       19.1427789178       21.8720877187
H    1.0       21.2192269451       18.5344417398       21.8562301628
H    1.0       20.5416944753       20.0647592620       22.4186032384
C    6.0       19.9012332365       19.5034654665       20.4267746096
H    1.0       19.6695659744       18.5869954230       19.8665582447
H    1.0       18.9853787565       20.1105375017       20.4387749296
C    6.0       21.0198674168       20.2778506455       19.7010269797
H    1.0       21.9397386923       19.6809017153       19.6474799640
H    1.0       20.7164271796       20.5256030067       18.6755490461
H    1.0       21.2500218862       21.2162315828       20.2224287502
 $end
$$$$
! Edit this basic GAMESS input file as needed.
! Conformer was generated by a VeraChem VCPack run 
! and contains     25 atoms.
!
 $contrl scftyp=rhf runtyp=optimize nzvar=0
  maxit=200 icharg=0 $end
 $system mwords=50 $end
 $basis gbasis=pm3 $end
 $statpt nstep=200 $end
 $guess guess=huckel $end
 $data
VM2 Rank=6      G=-7.019            E=-31.525           -TS=24.506              
C1
C    6.0       19.9012920472       19.6124186201       27.4488084401
O    8.0       20.8001923188       20.1962397591       28.0213421628
O    8.0       18.7231435114       19.8534674556       27.6234496763
C    6.0       20.2729882188       18.5316556067       26.4398536486
H    1.0       19.4849059719       17.7691704630       26.4514788311
H    1.0       21.1962999875       18.0492955240       26.7824542065
C    6.0       20.4586213545       19.0861458898       25.0058684287
H    1.0       19.5293497538       19.5808985738       24.6941382318
H    1.0       21.2440779189       19.8544718080       25.0129750513
C    6.0       20.8302146361       17.9693319298       24.0029419446
H    1.0       20.0202587165       17.2285418237       23.9560661495
H    1.0       21.7170000900       17.4372214665       24.3736628708
C    6.0       21.1339790641       18.4949553028       22.5798432693
H    1.0       21.9471765943       19.2321877321       22.6258170156
H    1.0       21.5068466262       17.6587894597       21.9726436150
C    6.0       19.9053353121       19.1171352248       21.8766457171
H    1.0       19.5648612732       20.0019817690       22.4298662649
H    1.0       19.0759447451       18.3967778411       21.8808157738
C    6.0       20.2260437508       19.5244177143       20.4230225362
H    1.0       21.0567094413       20.2437233597       20.4149757669
H    1.0       20.5602050027       18.6443301357       19.8562665653
C    6.0       19.0011897862       20.1482324970       19.7242241763
H    1.0       18.1643122615       19.4383750259       19.6907931609
H    1.0       18.6647945184       21.0501688215       20.2521826976
H    1.0       19.2469013390       20.4313435675       18.6924597995
 $end
$$$$
! Edit this basic GAMESS input file as needed.
! Conformer was generated by a VeraChem VCPack run 
! and contains     25 atoms.
!
 $contrl scftyp=rhf runtyp=optimize nzvar=0
  maxit=200 icharg=0 $end
 $system mwords=50 $end
 $basis gbasis=pm3 $end
 $statpt nstep=200 $end
 $guess guess=huckel $end
 $data
VM2 Rank=7      G=-7.013            E=-31.521           -TS=24.508              
C1
C    6.0       20.0591296845       19.4466217620       27.6999666304
O    8.0       21.0532704261       19.9253689741       28.2090029051
O    8.0       18.9333835805       19.6286839411       28.1197032450
C    6.0       20.2318483263       18.5881672590       26.4520421291
H    1.0       19.4466714620       17.8226006298       26.4538846721
H    1.0       21.1935421488       18.0666285397       26.5277981875
C    6.0       20.1721274184       19.4122046158       25.1423040371
H    1.0       19.2089663424       19.9385029590       25.0883020737
H    1.0       20.9557201977       20.1823792005       25.1619869169
C    6.0       20.3492467383       18.5211790602       23.8937694541
H    1.0       19.5648231658       17.7520497795       23.8771327915
H    1.0       21.3121191547       17.9952558761       23.9520422614
C    6.0       20.2895521740       19.3454746439       22.5895772238
H    1.0       19.3277880957       19.8724913763       22.5409865347
H    1.0       21.0758608312       20.1124781725       22.6040572796
C    6.0       20.4633648397       18.4513541877       21.3401073071
H    1.0       19.6489597172       17.7153866120       21.2953657730
H    1.0       21.3955146909       17.8782205915       21.4376936392
C    6.0       20.5135106467       19.2482558426       20.0157139104
H    1.0       21.3313603911       19.9810275652       20.0543025456
H    1.0       20.7553550972       18.5564434541       19.1970870199
C    6.0       19.1875661654       19.9666897137       19.6838131580
H    1.0       19.2453653333       20.4418966380       18.6960134486
H    1.0       18.3494648831       19.2578189607       19.6692647434
H    1.0       18.9625546738       20.7514189548       20.4168046135
 $end
$$$$
! Edit this basic GAMESS input file as needed.
! Conformer was generated by a VeraChem VCPack run 
! and contains     25 atoms.
!
 $contrl scftyp=rhf runtyp=optimize nzvar=0
  maxit=200 icharg=0 $end
 $system mwords=50 $end
 $basis gbasis=pm3 $end
 $statpt nstep=200 $end
 $guess guess=huckel $end
 $data
VM2 Rank=8      G=-7.013            E=-31.512           -TS=24.499              
C1
C    6.0       20.3158307051       19.1891821782       27.6664377315
O    8.0       21.3533696487       19.6710729932       28.0762299141
O    8.0       19.2874184662       19.1555797062       28.3128743477
C    6.0       20.2973732595       18.6149242606       26.2543606115
H    1.0       19.5888538027       17.7781083650       26.2361404865
H    1.0       21.2911475269       18.2031634141       26.0411402001
C    6.0       19.9124106100       19.6648383422       25.1830945916
H    1.0       18.9213715849       20.0768259768       25.4189942126
H    1.0       20.6235650968       20.5016485617       25.2229235228
C    6.0       19.9008176070       19.0592923268       23.7626772863
H    1.0       19.1872268456       18.2248460544       23.7253169988
H    1.0       20.8926433950       18.6442332691       23.5413241713
C    6.0       19.5199189495       20.1125425847       22.6967437908
H    1.0       18.5612046953       20.5711421367       22.9750498374
H    1.0       20.2623306439       20.9223163770       22.6940149675
C    6.0       19.3868042225       19.5272484330       21.2705975011
H    1.0       18.9945721362       20.3110229334       20.6082124400
H    1.0       18.6412143503       18.7204061190       21.2720806490
C    6.0       20.7205461445       19.0030777051       20.6918665998
H    1.0       21.4816666171       19.7940317419       20.7398181109
H    1.0       21.0912887591       18.1642589962       21.2954174601
C    6.0       20.5585103870       18.5362414700       19.2311176256
H    1.0       20.2249578376       19.3619038694       18.5889565213
H    1.0       21.5126624537       18.1641297392       18.8359115971
H    1.0       19.8219057751       17.7254409395       19.1576909297
 $end
$$$$
! Edit this basic GAMESS input file as needed.
! Conformer was generated by a VeraChem VCPack run 
! and contains     25 atoms.
!
 $contrl scftyp=rhf runtyp=optimize nzvar=0
  maxit=200 icharg=0 $end
 $system mwords=50 $end
 $basis gbasis=pm3 $end
 $statpt nstep=200 $end
 $guess guess=huckel $end
 $data
VM2 Rank=9      G=-6.581            E=-31.293           -TS=24.712              
C1
C    6.0       19.9391780941       19.5647650455       27.3299474164
O    8.0       20.7378369588       20.3659551340       27.7741461384
O    8.0       18.7366937613       19.7407801908       27.3337841271
C    6.0       20.4771694489       18.2591245386       26.7513022612
H    1.0       19.6605541239       17.5277227247       26.7190942509
H    1.0       21.2230602015       17.8713652018       27.4550595663
C    6.0       21.1180884465       18.4087956717       25.3471074350
H    1.0       21.9149948282       19.1643227095       25.3894465847
H    1.0       21.5968111230       17.4595652321       25.0708191298
C    6.0       20.0880733559       18.7947618001       24.2618125006
H    1.0       19.6170005400       19.7526805468       24.5223989455
H    1.0       19.2867759241       18.0436991650       24.2326304566
C    6.0       20.7415119066       18.9071395230       22.8675319155
H    1.0       21.5425494292       19.6584825677       22.8976911502
H    1.0       21.2107340710       17.9494427093       22.6035552424
C    6.0       19.7130437794       19.2934653345       21.7826988444
H    1.0       19.2435838897       20.2511042324       22.0466325010
H    1.0       18.9117747688       18.5423729467       21.7525448469
C    6.0       20.3658460992       19.4065808124       20.3889914974
H    1.0       21.1667286902       20.1585076300       20.4149837216
H    1.0       20.8348975948       18.4497299032       20.1208402817
C    6.0       19.3355581495       19.7926319493       19.3086778640
H    1.0       18.8730485495       20.7621665175       19.5355828670
H    1.0       19.8165595297       19.8686167127       18.3248355081
H    1.0       18.5387299942       19.0405488789       19.2391781711
 $end
$$$$
! Edit this basic GAMESS input file as needed.
! Conformer was generated by a VeraChem VCPack run 
! and contains     25 atoms.
!
 $contrl scftyp=rhf runtyp=optimize nzvar=0
  maxit=200 icharg=0 $end
 $system mwords=50 $end
 $basis gbasis=pm3 $end
 $statpt nstep=200 $end
 $guess guess=huckel $end
 $data
VM2 Rank=10     G=-6.575            E=-31.286           -TS=24.711              
C1
C    6.0       20.2302794755       18.9545825170       27.3351794280
O    8.0       21.3527177378       19.0774581850       27.7847437550
O    8.0       19.6105797854       17.9092431864       27.3493576770
C    6.0       19.5577088101       20.1859955405       26.7349803614
H    1.0       19.7209077905       21.0193917540       27.4283777228
H    1.0       18.4756700825       20.0108555060       26.6980427009
C    6.0       20.0865277570       20.5706239517       25.3287954790
H    1.0       19.6516811296       21.5359609332       25.0362513695
H    1.0       21.1748492377       20.7154335884       25.3763282129
C    6.0       19.7457292795       19.5122232912       24.2557569970
H    1.0       18.6580256812       19.3613967160       24.2214545263
H    1.0       20.1922217734       18.5471434743       24.5326834399
C    6.0       20.2534003214       19.9301598050       22.8588932638
H    1.0       19.8059363083       20.8936139711       22.5785930824
H    1.0       21.3411519058       20.0806239795       22.8941747706
C    6.0       19.9138474867       18.8727418461       21.7863135443
H    1.0       18.8261486786       18.7219107202       21.7510687600
H    1.0       20.3611517578       17.9091469825       22.0665466956
C    6.0       20.4216280749       19.2897579085       20.3900249815
H    1.0       19.9747643122       20.2525163970       20.1056190986
H    1.0       21.5097709180       19.4396332743       20.4211003074
C    6.0       20.0805812719       18.2312137687       19.3219545130
H    1.0       18.9951507604       18.0840118910       19.2473413059
H    1.0       20.4487338141       18.5436951304       18.3361040890
H    1.0       20.5416669984       17.2649827559       19.5652560861
 $end
$$$$
! Edit this basic GAMESS input file as needed.
! Conformer was generated by a VeraChem VCPack run 
! and contains     25 atoms.
!
 $contrl scftyp=rhf runtyp=optimize nzvar=0
  maxit=200 icharg=0 $end
 $system mwords=50 $end
 $basis gbasis=pm3 $end
 $statpt nstep=200 $end
 $guess guess=huckel $end
 $data
VM2 Rank=11     G=-6.259            E=-30.875           -TS=24.616              
C1
C    6.0       20.1096013729       19.8189261581       27.3324046446
O    8.0       21.1337088878       20.4357232842       27.5502547266
O    8.0       19.3799161020       19.3954015712       28.2070070570
C    6.0       19.7316610515       19.5399258009       25.8821173680
H    1.0       20.0749263206       20.3883907836       25.2796254101
H    1.0       18.6375226548       19.5137960374       25.8147851037
C    6.0       20.3325478927       18.2126087485       25.3507069478
H    1.0       21.4295059109       18.2690802174       25.3793828564
H    1.0       20.0461662975       17.3987125709       26.0311507658
C    6.0       19.8647773654       17.8507320676       23.9208896697
H    1.0       18.7683333657       17.7855519924       23.8977887749
H    1.0       20.2409820158       16.8482576810       23.6750731752
C    6.0       20.3497752612       18.8487978403       22.8439344384
H    1.0       19.9234587790       19.8394620831       23.0425978082
H    1.0       21.4420238360       18.9495601865       22.9022775758
C    6.0       19.9489597369       18.3915474470       21.4221511116
H    1.0       18.8544327878       18.3350211439       21.3466359482
H    1.0       20.3253740033       17.3732313098       21.2542535830
C    6.0       20.4979977177       19.3076103381       20.3035798531
H    1.0       21.5932348473       19.3621155372       20.3728036094
H    1.0       20.2711741414       18.8501971852       19.3306710448
C    6.0       19.9040546119       20.7327267441       20.3329541832
H    1.0       20.2042085468       21.2735194393       21.2391225075
H    1.0       20.2545728445       21.3123975887       19.4692322131
H    1.0       18.8072982874       20.7022056688       20.2968448977
 $end
$$$$
! Edit this basic GAMESS input file as needed.
! Conformer was generated by a VeraChem VCPack run 
! and contains     25 atoms.
!
 $contrl scftyp=rhf runtyp=optimize nzvar=0
  maxit=200 icharg=0 $end
 $system mwords=50 $end
 $basis gbasis=pm3 $end
 $statpt nstep=200 $end
 $guess guess=huckel $end
 $data
VM2 Rank=12     G=-6.236            E=-30.856           -TS=24.620              
C1
C    6.0       20.5514749778       19.2703843142       27.3961412603
O    8.0       21.5343623439       19.9704501497       27.5394469068
O    8.0       19.8335094262       18.9223586995       28.3127379487
C    6.0       20.1852627490       18.8232759041       25.9854623115
H    1.0       19.7044825695       17.8401857583       26.0542912094
H    1.0       21.1178040375       18.6913613191       25.4253573041
C    6.0       19.2501238370       19.8270415862       25.2622492447
H    1.0       18.3693769630       20.0068524747       25.8942238532
H    1.0       19.7603736136       20.7946874017       25.1590518361
C    6.0       18.7727943219       19.3370550343       23.8744169884
H    1.0       18.0319735674       20.0507012777       23.4885727612
H    1.0       18.2515639648       18.3760910907       23.9831002023
C    6.0       19.9178476685       19.1959693636       22.8448821290
H    1.0       20.4694083113       20.1433191854       22.7881042207
H    1.0       20.6282955810       18.4282756795       23.1773451194
C    6.0       19.3809142304       18.8154182365       21.4456325653
H    1.0       18.7136174142       19.6064687409       21.0770887298
H    1.0       18.7686352472       17.9074604407       21.5329916675
C    6.0       20.4978574351       18.5566181603       20.4077757726
H    1.0       21.1623396478       17.7594588048       20.7687594200
H    1.0       20.0391088435       18.1824986986       19.4821360352
C    6.0       21.3288530102       19.8154285517       20.0772548727
H    1.0       20.6818778559       20.6365832757       19.7422356646
H    1.0       21.8988579990       20.1595520973       20.9492705831
H    1.0       22.0466175781       19.6017195121       19.2747355763
 $end
$$$$
! Edit this basic GAMESS input file as needed.
! Conformer was generated by a VeraChem VCPack run 
! and contains     25 atoms.
!
 $contrl scftyp=rhf runtyp=optimize nzvar=0
  maxit=200 icharg=0 $end
 $system mwords=50 $end
 $basis gbasis=pm3 $end
 $statpt nstep=200 $end
 $guess guess=huckel $end
 $data
VM2 Rank=13     G=-6.229            E=-30.844           -TS=24.615              
C1
C    6.0       20.5592519910       19.0820289267       27.3492792975
O    8.0       21.5718611356       19.7176730865       27.5667020827
O    8.0       19.8312029384       18.6558283849       28.2239444238
C    6.0       20.1678581114       18.8250841941       25.8984846630
H    1.0       19.6453789392       17.8621378498       25.8526148565
H    1.0       21.0914446739       18.7225504124       25.3178010123
C    6.0       19.2737096303       19.9477985889       25.3109059255
H    1.0       18.4052773939       20.0877036844       25.9694631229
H    1.0       19.8252341045       20.8981048253       25.3191225187
C    6.0       18.7671662497       19.6495525591       23.8796079702
H    1.0       18.0532899843       20.4337825346       23.5927728796
H    1.0       18.2078765701       18.7039536855       23.8766896935
C    6.0       19.8983013056       19.5886233809       22.8269853671
H    1.0       20.4865708136       20.5154184472       22.8663929581
H    1.0       20.5797150328       18.7636783577       23.0673348252
C    6.0       19.3374796917       19.3937127096       21.3991588520
H    1.0       18.6079635035       20.1879134534       21.1896477689
H    1.0       18.7879079124       18.4440672223       21.3441003929
C    6.0       20.4259001768       19.4258911238       20.3009230435
H    1.0       19.9353981939       19.4007855056       19.3180683667
H    1.0       20.9741677892       20.3768558420       20.3496616661
C    6.0       21.4202687697       18.2478070454       20.3900083747
H    1.0       20.8919605823       17.2856346101       20.3750922301
H    1.0       22.1136722212       18.2657778245       19.5392652575
H    1.0       22.0197492865       18.2977181459       21.3075155043
 $end
$$$$
! Edit this basic GAMESS input file as needed.
! Conformer was generated by a VeraChem VCPack run 
! and contains     25 atoms.
!
 $contrl scftyp=rhf runtyp=optimize nzvar=0
  maxit=200 icharg=0 $end
 $system mwords=50 $end
 $basis gbasis=pm3 $end
 $statpt nstep=200 $end
 $guess guess=huckel $end
 $data
VM2 Rank=14     G=-6.208            E=-30.844           -TS=24.636              
C1
C    6.0       20.2130549026       19.0379799841       27.4838380974
O    8.0       21.2609908561       19.1168685304       28.0940417784
O    8.0       19.1203535930       19.0977774263       28.0121757746
C    6.0       20.2726431908       18.8785379188       25.9689095719
H    1.0       19.4109210030       18.2746326240       25.6630039089
H    1.0       21.1751892699       18.3067524550       25.7222466194
C    6.0       20.2797758211       20.2379256982       25.2226154657
H    1.0       19.3518186387       20.7829768306       25.4442495982
H    1.0       21.1015943485       20.8524127088       25.6156092368
C    6.0       20.4522007994       20.0989654272       23.6913540886
H    1.0       21.3924156145       19.5725172005       23.4813634712
H    1.0       20.5527297738       21.1035413558       23.2584010109
C    6.0       19.2704779194       19.3700093981       23.0062143351
H    1.0       19.2317208994       18.3231112554       23.3343335410
H    1.0       18.3285954965       19.8339641918       23.3291584158
C    6.0       19.3351035779       19.4146316133       21.4609545573
H    1.0       19.3584335335       20.4597838133       21.1233490892
H    1.0       18.4089336910       18.9798857700       21.0608603746
C    6.0       20.5431933358       18.6504202018       20.8736803107
H    1.0       21.4813180630       19.1168503828       21.2020983017
H    1.0       20.5483709245       17.6187911973       21.2517264694
C    6.0       20.5052060039       18.6308838018       19.3322160201
H    1.0       19.5957567936       18.1357408530       18.9674250689
H    1.0       20.5269194366       19.6507110760       18.9262061404
H    1.0       21.3706552590       18.0877780267       18.9308665645
 $end
$$$$
! Edit this basic GAMESS input file as needed.
! Conformer was generated by a VeraChem VCPack run 
! and contains     25 atoms.
!
 $contrl scftyp=rhf runtyp=optimize nzvar=0
  maxit=200 icharg=0 $end
 $system mwords=50 $end