$$$$
! Edit this basic GAMESS input file as needed.
! Conformer was generated by a VeraChem VCPack run 
! and contains     29 atoms.
!
 $contrl scftyp=rhf runtyp=optimize nzvar=0
  maxit=200 icharg=0 $end
 $system mwords=50 $end
 $basis gbasis=pm3 $end
 $statpt nstep=200 $end
 $guess guess=huckel $end
 $data
VM2 Rank=1      G=33.702            E=-3.682            -TS=37.384              
C1
C    6.0       19.5305244004       19.9313322135       18.7439707900
H    1.0       18.5905093912       20.4924878510       18.8260014958
H    1.0       20.3584432204       20.6520309005       18.7240121489
H    1.0       19.5230847905       19.3997969469       17.7835192814
C    6.0       19.6876984577       18.9384556893       19.9150168316
H    1.0       20.6190019065       18.3689408502       19.7876256842
H    1.0       18.8646898708       18.2105327458       19.8888037049
C    6.0       19.7011169685       19.6615215221       21.2799139616
H    1.0       20.5238699092       20.3895806866       21.3005262937
H    1.0       18.7693953624       20.2311613429       21.4015833504
C    6.0       19.8584565275       18.6704289971       22.4550865683
H    1.0       20.7898588223       18.1006479699       22.3313784495
H    1.0       19.0352570443       17.9428343738       22.4338832606
C    6.0       19.8724605264       19.3942542597       23.8203915780
H    1.0       20.6981411280       20.1191573849       23.8420547881
H    1.0       18.9418692793       19.9661304206       23.9336525902
C    6.0       20.0289368851       18.3990796533       24.9957709856
H    1.0       20.9355196302       17.8003337074       24.8354103812
H    1.0       19.1856468126       17.6956406941       25.0018040845
C    6.0       20.1313657003       19.0989519084       26.3682305262
H    1.0       20.9618551624       19.8105863640       26.3292714721
C    6.0       20.4279868801       18.0708570668       27.4715602938
H    1.0       20.5382244645       18.5659950281       28.4442353826
H    1.0       19.6207239052       17.3322190545       27.5533517999
H    1.0       21.3622006698       17.5343983605       27.2636701937
N    7.0       18.8974536540       19.8911186899       26.7040584649
H    1.0       18.9908346243       20.3638489537       27.6076511109
H    1.0       18.0709685441       19.2896824179       26.7564617741
H    1.0       18.7119465936       20.6103467912       25.9997970718
 $end
$$$$
! Edit this basic GAMESS input file as needed.
! Conformer was generated by a VeraChem VCPack run 
! and contains     29 atoms.
!
 $contrl scftyp=rhf runtyp=optimize nzvar=0
  maxit=200 icharg=0 $end
 $system mwords=50 $end
 $basis gbasis=pm3 $end
 $statpt nstep=200 $end
 $guess guess=huckel $end
 $data
VM2 Rank=2      G=34.127            E=-3.403            -TS=37.530              
C1
C    6.0       19.0307500060       19.3523042846       18.8498285277
H    1.0       18.5001788200       18.3914638775       18.8267699057
H    1.0       18.2858854540       20.1518587186       18.9553702224
H    1.0       19.5318143676       19.4839939099       17.8820256702
C    6.0       20.0549447122       19.3926863900       20.0036270286
H    1.0       20.5927809226       20.3508548093       19.9803657586
H    1.0       20.8053694173       18.6040154882       19.8527727127
C    6.0       19.3750803407       19.2095313536       21.3784558002
H    1.0       18.6244642706       19.9987443240       21.5237464692
H    1.0       18.8368488237       18.2517218084       21.3960042311
C    6.0       20.3976962216       19.2491816897       22.5363931756
H    1.0       20.9356259068       20.2071583772       22.5173499278
H    1.0       21.1481048997       18.4599716084       22.3897863357
C    6.0       19.7173133206       19.0656694947       23.9117579606
H    1.0       18.9680304991       19.8560630908       24.0511519528
H    1.0       19.1789892283       18.1088089648       23.9191031493
C    6.0       20.7490117634       19.1030822740       25.0691541305
H    1.0       21.3131575826       20.0436519031       25.0188603388
H    1.0       21.4853410684       18.3013382678       24.9249208114
C    6.0       20.1433604823       18.9722317011       26.4866279851
H    1.0       20.9693266010       19.0446917159       27.2009839298
C    6.0       19.4612224563       17.6098848437       26.7012101111
H    1.0       19.1632832457       17.4914585044       27.7502160017
H    1.0       18.5611135486       17.5049903747       26.0839512525
H    1.0       20.1452513304       16.7882398854       26.4550729028
N    7.0       19.2066206969       20.1014279687       26.8169452806
H    1.0       18.8632715746       20.0332618598       27.7793033043
H    1.0       18.3912780942       20.0999812703       26.1990822945
H    1.0       19.6664448191       21.0112652970       26.7195715212
 $end
$$$$
! Edit this basic GAMESS input file as needed.
! Conformer was generated by a VeraChem VCPack run 
! and contains     29 atoms.
!
 $contrl scftyp=rhf runtyp=optimize nzvar=0
  maxit=200 icharg=0 $end
 $system mwords=50 $end
 $basis gbasis=pm3 $end
 $statpt nstep=200 $end
 $guess guess=huckel $end
 $data
VM2 Rank=3      G=34.129            E=-3.270            -TS=37.399              
C1
C    6.0       20.2030690851       19.4673559241       18.6904272610
H    1.0       20.5984804044       20.4914204420       18.7044541245
H    1.0       21.0524676125       18.7733813951       18.6437900115
H    1.0       19.6168589913       19.3449324981       17.7704153236
C    6.0       19.3302283557       19.1928317556       19.9332628673
H    1.0       18.9221319790       18.1740651090       19.8743570925
H    1.0       18.4715897581       19.8788618465       19.9344996125
C    6.0       20.1320315703       19.3585086870       21.2430707000
H    1.0       20.9904490223       18.6725944499       21.2360505720
H    1.0       20.5397513074       20.3774944124       21.2964424658
C    6.0       19.2612668149       19.0843223137       22.4899441051
H    1.0       18.8541560673       18.0650777037       22.4360473147
H    1.0       18.4026415640       19.7700324920       22.4947314672
C    6.0       20.0638049172       19.2507102273       23.8002149969
H    1.0       20.9233414485       18.5679488502       23.7813395663
H    1.0       20.4665394024       20.2715793305       23.8562904219
C    6.0       19.1902211627       18.9708369177       25.0477531130
H    1.0       18.8391841998       17.9304860043       25.0283542888
H    1.0       18.2937350479       19.6027329214       24.9953130347
C    6.0       19.9085852761       19.2523672734       26.3872073512
H    1.0       20.2850482441       20.2797128197       26.3655387664
C    6.0       21.0972439018       18.3024240228       26.6195428595
H    1.0       20.7789521851       17.2529976716       26.5862042153
H    1.0       21.8787106926       18.4491585962       25.8651245219
H    1.0       21.5542330052       18.4881598344       27.5993502475
N    7.0       18.9495489161       19.1766428786       27.5425767460
H    1.0       19.4123281040       19.4012663235       28.4280802349
H    1.0       18.5498797983       18.2389333977       27.6360934355
H    1.0       18.1715081277       19.8331761819       27.4306242264
 $end
$$$$
! Edit this basic GAMESS input file as needed.
! Conformer was generated by a VeraChem VCPack run 
! and contains     29 atoms.
!
 $contrl scftyp=rhf runtyp=optimize nzvar=0
  maxit=200 icharg=0 $end
 $system mwords=50 $end
 $basis gbasis=pm3 $end
 $statpt nstep=200 $end
 $guess guess=huckel $end
 $data
VM2 Rank=4      G=34.284            E=-3.211            -TS=37.495              
C1
C    6.0       18.8288525673       18.7941766691       19.4037495814
H    1.0       18.6832391348       17.8740841678       19.9831348648
H    1.0       17.9439050514       19.4296587398       19.5381336915
H    1.0       18.8817647289       18.5118442602       18.3443041070
C    6.0       20.1156765005       19.5361502944       19.8304555431
H    1.0       20.2823707046       20.3786467713       19.1447631892
H    1.0       20.9819834078       18.8698433506       19.7152343673
C    6.0       20.0614021606       20.0783514053       21.2790695872
H    1.0       20.9614942547       20.6822747328       21.4590957700
H    1.0       19.2058254030       20.7597194315       21.3837027064
C    6.0       19.9769480441       18.9655042517       22.3510261295
H    1.0       20.8046533821       18.2569741335       22.2093508650
H    1.0       19.0454776054       18.3975915522       22.2274794104
C    6.0       20.0306666470       19.5438118812       23.7831662751
H    1.0       20.9656011245       20.1056660904       23.9168542043
H    1.0       19.2068299806       20.2581524861       23.9130824687
C    6.0       19.9407436698       18.4306151916       24.8551388268
H    1.0       20.7387864899       17.6982527207       24.6738287746
H    1.0       18.9901600297       17.8906202014       24.7512478599
C    6.0       20.0775154966       18.9690211752       26.2957348331
H    1.0       21.0190961258       19.5221623993       26.3672356680
C    6.0       20.1237744125       17.8055411853       27.2989658628
H    1.0       19.1977360197       17.2177847805       27.2682569857
H    1.0       20.9624799080       17.1335201430       27.0782364221
H    1.0       20.2575843497       18.1795977879       28.3215050086
N    7.0       18.9804205016       19.9328279461       26.6566933610
H    1.0       18.0609542422       19.4856695658       26.6101196054
H    1.0       18.9655750352       20.7364148079       26.0228810676
H    1.0       19.0980699175       20.2945167028       27.6074862055
 $end
$$$$
! Edit this basic GAMESS input file as needed.
! Conformer was generated by a VeraChem VCPack run 
! and contains     29 atoms.
!
 $contrl scftyp=rhf runtyp=optimize nzvar=0
  maxit=200 icharg=0 $end
 $system mwords=50 $end
 $basis gbasis=pm3 $end
 $statpt nstep=200 $end
 $guess guess=huckel $end
 $data
VM2 Rank=5      G=34.302            E=-3.193            -TS=37.495              
C1
C    6.0       20.4861664288       18.8980795723       19.3012466049
H    1.0       20.3549029176       18.5911867200       18.2555314487
H    1.0       21.2781325797       19.6576264129       19.3314088669
H    1.0       20.8297740080       18.0198946496       19.8617628297
C    6.0       19.1616606734       19.4534393912       19.8720267779
H    1.0       18.3947412226       18.6664239274       19.8589849514
H    1.0       18.7965413918       20.2496447229       19.2083197081
C    6.0       19.3005178381       20.0252687359       21.3035097764
H    1.0       20.0538795302       20.8250609176       21.3074565212
H    1.0       18.3483016295       20.4960393938       21.5844622181
C    6.0       19.6676719974       18.9569909308       22.3611793155
H    1.0       20.6511389832       18.5266278317       22.1310756631
H    1.0       18.9407483690       18.1341778613       22.3189958369
C    6.0       19.6948135699       19.5490114210       23.7884691667
H    1.0       20.4221765264       20.3717913200       23.8293575012
H    1.0       18.7112619451       19.9798859637       24.0182122860
C    6.0       20.0644793086       18.4805486562       24.8459104261
H    1.0       21.0241734311       18.0241558716       24.5687992080
H    1.0       19.3191688887       17.6740764212       24.8354069109
C    6.0       20.1827732372       19.0600881020       26.2721153009
H    1.0       20.9119976777       19.8758437363       26.2514794782
C    6.0       20.6894109982       17.9842270271       27.2458401686
H    1.0       19.9898065549       17.1410055516       27.3048315975
H    1.0       21.6649121404       17.5971183066       26.9259902069
H    1.0       20.8106262879       18.3991127870       28.2540992356
N    7.0       18.8885059483       19.6483461634       26.7637024629
H    1.0       18.9905443149       20.0452113845       27.7021854761
H    1.0       18.1504369724       18.9406767983       26.8084235566
H    1.0       18.5610479533       20.3977038987       26.1481371838
 $end
$$$$
! Edit this basic GAMESS input file as needed.
! Conformer was generated by a VeraChem VCPack run 
! and contains     29 atoms.
!
 $contrl scftyp=rhf runtyp=optimize nzvar=0
  maxit=200 icharg=0 $end
 $system mwords=50 $end
 $basis gbasis=pm3 $end
 $statpt nstep=200 $end
 $guess guess=huckel $end
 $data
VM2 Rank=6      G=34.353            E=-3.103            -TS=37.455              
C1
C    6.0       20.6746152194       18.9864355231       19.1354171424
H    1.0       21.3267634202       19.8693998932       19.1534346652
H    1.0       21.2743840317       18.1123544014       19.4208948935
H    1.0       20.3350600449       18.8392052625       18.1019417471
C    6.0       19.4706228379       19.1668870325       20.0839958507
H    1.0       18.8201168069       18.2833527766       20.0198405404
H    1.0       18.8715587172       20.0265913324       19.7524772678
C    6.0       19.9211913532       19.3771010506       21.5465193788
H    1.0       20.5261491614       18.5166726067       21.8603920149
H    1.0       20.5688443022       20.2626627585       21.6057952624
C    6.0       18.7140285175       19.5533673838       22.4989888948
H    1.0       18.0959064315       18.6450307985       22.4866863521
H    1.0       18.0770062664       20.3644082561       22.1197584927
C    6.0       19.1150037708       19.8886507792       23.9567587539
H    1.0       19.7306719345       20.7987581505       23.9681645354
H    1.0       18.1994058307       20.1279104917       24.5132882407
C    6.0       19.8698720758       18.7382150692       24.6714619759
H    1.0       20.7968139970       18.5193000850       24.1273132445
H    1.0       19.2644448541       17.8225456535       24.6436258804
C    6.0       20.2341564544       19.0748096663       26.1339344205
H    1.0       20.8047928574       20.0086160806       26.1391059933
C    6.0       21.1156162878       17.9673815885       26.7333276218
H    1.0       20.5874359729       17.0057910479       26.7513881098
H    1.0       22.0352082017       17.8411813266       26.1483622952
H    1.0       21.4071393541       18.2166910550       27.7610787565
N    7.0       19.0208934831       19.3031519067       26.9935959612
H    1.0       19.2828447408       19.5419538034       27.9543247863
H    1.0       18.4307776360       18.4679462256       27.0351590857
H    1.0       18.4461548772       20.0697179211       26.6335505295
 $end
$$$$
! Edit this basic GAMESS input file as needed.
! Conformer was generated by a VeraChem VCPack run 
! and contains     29 atoms.
!
 $contrl scftyp=rhf runtyp=optimize nzvar=0
  maxit=200 icharg=0 $end
 $system mwords=50 $end
 $basis gbasis=pm3 $end
 $statpt nstep=200 $end
 $guess guess=huckel $end
 $data
VM2 Rank=7      G=34.364            E=-3.215            -TS=37.579              
C1
C    6.0       19.7044531472       20.0255705706       19.0213384442
H    1.0       20.4610262238       20.3918068698       18.3152813163
H    1.0       19.2424270127       19.1299635604       18.5858228200
H    1.0       18.9301430964       20.7979993386       19.1164500514
C    6.0       20.3439345929       19.7098875302       20.3899981687
H    1.0       20.8265775587       20.6151412172       20.7842800986
H    1.0       21.1363610269       18.9598895525       20.2578594306
C    6.0       19.2994813649       19.1919548137       21.4033284525
H    1.0       18.5084883709       19.9439639118       21.5305422419
H    1.0       18.8180560927       18.2888624498       21.0032475479
C    6.0       19.9363236680       18.8742464666       22.7749025722
H    1.0       20.4222681796       19.7789693563       23.1635745647
H    1.0       20.7243309663       18.1193242319       22.6462524881
C    6.0       18.8871693419       18.3576359636       23.7883623177
H    1.0       18.1090435551       19.1178123465       23.9388327700
H    1.0       18.3774048575       17.4823516658       23.3624804576
C    6.0       19.5032889909       17.9513829459       25.1516199131
H    1.0       20.2037498854       17.1213806962       24.9890625643
H    1.0       18.7089949637       17.5592841128       25.8006451143
C    6.0       20.2406836227       19.0964837676       25.8813717872
H    1.0       21.0407742374       19.4615357920       25.2307426342
C    6.0       20.8785769483       18.5795557451       27.1804553398
H    1.0       20.1166370923       18.2049296650       27.8754537560
H    1.0       21.5813048991       17.7633391557       26.9713819185
H    1.0       21.4367976217       19.3787021316       27.6835885881
N    7.0       19.3420883231       20.2692821966       26.1626230046
H    1.0       18.9408839291       20.6446839961       25.2988853950
H    1.0       19.8510111064       21.0297470584       26.6222853229
H    1.0       18.5655994448       20.0051880446       26.7748401341
 $end
$$$$
! Edit this basic GAMESS input file as needed.
! Conformer was generated by a VeraChem VCPack run 
! and contains     29 atoms.
!
 $contrl scftyp=rhf runtyp=optimize nzvar=0
  maxit=200 icharg=0 $end
 $system mwords=50 $end
 $basis gbasis=pm3 $end
 $statpt nstep=200 $end
 $guess guess=huckel $end
 $data
VM2 Rank=8      G=34.365            E=-3.138            -TS=37.502              
C1
C    6.0       18.6214485042       18.9170466801       19.2919936248
H    1.0       18.1665475075       17.9710637481       19.6135795147
H    1.0       17.8747534275       19.7131496716       19.4099420139
H    1.0       18.8570967627       18.8315577804       18.2232532752
C    6.0       19.8947436322       19.2258184508       20.1076643179
H    1.0       20.3454457938       20.1583838024       19.7401587425
H    1.0       20.6347118247       18.4298575318       19.9439743419
C    6.0       19.5905408097       19.3521430510       21.6168210666
H    1.0       18.8521025921       20.1500790494       21.7755282443
H    1.0       19.1329210615       18.4183891116       21.9688040641
C    6.0       20.8673737566       19.6576391341       22.4361482467
H    1.0       21.3526709253       20.5522965507       22.0220852718
H    1.0       21.5871782843       18.8354936583       22.3210466931
C    6.0       20.5928900035       19.9006076145       23.9404586216
H    1.0       21.5314043166       20.2132010094       24.4190838046
H    1.0       19.8942701785       20.7410439022       24.0481033251
C    6.0       20.0437930513       18.6516269289       24.6762158127
H    1.0       20.7004067784       17.7971883593       24.4648038585
H    1.0       19.0508392393       18.3899995827       24.2893048259
C    6.0       19.9583824153       18.8475402965       26.2051682811
H    1.0       20.9520145430       19.1231594912       26.5717245558
C    6.0       19.5375684173       17.5373415816       26.8896825805
H    1.0       18.5421010531       17.2174373900       26.5570519600
H    1.0       20.2485017621       16.7331206694       26.6626119437
H    1.0       19.5108945370       17.6598254098       27.9794928782
N    7.0       19.0292594099       19.9662362626       26.5898474482
H    1.0       18.0724142098       19.7802777345       26.2778590711
H    1.0       19.3225263832       20.8545379095       26.1743457166
H    1.0       19.0013200091       20.0969857204       27.6051184357
 $end
$$$$
! Edit this basic GAMESS input file as needed.
! Conformer was generated by a VeraChem VCPack run 
! and contains     29 atoms.
!
 $contrl scftyp=rhf runtyp=optimize nzvar=0
  maxit=200 icharg=0 $end
 $system mwords=50 $end
 $basis gbasis=pm3 $end
 $statpt nstep=200 $end
 $guess guess=huckel $end
 $data
VM2 Rank=9      G=34.392            E=-3.085            -TS=37.478              
C1
C    6.0       19.1696020971       20.2660297701       19.2416843853
H    1.0       18.2208602922       20.7490875942       18.9741348450
H    1.0       19.9581745187       21.0290346821       19.2066250138
H    1.0       19.3903963554       19.5105092918       18.4763907121
C    6.0       19.0791752615       19.6266034643       20.6434558159
H    1.0       18.2639768165       18.8897303125       20.6556573543
H    1.0       18.8172212224       20.4044067545       21.3727743565
C    6.0       20.4076285657       18.9428479998       21.0444371118
H    1.0       20.6915494412       18.2281263958       20.2596576806
H    1.0       21.2116148454       19.6906136477       21.0853922413
C    6.0       20.3336755900       18.1854691139       22.3930039795
H    1.0       21.2746019879       17.6357478588       22.5336347720
H    1.0       19.5384570342       17.4286519649       22.3464291963
C    6.0       20.1032653932       19.1114873122       23.6114639010
H    1.0       20.8710780428       19.8974756540       23.6244340567
H    1.0       19.1321899967       19.6122855425       23.5138641988
C    6.0       20.1489579449       18.3244825429       24.9438586881
H    1.0       21.1055180343       17.7887385922       25.0073679982
H    1.0       19.3604944603       17.5601008133       24.9507713825
C    6.0       20.0044590619       19.2313654065       26.1851790551
H    1.0       20.7838567773       19.9984003479       26.1422023198
C    6.0       20.2032260111       18.4128561189       27.4708118542
H    1.0       19.4424012854       17.6276368887       27.5631380526
H    1.0       21.1906346402       17.9346292428       27.4798306298
H    1.0       20.1380615191       19.0578356819       28.3557756313
N    7.0       18.6860100745       19.9548582714       26.2201052091
H    1.0       17.9015164798       19.2985834363       26.2580302753
H    1.0       18.5591053229       20.5408154999       25.3905620881
H    1.0       18.6158183220       20.5647106596       27.0397662336
 $end
$$$$
! Edit this basic GAMESS input file as needed.
! Conformer was generated by a VeraChem VCPack run 
! and contains     29 atoms.
!
 $contrl scftyp=rhf runtyp=optimize nzvar=0
  maxit=200 icharg=0 $end
 $system mwords=50 $end
 $basis gbasis=pm3 $end
 $statpt nstep=200 $end
 $guess guess=huckel $end
 $data
VM2 Rank=10     G=34.401            E=-3.085            -TS=37.486              
C1
C    6.0       19.8084923780       20.3259316893       19.1846447561
H    1.0       19.6638115114       19.5321486140       18.4401913716
H    1.0       18.8770915697       20.9028138871       19.2549886187
H    1.0       20.5936013251       20.9971318534       18.8129810005
C    6.0       20.2000215091       19.7362733282       20.5561469058
H    1.0       20.3755047344       20.5600322020       21.2605949986
H    1.0       21.1490117690       19.1904530232       20.4603713337
C    6.0       19.1055838561       18.7893883532       21.1025872749
H    1.0       18.1710100545       19.3484563058       21.2482866593
H    1.0       18.8899794740       18.0204935809       20.3478509641
C    6.0       19.4994973477       18.0830536085       22.4230186704
H    1.0       20.4247555358       17.5102488715       22.2710768241
H    1.0       18.7197245685       17.3495045823       22.6704751664
C    6.0       19.6745317286       19.0535865674       23.6156811642
H    1.0       20.5056229723       19.7432814394       23.4180163849
H    1.0       18.7675025331       19.6637504172       23.7188777380
C    6.0       19.9535253737       18.2927385314       24.9346619682
H    1.0       20.8287567569       17.6449041971       24.7918184602
H    1.0       19.1086181731       17.6313492724       25.1684988388
C    6.0       20.2210260644       19.2347411982       26.1283952310
H    1.0       21.0498772534       19.8981690882       25.8628494138
C    6.0       20.6301668865       18.4235748658       27.3681034048
H    1.0       20.8571703989       19.0891115081       28.2100876520
H    1.0       19.8289671630       17.7409780489       27.6780877075
H    1.0       21.5279357806       17.8266274216       27.1645745920
N    7.0       19.0431548557       20.1167118580       26.4407606245
H    1.0       19.2451227624       20.7480168957       27.2213563101
H    1.0       18.2212610556       19.5637407307       26.6981778649
H    1.0       18.7863796523       20.6958206456       25.6367864852
 $end
$$$$
! Edit this basic GAMESS input file as needed.
! Conformer was generated by a VeraChem VCPack run 
! and contains     29 atoms.
!
 $contrl scftyp=rhf runtyp=optimize nzvar=0
  maxit=200 icharg=0 $end
 $system mwords=50 $end
 $basis gbasis=pm3 $end
 $statpt nstep=200 $end
 $guess guess=huckel $end
 $data
VM2 Rank=11     G=34.615            E=-3.059            -TS=37.674              
C1
C    6.0       20.2022739705       19.6775343471       18.9795673583
H    1.0       19.4974260980       18.9455877746       18.5639986095
H    1.0       20.1884690781       20.5639701902       18.3321986424
H    1.0       21.2101213318       19.2443542407       18.9365951577
C    6.0       19.8217022756       20.0539417396       20.4270794297
H    1.0       18.8240030472       20.5148645632       20.4336471861
H    1.0       20.5235482266       20.8114472529       20.8032197779
C    6.0       19.8335284346       18.8228569495       21.3599397900
H    1.0       19.1325521822       18.0676682813       20.9782037842
H    1.0       20.8320608372       18.3643671227       21.3485993709
C    6.0       19.4528793646       19.1958592421       22.8103311381
H    1.0       18.4527270229       19.6507812154       22.8211211719
H    1.0       20.1535284249       19.9556731680       23.1814136035
C    6.0       19.4692783561       17.9613082512       23.7430790076
H    1.0       18.8052755361       17.1897314913       23.3295020530
H    1.0       20.4738032249       17.5180707551       23.7570725625
C    6.0       19.0080256715       18.2812465305       25.1884493354
H    1.0       19.0307974957       17.3583640490       25.7830444723
H    1.0       17.9565115141       18.5955433097       25.1547088270
C    6.0       19.8286536631       19.3748098050       25.9122085405
H    1.0       19.7918453402       20.2886152681       25.3119318814
C    6.0       21.3022437654       18.9687969854       26.0916359318
H    1.0       21.8026103227       18.8499219462       25.1235252170
H    1.0       21.8504298511       19.7389140711       26.6481353097
H    1.0       21.3891009176       18.0238891065       26.6423150108
N    7.0       19.2174144987       19.7196461496       27.2417094687
H    1.0       19.7342841170       20.4710134386       27.7075338200
H    1.0       19.2156423958       18.9136554380       27.8726842133
H    1.0       18.2478419490       20.0337692906       27.1410145170
 $end
$$$$
! Edit this basic GAMESS input file as needed.
! Conformer was generated by a VeraChem VCPack run 
! and contains     29 atoms.
!
 $contrl scftyp=rhf runtyp=optimize nzvar=0
  maxit=200 icharg=0 $end
 $system mwords=50 $end
 $basis gbasis=pm3 $end
 $statpt nstep=200 $end
 $guess guess=huckel $end
 $data
VM2 Rank=12     G=34.728            E=-2.781            -TS=37.509              
C1
C    6.0       19.0992069237       20.0450514306       19.3977788781
H    1.0       18.2240113439       20.1752558746       20.0462638433
H    1.0       19.7016332199       20.9615579997       19.4439010420
H    1.0       18.7335910159       19.9349794897       18.3686328368
C    6.0       19.9329057240       18.8108123676       19.8102403938
H    1.0       20.7229559087       18.6516311025       19.0630824114
H    1.0       19.3004650772       17.9124141970       19.7852009190
C    6.0       20.5894161694       18.9500223966       21.2048841287
H    1.0       21.2476159269       18.0854544825       21.3679168595
H    1.0       21.2362962070       19.8380474156       21.2187507420
C    6.0       19.5659323758       19.0315977479       22.3627154019
H    1.0       18.8881631260       18.1681539563       22.3146205040
H    1.0       18.9463386347       19.9309194492       22.2501054505
C    6.0       20.2621884913       19.0646887147       23.7421858524
H    1.0       20.8827197423       18.1655888161       23.8508852535
H    1.0       20.9389527530       19.9290934761       23.7901396662
C    6.0       19.2375786818       19.1457355402       24.9004283768
H    1.0       18.6006386795       18.2511964485       24.8947411622
H    1.0       18.5736406397       20.0015657333       24.7202631216
C    6.0       19.8847304063       19.3145400652       26.2940293870
H    1.0       20.5460336991       20.1859141959       26.2621585702
C    6.0       20.7172794126       18.0853298288       26.7004531008
H    1.0       20.1097853616       17.1718592053       26.6849959369
H    1.0       21.5713913608       17.9420085773       26.0286553549
H    1.0       21.1194562403       18.2091072582       27.7135130932
N    7.0       18.8467618151       19.6082219085       27.3412844805
H    1.0       18.1832206157       18.8347635334       27.4374642811
H    1.0       18.3084543454       20.4491814278       27.1134293287
H    1.0       19.2743384672       19.7599741057       28.2593701082
 $end
$$$$
! Edit this basic GAMESS input file as needed.
! Conformer was generated by a VeraChem VCPack run 
! and contains     29 atoms.
!
 $contrl scftyp=rhf runtyp=optimize nzvar=0
  maxit=200 icharg=0 $end
 $system mwords=50 $end
 $basis gbasis=pm3 $end
 $statpt nstep=200 $end
 $guess guess=huckel $end
 $data
VM2 Rank=13     G=34.783            E=-2.727            -TS=37.509              
C1
C    6.0       18.9118869705       18.7267790296       19.3815613252
H    1.0       19.2496035412       17.6822809072       19.3808690736
H    1.0       18.0332613121       18.8041451841       20.0338562339
H    1.0       18.5889762193       18.9759428054       18.3624540642
C    6.0       20.0429406309       19.6761206439       19.8376151567
H    1.0       19.6715249216       20.7102054944       19.8587763331
H    1.0       20.8473211300       19.6535338751       19.0891338591
C    6.0       20.6381786369       19.3054163249       21.2173459120
H    1.0       21.0263706950       18.2780419603       21.1851017361
H    1.0       21.5019727790       19.9564300961       21.4105781666
C    6.0       19.6290287809       19.4460998095       22.3820458075