$$$$
! Edit this basic GAMESS input file as needed.
! Conformer was generated by a VeraChem VCPack run 
! and contains    151 atoms.
!
 $contrl scftyp=rhf runtyp=optimize nzvar=0
  maxit=200 icharg=0 $end
 $system mwords=50 $end
 $basis gbasis=pm3 $end
 $statpt nstep=200 $end
 $guess guess=huckel $end
 $data
FE Rank=1      G=588.088           E=386.348           -TS=201.740              
C1
C    6.0       16.3008705472       15.3433137558       20.4224740396
H    1.0       15.3149027859       15.2175886689       19.9567076616
O    8.0       16.4254063757       16.6225520612       21.0737438400
C    6.0       16.5436549275       14.2506649164       21.4954449673
H    1.0       16.4610164281       13.2754448208       20.9984141476
O    8.0       15.5609093434       14.3372548689       22.5408794440
H    1.0       15.4789409950       15.2924502456       22.7902638551
C    6.0       17.9691991074       14.3670871303       22.0901459673
H    1.0       18.0178051030       15.2924646543       22.6746823951
O    8.0       18.2316209317       13.2482905820       22.9433213043
H    1.0       17.4284371127       13.1572556650       23.5023817278
C    6.0       19.0457377107       14.4509721680       20.9809796707
H    1.0       19.1427820026       13.4622570215       20.5135180822
C    6.0       18.6842266443       15.5006133678       19.8931547285
H    1.0       18.7210249675       16.4997144824       20.3446650363
O    8.0       17.3404460994       15.2387516859       19.4252367085
C    6.0       19.6313654376       15.5282441557       18.6654466892
H    1.0       20.4489408729       16.2294008362       18.8713612256
H    1.0       19.0780546262       15.9337050612       17.8078793528
O    8.0       20.1725571861       14.2438490550       18.3356653349
H    1.0       20.8898068676       14.0595575263       18.9860076498
C    6.0       14.5947179963       20.3131375471       21.3444253965
H    1.0       13.9212867055       21.1799129721       21.3420474872
O    8.0       15.9732285585       20.7013864158       21.5058164769
C    6.0       14.2387527798       19.3333547064       22.4908193583
H    1.0       13.2211326669       18.9645823100       22.3077379618
O    8.0       14.2807166666       19.9892097144       23.7681982128
H    1.0       15.1316994083       20.4948387422       23.8168662554
C    6.0       15.1998072399       18.1207153281       22.4715906958
H    1.0       16.2053392005       18.4880734672       22.7103137576
O    8.0       14.7883502543       17.1579880823       23.4486342196
H    1.0       14.6021497108       17.6810565174       24.2595511245
C    6.0       15.2507675216       17.4557102679       21.0744941755
H    1.0       14.3317112180       16.8693835716       20.9428906987
C    6.0       15.3992726557       18.4862140359       19.9178418089
H    1.0       16.4265929205       18.8737011617       19.9353910137
O    8.0       14.4745419767       19.5868291843       20.1036688256
C    6.0       15.1573093941       17.8864978110       18.5113952723
H    1.0       16.0111864129       17.2471158937       18.2513552068
H    1.0       15.1330871851       18.7066560073       17.7814584843
O    8.0       13.9431640441       17.1272720775       18.4470319268
H    1.0       13.8221887703       16.8381927688       17.5162920531
C    6.0       18.5418684995       23.9041234299       21.7560437730
H    1.0       19.0326246884       24.8808267910       21.8536300291
O    8.0       19.4613874510       22.8869854483       21.3127079745
C    6.0       17.9460052878       23.4646372078       23.1158593286
H    1.0       17.1910127079       24.2105177595       23.3966260987
O    8.0       18.9635236245       23.4164201899       24.1306629730
H    1.0       19.7296545755       23.9376754739       23.7851247607
C    6.0       17.2439872294       22.0920182117       22.9780924487
H    1.0       18.0061912601       21.3355997335       22.7574343506
O    8.0       16.5890466342       21.7666316403       24.2077319811
H    1.0       17.2359350469       22.0086243129       24.9067444100
C    6.0       16.2261435036       22.0856313307       21.8106676369
H    1.0       15.3197816404       22.6124998729       22.1370542258
C    6.0       16.7862777065       22.7318572736       20.5107981667
H    1.0       17.5093129079       22.0324009195       20.0719488307
O    8.0       17.4609049266       23.9812525349       20.8041465607
C    6.0       15.7007948642       22.9994896221       19.4407259678
H    1.0       15.3635178253       22.0349509842       19.0377118727
H    1.0       16.1556629133       23.5579149152       18.6116640241
O    8.0       14.5824759672       23.7204902601       19.9736068042
H    1.0       13.9669123319       23.9059064098       19.2311139633
C    6.0       23.5423629411       22.4964805868       20.5386692386
H    1.0       24.5639868736       22.6178372421       20.1558535885
O    8.0       23.3731024760       21.2383377329       21.2186404061
C    6.0       23.1811614034       23.6296088929       21.5355267474
H    1.0       23.2649065034       24.5803541819       20.9931972794
O    8.0       24.0839080786       23.6452834565       22.6531899788
H    1.0       24.1252065445       22.7240627473       23.0162578782
C    6.0       21.7180613191       23.4880943052       22.0274323775
H    1.0       21.6552868487       22.5757703175       22.6311096489
O    8.0       21.3803623106       24.6222665434       22.8341770310
H    1.0       22.1727293146       24.7761597482       23.3972412373
C    6.0       20.7374234472       23.3459735267       20.8306945381
H    1.0       20.6492695140       24.3142859668       20.3214221228
C    6.0       21.2177351100       22.2772402763       19.8137262509
H    1.0       21.1511404689       21.2916271198       20.2936649674
O    8.0       22.5938720870       22.5430229500       19.4501469485
C    6.0       20.3594703114       22.2068454515       18.5252466104
H    1.0       19.4428472467       21.6459168101       18.7502035686
H    1.0       20.9104645175       21.6324033412       17.7688420108
O    8.0       20.0158458685       23.4992821078       18.0106808659
H    1.0       19.3642042320       23.8954505248       18.6294386858
C    6.0       25.1621332888       17.6802832676       22.1479684268
H    1.0       25.8113604418       16.8251282688       22.3754289409
O    8.0       23.7753725856       17.2964154421       22.0655407780
C    6.0       25.2925704216       18.7492980110       23.2570976120
H    1.0       26.3308827278       19.1055583867       23.2621187930
O    8.0       24.9726573285       18.1826307434       24.5382660358
H    1.0       24.3300239537       17.4475042540       24.3782249162
C    6.0       24.3701591724       19.9499288431       22.9525981050
H    1.0       23.3378753841       19.5958706361       23.0390560286
O    8.0       24.6025665355       20.9940085461       23.9033791275
H    1.0       24.5956597747       20.5463738265       24.7785550061
C    6.0       24.5679803502       20.4913505398       21.5153414691
H    1.0       25.4664863020       21.1224836134       21.5013649307
C    6.0       24.6752427828       19.3682218840       20.4423314337
H    1.0       23.6649227811       18.9719395633       20.2792001415
O    8.0       25.5351864237       18.2898882332       20.8954784620
C    6.0       25.1948874625       19.8656307470       19.0723257763
H    1.0       24.4145341310       20.4815266908       18.6052249337
H    1.0       25.3559811882       18.9956441432       18.4215847529
O    8.0       26.4036811139       20.6248429623       19.1970196654
H    1.0       26.7154299836       20.8400365271       18.2908840654
C    6.0       21.3530773019       13.9326047314       21.5826465673
H    1.0       20.9963196402       12.9053789723       21.4329187429
O    8.0       20.2602022937       14.8688438046       21.6299688157
C    6.0       22.1136545949       14.0303035388       22.9291314125
H    1.0       22.9517786611       13.3223949060       22.8918607759
O    8.0       21.2434439675       13.6832254941       24.0180221910
H    1.0       20.3221295073       13.8644224255       23.7116433105
C    6.0       22.6911452331       15.4500451336       23.1324872637
H    1.0       21.8480609415       16.1420823927       23.2463836526
O    8.0       23.5064687299       15.4799062640       24.3084239431
H    1.0       22.9801259243       15.0102553039       24.9931520110
C    6.0       23.5143683286       15.8923985344       21.9002817331
H    1.0       24.4364861583       15.2978253692       21.8588437924
C    6.0       22.7151881874       15.7022334528       20.5830134410
H    1.0       21.8582751282       16.3873360016       20.6114165129
O    8.0       22.2369981684       14.3340489826       20.5115361312
C    6.0       23.5053144425       16.0194385758       19.2864850653
H    1.0       23.3855554773       17.0855084448       19.0571711090
H    1.0       23.0513999161       15.4641871335       18.4547401837
O    8.0       24.8993568406       15.7065703714       19.3820728725
H    1.0       25.3259722539       16.4507040868       19.8668327144
C    6.0       18.4867872061       17.8283909787       24.1638698818
H    1.0       17.9013328491       18.6585808365       24.5731586111
H    1.0       17.7260800716       17.1209405196       23.8140183908
C    6.0       19.3006603122       18.2844068880       22.9247790172
H    1.0       19.4921388100       17.3964879442       22.3110820166
H    1.0       18.6763461433       18.9451341421       22.3084371618
C    6.0       20.6701118969       18.9602216617       23.1848140580
H    1.0       21.1465744033       19.1261979400       22.2092344770
H    1.0       21.3400357485       18.2721910759       23.7103336388
C    6.0       20.6339341220       20.3210595466       23.9236396889
H    1.0       21.6596345211       20.7044076837       23.9762439822
H    1.0       20.0792216966       21.0373847538       23.3117148379
C    6.0       20.0584425894       20.3324572663       25.3584120680
H    1.0       18.9668600240       20.2602165742       25.3138989289
C    6.0       20.6080249173       19.2057489562       26.2705140637
H    1.0       21.5671587551       18.8323677673       25.8918548398
H    1.0       20.8363303531       19.6365216111       27.2544748863
C    6.0       19.6236605149       18.0287526323       26.5051377363
H    1.0       18.6851537661       18.4202214742       26.9206210547
H    1.0       20.0493526237       17.3870851956       27.2882566957
C    6.0       19.3067348922       17.1319255655       25.2797457217
H    1.0       18.7126854046       16.2836457219       25.6460186319
H    1.0       20.2236912967       16.6842645106       24.8778762216
O    8.0       20.3799070537       21.5910573445       25.9377038962
H    1.0       19.9294291352       22.2717953584       25.3854605011
 $end
$$$$
! Edit this basic GAMESS input file as needed.
! Conformer was generated by a VeraChem VCPack run 
! and contains    151 atoms.
!
 $contrl scftyp=rhf runtyp=optimize nzvar=0
  maxit=200 icharg=0 $end
 $system mwords=50 $end
 $basis gbasis=pm3 $end
 $statpt nstep=200 $end
 $guess guess=huckel $end
 $data
FE Rank=2      G=588.208           E=386.749           -TS=201.459              
C1
C    6.0       15.9164602195       14.9196431722       21.0017521798
H    1.0       14.8463729376       14.8603948151       20.7648940313
O    8.0       16.2753283036       16.2045145083       21.5426252344
C    6.0       16.3017135982       13.8467818610       22.0459052181
H    1.0       16.0598805202       12.8657390340       21.6167848667
O    8.0       15.5505374672       14.0412997078       23.2559754233
H    1.0       15.5464671288       15.0137635211       23.4386824851
C    6.0       17.8205082447       13.8779241274       22.3510163124
H    1.0       18.0157753655       14.7750499529       22.9451507471
O    8.0       18.1675888585       12.7284825578       23.1302368809
H    1.0       17.5013520305       12.6939922578       23.8514937558
C    6.0       18.7113258080       13.9379152345       21.0774502916
H    1.0       18.8160426883       12.9124105185       20.7006744844
C    6.0       18.1358724594       14.8592410055       19.9531281631
H    1.0       18.3398285107       15.9035759692       20.2242138124
O    8.0       16.7062524894       14.6710234486       19.8268615195
C    6.0       18.7221216337       14.6147771425       18.5391531951
H    1.0       19.7012218977       15.0974925926       18.4613921236
H    1.0       18.0733232208       15.1134196674       17.8065691364
O    8.0       18.8324505051       13.2206589171       18.2246756663
H    1.0       19.1712539939       13.1492818699       17.3059074634
C    6.0       14.9987862474       20.1551452152       21.6892817670
H    1.0       14.3958902137       21.0726213254       21.7018433394
O    8.0       16.4077620349       20.4617740948       21.7030151494
C    6.0       14.6532056341       19.2972350107       22.9313585687
H    1.0       13.5785076893       19.0772212228       22.8908770958
O    8.0       14.9450854735       20.0240655207       24.1356614950
H    1.0       15.4394646911       20.8336742485       23.8621625383
C    6.0       15.4178927756       17.9549750433       22.9121351555
H    1.0       16.4796033550       18.1815245772       23.0520415371
O    8.0       14.9598982481       17.1186639362       23.9806069533
H    1.0       14.9562813857       17.7011094327       24.7721420065
C    6.0       15.2497421012       17.2169320313       21.5621831239
H    1.0       14.2419499830       16.7824801527       21.5292680058
C    6.0       15.4718740020       18.1549092278       20.3420752741
H    1.0       16.5422161835       18.3875260899       20.2960713632
O    8.0       14.7211170701       19.3867002840       20.5003082233
C    6.0       15.0695659880       17.5279974518       18.9849433908
H    1.0       15.8144645080       16.7704243952       18.7115888814
H    1.0       15.1073807939       18.3074346349       18.2121687535
O    8.0       13.7647763437       16.9368181603       19.0295396165
H    1.0       13.5590923239       16.6021146114       18.1296818480
C    6.0       18.6601550156       23.9610169254       20.8041015700
H    1.0       18.8767371883       24.9240790963       20.3240751833
O    8.0       19.7904558586       23.5076940702       21.5739368898
C    6.0       17.4617509739       24.1150373924       21.7844191610
H    1.0       16.6352915889       24.5670198704       21.2207607930
O    8.0       17.8204614835       24.9797429199       22.8730490111
H    1.0       18.7488140668       24.7464332242       23.1103835035
C    6.0       16.9705699269       22.7479832587       22.3315179269
H    1.0       17.7491985311       22.3356355829       22.9871409628
O    8.0       15.7602009290       22.9354927445       23.0729717719
H    1.0       15.9315483350       23.7111317910       23.6522010871
C    6.0       16.7438730110       21.7567856232       21.1659503714
H    1.0       15.9410134986       22.1397284025       20.5213708983
C    6.0       18.0335341833       21.6409286930       20.3196422622
H    1.0       18.8524799629       21.2953640294       20.9616510665
O    8.0       18.3319423488       22.9613034456       19.8126198032
C    6.0       17.9312267172       20.6639534754       19.1227460500
H    1.0       18.1375142318       19.6501164622       19.4874409749
H    1.0       18.7229272444       20.9081256089       18.4022838466
O    8.0       16.6490412267       20.7007759139       18.4819641630
H    1.0       15.9832572879       20.3881815366       19.1370259775
C    6.0       23.8562502534       22.9745650747       21.2484168517
H    1.0       24.9394268761       23.0190694779       21.0767952282
O    8.0       23.4334473357       21.6628629960       21.6778387331
C    6.0       23.4369854847       23.9990001843       22.3258338128
H    1.0       23.6978710073       24.9980007667       21.9528683470
O    8.0       24.1316468424       23.7546863416       23.5604065251
H    1.0       24.1189596075       22.7775110447       23.7221353780
C    6.0       21.9078417837       23.9546372765       22.5483193298
H    1.0       21.6780674287       22.9965186468       23.0232429142
O    8.0       21.5282550892       25.0191580217       23.4267534285
H    1.0       22.1742105502       24.9839626115       24.1664315751
C    6.0       21.0921682232       24.0402063816       21.2284716798
H    1.0       21.0246877134       25.0991378214       20.9483538576
C    6.0       21.7122249097       23.2134359303       20.0523236830
H    1.0       21.4369972618       22.1610027656       20.1865017657
O    8.0       23.1565772271       23.3239795804       20.0421753207
C    6.0       21.2484540351       23.6438338093       18.6366470906
H    1.0       20.2483108197       23.2455580105       18.4396824937
H    1.0       21.9165764165       23.1778053509       17.8999415577
O    8.0       21.2523610604       25.0673954697       18.4683677095
H    1.0       21.0085075101       25.2569098754       17.5362292696
C    6.0       24.7635657874       17.7662458867       22.0813540974
H    1.0       25.3569998532       16.8475521958       22.1774263074
O    8.0       23.3550934951       17.4643417902       21.9737091346
C    6.0       24.9963340141       18.6585002244       23.3244220823
H    1.0       26.0680308585       18.8917813397       23.3706166431
O    8.0       24.6067409791       17.9602771474       24.5174018744
H    1.0       24.0882007810       17.1745889241       24.2238766680
C    6.0       24.2191486706       19.9863964038       23.2005982902
H    1.0       23.1575958551       19.7414509990       23.2531929221
O    8.0       24.5611163018       20.8564405085       24.2835003215
H    1.0       24.5262297096       20.2873136100       25.0844927088
C    6.0       24.4892831852       20.6925993174       21.8508494133
H    1.0       25.4804599017       21.1620251876       21.9054686696
C    6.0       24.4284669037       19.7240970249       20.6370257216
H    1.0       23.3764110598       19.4745253857       20.4678839964
O    8.0       25.1634296446       18.5026690822       20.9060346637
C    6.0       24.9711092334       20.3430132499       19.3263328899
H    1.0       24.2638849385       21.1097778034       18.9831031783
H    1.0       25.0028861667       19.5631052598       18.5538199324
O    8.0       26.2698478194       20.9227655004       19.5021313410
H    1.0       26.5712661509       21.2483119428       18.6261398866
C    6.0       21.1650395855       13.9936394284       20.8559771573
H    1.0       20.9736519391       13.0351229660       20.3566285539
O    8.0       19.9820766856       14.4643742134       21.5331291089
C    6.0       22.2795085421       13.8159830183       21.9252523106
H    1.0       23.1424916018       13.3592446628       21.4235204969
O    8.0       21.8265053608       12.9449596728       22.9730355722
H    1.0       20.8775128006       13.1678984010       23.1227729732
C    6.0       22.7418781056       15.1717942535       22.5213064215
H    1.0       21.9221186219       15.5825072748       23.1238308778
O    8.0       23.8897461559       14.9609236795       23.3501224969
H    1.0       23.6639664458       14.1845861773       23.9092425497
C    6.0       23.0691871088       16.1763982628       21.3898373627
H    1.0       23.9305550136       15.7986576726       20.8223986239
C    6.0       21.8689419669       16.3048330870       20.4189254212
H    1.0       20.9963191550       16.6790437928       20.9676858334
O    8.0       21.5928407282       14.9854112089       19.8964165062
C    6.0       22.1079899689       17.2578522426       19.2218381193
H    1.0       21.8794080008       18.2813876884       19.5434636479
H    1.0       21.3907935514       17.0109323110       18.4282556121
O    8.0       23.4468603321       17.1885316099       18.7134377464
H    1.0       24.0481446215       17.5117403438       19.4233321342
C    6.0       20.3715116220       17.9004991683       25.5369295697
H    1.0       20.5374608837       17.2750228001       26.4244381819
H    1.0       21.2511297361       17.7189418479       24.9088123250
C    6.0       20.3348530063       19.3738023246       26.0183987969
H    1.0       19.7690454648       19.4038420223       26.9593465465
H    1.0       21.3549263574       19.6909885889       26.2740499629
C    6.0       19.6974826865       20.4136005279       25.0636808873
H    1.0       19.6602103537       21.3715409454       25.5996214198
H    1.0       18.6477578559       20.1653383099       24.8692842460
C    6.0       20.4548537369       20.6592628993       23.7357119500
H    1.0       19.9496545074       21.4855048311       23.2236576317
H    1.0       21.4630955664       21.0138761634       23.9772159946
C    6.0       20.5623433463       19.4754288628       22.7446992394
H    1.0       21.3159177832       18.7662325741       23.1006848774
C    6.0       19.2414793492       18.7092510705       22.5345126575
H    1.0       18.3916461416       19.3404948044       22.8064932800
H    1.0       19.1204100254       18.4960311979       21.4648358447
C    6.0       19.1701019135       17.3581605337       23.2852990667
H    1.0       20.0169169232       16.7303144723       22.9920782255
H    1.0       18.2800791121       16.8429389178       22.9221855108
C    6.0       19.0833770729       17.4041367987       24.8311405267
H    1.0       18.8948748374       16.3765557722       25.1705018285
H    1.0       18.2051995900       17.9768700384       25.1554569499
O    8.0       20.9955661898       19.9918514861       21.4915039961
H    1.0       21.7771272180       20.5562486448       21.6748897736
 $end
$$$$
! Edit this basic GAMESS input file as needed.
! Conformer was generated by a VeraChem VCPack run 
! and contains    151 atoms.
!
 $contrl scftyp=rhf runtyp=optimize nzvar=0
  maxit=200 icharg=0 $end
 $system mwords=50 $end
 $basis gbasis=pm3 $end
 $statpt nstep=200 $end
 $guess guess=huckel $end
 $data
FE Rank=3      G=588.890           E=386.387           -TS=202.503              
C1
C    6.0       15.9417949624       15.0073163379       21.6203741283
H    1.0       14.8633205687       14.8104557237       21.6703360800
O    8.0       16.2184517509       16.4191295799       21.7391743678
C    6.0       16.6622978366       14.2415877509       22.7594806911
H    1.0       16.4922374973       13.1702649232       22.5914501214
O    8.0       16.1393982561       14.6047499138       24.0452064981
H    1.0       16.3692106437       15.5573961596       24.1862233814
C    6.0       18.1825351960       14.4995217495       22.7139450933
H    1.0       18.3407801146       15.5557332170       22.9514551640
O    8.0       18.8487598424       13.6772020696       23.6785143977
H    1.0       18.3307047292       13.7857965465       24.5061779963
C    6.0       18.7777131766       14.2411952762       21.3132647956
H    1.0       18.9164226817       13.1588984796       21.1898005444
C    6.0       17.9048575141       14.8152275882       20.1617009154
H    1.0       18.0563433597       15.9013842250       20.1605257853
O    8.0       16.4948415931       14.5354704501       20.3735209580
C    6.0       18.2972519658       14.2883184654       18.7595476587
H    1.0       19.2562442968       14.7383938051       18.4705779001
H    1.0       17.5476419864       14.6287491739       18.0327775516
O    8.0       18.4012526679       12.8597128121       18.7297634727
H    1.0       18.5728936726       12.5922381383       17.8005408616
C    6.0       14.8122212231       20.2158632229       20.7793841754
H    1.0       14.2490069821       21.0846153970       20.4148070754
O    8.0       16.1181697670       20.5868578811       21.2640192997
C    6.0       14.0534800602       19.5081163260       21.9268587759
H    1.0       13.0851762625       19.1802224816       21.5269034169
O    8.0       13.8306655223       20.4032499850       23.0286218904
H    1.0       14.6930484067       20.8492582241       23.2281703026
C    6.0       14.8252284426       18.2523045207       22.3988338702
H    1.0       15.7498632102       18.5908735333       22.8809969647
O    8.0       14.0189671548       17.5439870896       23.3444612398
H    1.0       13.6644096129       18.2318806680       23.9494758245
C    6.0       15.2155404110       17.3211178828       21.2182271420
H    1.0       14.3129669381       16.7878210320       20.8929978931
C    6.0       15.8182027715       18.1145810441       20.0156517371
H    1.0       16.8176502347       18.4673625968       20.3026469757
O    8.0       14.9774703566       19.2550563009       19.7195723155
C    6.0       15.9724690342       17.3249280931       18.6885720400
H    1.0       16.9872773886       16.9183265524       18.6315789242
H    1.0       15.8814491265       18.0316810473       17.8527777278
O    8.0       15.0141502378       16.2724359930       18.5339889286
H    1.0       15.3145475705       15.5273636257       19.1057666885
C    6.0       18.6394842942       23.8665078634       21.5688744242
H    1.0       19.0662164827       24.8766568974       21.6188703231
O    8.0       19.6679099781       22.8587794725       21.5503467851
C    6.0       17.7368705601       23.6175305385       22.8012222199
H    1.0       16.9351066026       24.3670888957       22.7809235913
O    8.0       18.4898981838       23.7563502988       24.0178093798
H    1.0       19.4040704790       24.0270584142       23.7593768653
C    6.0       17.0938599662       22.2151686730       22.7239750224
H    1.0       17.8988888837       21.4763707905       22.8046634624
O    8.0       16.1705649420       22.0495997542       23.8047677764
H    1.0       16.6545676326       22.3766268401       24.5960114280
C    6.0       16.3765604143       21.9999612547       21.3705247891
H    1.0       15.4506294852       22.5904417809       21.3724194088
C    6.0       17.2655205658       22.4018696943       20.1598935819
H    1.0       18.0692231121       21.6598945382       20.0745197836
O    8.0       17.8488603715       23.7129548912       20.3714685069
C    6.0       16.5072012619       22.4198204239       18.8109336578
H    1.0       16.2831914928       21.3841442969       18.5221051846
H    1.0       17.1703563847       22.8357079162       18.0404943396
O    8.0       15.2926659262       23.1770704951       18.8855779339
H    1.0       14.9016135909       23.2017510451       17.9851116093
C    6.0       23.8527850546       22.7914928665       21.2225096056
H    1.0       24.8829936279       23.0220322344       20.9216366627
O    8.0       23.8011378855       21.6197332021       22.0569760123
C    6.0       23.2606741301       23.9574543328       22.0590446535
H    1.0       23.3078808668       24.8661508186       21.4449036760
O    8.0       24.0280786421       24.1477894679       23.2571073962
H    1.0       24.1685503475       23.2481867562       23.6339574085
C    6.0       21.7768104581       23.6923383241       22.4205108647
H    1.0       21.7386467850       22.8395491973       23.1106145097
O    8.0       21.2253258355       24.8493981186       23.0585888971
H    1.0       21.9130499679       25.1411582309       23.6984343114
C    6.0       20.9663652357       23.3275064084       21.1519315131
H    1.0       20.8947085689       24.2139281711       20.5075049319
C    6.0       21.6441156463       22.1858883342       20.3546040686
H    1.0       21.6491569797       21.2786325954       20.9705972829
O    8.0       23.0055308312       22.5809237718       20.0674518886
C    6.0       20.9239447137       21.8265138635       19.0292432635
H    1.0       20.1399329345       21.0915981908       19.2532921617
H    1.0       21.6418021924       21.3342645914       18.3597390858
O    8.0       20.3393913658       22.9629993392       18.3798358547
H    1.0       19.6197278671       23.2962985248       18.9628521055
C    6.0       25.0409419992       17.7141119035       21.8664104011
H    1.0       25.5673491295       16.7513299351       21.8284755663
O    8.0       23.6122039784       17.5379656552       21.7724820047
C    6.0       25.3909890500       18.4340248920       23.1846945854
H    1.0       26.4734184282       18.6170282537       23.1843681614
O    8.0       25.0478320818       17.6145390210       24.3140790626
H    1.0       24.5058264114       16.8630621314       23.9699228638
C    6.0       24.6748070507       19.7970063369       23.2611772752
H    1.0       23.6021018261       19.5945718389       23.3560952594
O    8.0       25.1322728516       20.5009992656       24.4202749831
H    1.0       25.0845736760       19.8424143273       25.1477648816
C    6.0       24.8831401739       20.6634668192       21.9893641204
H    1.0       25.8570945561       21.1630497922       22.0682374104
C    6.0       24.7996505611       19.8451102859       20.6565974164
H    1.0       23.7387392324       19.6823443423       20.4344147495
O    8.0       25.4592184445       18.5578739489       20.7799678122
C    6.0       25.4459364197       20.5319696207       19.4248459054
H    1.0       24.7843765230       21.3188070847       19.0481362524
H    1.0       25.5323179473       19.7890050534       18.6203359078
O    8.0       26.7347796456       21.0811433850       19.7247035260
H    1.0       27.1178194804       21.4182411325       18.8854901203
C    6.0       21.1217736820       14.3185898072       20.6231085661
H    1.0       20.8011707028       13.3973975553       20.1194742632
O    8.0       20.0281250453       14.9568342196       21.3025619221
C    6.0       22.2129327770       14.0115492801       21.6865685769
H    1.0       23.0318126327       13.4923286932       21.1719632193
O    8.0       21.6952181522       13.1606896777       22.7229655758
H    1.0       20.8075917902       13.5151416671       22.9834099295
C    6.0       22.7886785440       15.3139998435       22.3002161789
H    1.0       22.0014552312       15.7984996830       22.8920746435
O    8.0       23.9031876267       14.9964153320       23.1409877031