$$$$
! Edit this basic GAMESS input file as needed.
! Conformer was generated by a VeraChem VCPack run 
! and contains    149 atoms.
!
 $contrl scftyp=rhf runtyp=optimize nzvar=0
  maxit=200 icharg=0 $end
 $system mwords=50 $end
 $basis gbasis=pm3 $end
 $statpt nstep=200 $end
 $guess guess=huckel $end
 $data
FE Rank=1      G=568.108           E=369.359           -TS=198.749              
C1
C    6.0       16.2048321153       15.3651815624       21.6779259587
H    1.0       15.1225802874       15.2674485226       21.8322357313
O    8.0       16.5427770725       16.6108233598       21.0338506750
C    6.0       16.9545165755       15.2755254778       23.0315946860
H    1.0       16.7537112313       14.2788842401       23.4461172807
O    8.0       16.4968130088       16.2721200781       23.9621525278
H    1.0       15.6467215129       16.6250281294       23.5989643286
C    6.0       18.4784412346       15.4078097455       22.8110683701
H    1.0       18.6788622581       16.4232143371       22.4513468215
O    8.0       19.1462136551       15.1965519606       24.0573020149
H    1.0       18.5669624846       15.6326822123       24.7190420290
C    6.0       18.9925427333       14.4080915994       21.7444830247
H    1.0       19.0456467003       13.4116027242       22.2031328320
C    6.0       18.0910390327       14.3615345286       20.4765131252
H    1.0       18.2634233713       15.2828120808       19.9048544071
O    8.0       16.6901386670       14.2912085597       20.8461122842
C    6.0       18.4087707062       13.1749342281       19.5351038126
H    1.0       19.3779307147       13.3622821843       19.0531476276
H    1.0       17.6505085312       13.1452037785       18.7411764366
O    8.0       18.4477731050       11.9244034040       20.2342481470
H    1.0       18.5715672768       11.2140202890       19.5673412193
C    6.0       14.8689891634       20.2876983394       20.1567850410
H    1.0       14.2748738827       21.1390039944       19.8004616060
O    8.0       16.1714780841       20.7101861338       20.6158366810
C    6.0       14.1251128625       19.5105750106       21.2770537395
H    1.0       13.2121347280       19.1007308172       20.8254757080
O    8.0       13.7506202461       20.3542906709       22.3755527008
H    1.0       14.5912885269       20.6451486261       22.8104913878
C    6.0       14.9801198121       18.3202158957       21.7742910763
H    1.0       15.8761675385       18.7228800206       22.2661698611
O    8.0       14.2091756398       17.5604287599       22.7119773551
H    1.0       13.7233849472       18.2314478683       23.2437289577
C    6.0       15.4393381764       17.4243840866       20.5909132816
H    1.0       14.5940429363       16.8086988604       20.2582846077
C    6.0       15.9745069699       18.2472932060       19.3856878422
H    1.0       16.9545251323       18.6532116517       19.6625062495
O    8.0       15.0788875484       19.3462972728       19.0827120810
C    6.0       16.1891381205       17.4057619630       18.1033948518
H    1.0       17.0663478903       16.7616716402       18.2509163068
H    1.0       16.4244735891       18.0880369418       17.2758219923
O    8.0       15.0509449295       16.6023273253       17.7686498872
H    1.0       15.0293312771       15.8453168383       18.3926987390
C    6.0       18.4175041423       23.8252652014       22.1116562696
H    1.0       18.8021586429       24.7595639416       22.5403180666
O    8.0       19.4787984100       23.0110120116       21.5733179456
C    6.0       17.6509328823       23.0163166504       23.1884078277
H    1.0       16.8151711571       23.6426968306       23.5268252912
O    8.0       18.4849779672       22.6947059890       24.3133394300
H    1.0       19.2743177442       23.2869167746       24.2698394877
C    6.0       17.0687164083       21.7172791804       22.5911233522
H    1.0       17.9077907273       21.0599284338       22.3341997166
O    8.0       16.2518004891       21.0892706641       23.5836875265
H    1.0       16.7555147545       21.2089115211       24.4196275219
C    6.0       16.2599857584       21.9785505904       21.2957548088
H    1.0       15.2732669995       22.3766575176       21.5660467961
C    6.0       16.9788989021       22.9592079553       20.3248609002
H    1.0       17.8192990760       22.4246652373       19.8645006327
O    8.0       17.4914321859       24.1106052057       21.0427639765
C    6.0       16.0743525375       23.4598696251       19.1734880966
H    1.0       15.8953451690       22.6243478897       18.4833183726
H    1.0       16.6159126856       24.2345430843       18.6141978209
O    8.0       14.8236403330       23.9717258531       19.6502861985
H    1.0       14.3400065742       24.3425919766       18.8800283899
C    6.0       23.6303343671       22.8467783951       21.6106006259
H    1.0       24.7036798181       23.0662635450       21.5457324370
O    8.0       23.3846252422       21.4421704355       21.8147947015
C    6.0       23.0151870127       23.6037088006       22.8109280929
H    1.0       23.1767958748       24.6766860226       22.6438697101
O    8.0       23.6620871046       23.2082434263       24.0312562849
H    1.0       23.9327689326       22.2640200849       23.9180316063
C    6.0       21.4905569152       23.3567019102       22.9061889624
H    1.0       21.3347721189       22.3064747372       23.1853084899
O    8.0       20.9530420144       24.2110846237       23.9212155600
H    1.0       21.6065729374       24.1696269003       24.6563263530
C    6.0       20.7892433513       23.6104073877       21.5428779842
H    1.0       20.7328189792       24.6917431610       21.3635279272
C    6.0       21.5370180311       22.9382985257       20.3595009657
H    1.0       21.4156931408       21.8527264017       20.4579735209
O    8.0       22.9484222635       23.2623186856       20.4090280915
C    6.0       20.9811692581       23.3304034748       18.9674379956
H    1.0       20.0259850489       22.8113350091       18.8132401361
H    1.0       21.6747207719       22.9665060084       18.1979797636
O    8.0       20.7885942239       24.7423720896       18.8243233638
H    1.0       19.9998874745       24.9875550764       19.3545658828
C    6.0       25.0825977956       17.7028396416       21.1200344720
H    1.0       25.7545481978       16.8785242725       20.8486752101
O    8.0       23.7599591779       17.2334747875       21.4551535501
C    6.0       25.6280753253       18.4676158625       22.3527915662
H    1.0       26.6159781434       18.8646960495       22.0854617400
O    8.0       25.7606334309       17.5915462417       23.4839071141
H    1.0       24.9618072269       17.0054707959       23.5010675045
C    6.0       24.7085867544       19.6640350168       22.6995691037
H    1.0       23.7431017123       19.2663189921       23.0404324668
O    8.0       25.3023642190       20.4445408129       23.7425602985
H    1.0       25.6115208699       19.7897135374       24.4075037504
C    6.0       24.4578553167       20.5526829202       21.4563168858
H    1.0       25.3863299962       21.0936744081       21.2310536255
C    6.0       24.0298287873       19.7179362592       20.2147327328
H    1.0       23.0398708920       19.2893451465       20.4051750274
O    8.0       24.9754016677       18.6397648948       20.0259146697
C    6.0       23.9241916492       20.5115400998       18.8872932662
H    1.0       22.9139697617       20.9313318113       18.8110157401
H    1.0       24.0390361926       19.8088215747       18.0512122800
O    8.0       24.8873024849       21.5647358990       18.7776876240
H    1.0       24.4928451572       22.3534631847       19.2154811095
C    6.0       21.3278075108       13.8807139414       21.2272174809
H    1.0       20.9096860940       12.8738136791       21.1002016280
O    8.0       20.2888043280       14.8781000704       21.3202664780
C    6.0       22.2224608518       13.9579297219       22.4927630573
H    1.0       23.0571417604       13.2606889335       22.3430551469
O    8.0       21.5083102148       13.5770783272       23.6783354007
H    1.0       20.7244270950       14.1776786967       23.7567099971
C    6.0       22.8123834498       15.3801563632       22.6431206345
H    1.0       21.9843121157       16.0773909752       22.8197141887
O    8.0       23.7184561570       15.4121162869       23.7506320864
H    1.0       23.2633396716       14.9169327120       24.4679706866
C    6.0       23.5457222279       15.8131219245       21.3507622278
H    1.0       24.4904693401       15.2564874450       21.2941675675
C    6.0       22.7033898435       15.5534166731       20.0700258057
H    1.0       21.8774434058       16.2762889451       20.0486819529
O    8.0       22.1590013937       14.2101251796       20.0945038607
C    6.0       23.5058229036       15.7264252674       18.7578948718
H    1.0       23.7051893098       16.7956877689       18.6085369902
H    1.0       22.8812782378       15.3921826326       17.9187011102
O    8.0       24.7415552513       15.0001639589       18.7794686884
H    1.0       25.1730536514       15.1216315266       17.9057659193
N    7.0       17.5235262904       17.9488710758       26.1434960204
H    1.0       17.0067957209       18.8265971343       26.2507273972
H    1.0       17.5037510533       17.4681058397       27.0481301425
H    1.0       16.9930772327       17.3654046781       25.4758105788
C    6.0       18.9359464294       18.1802674767       25.6502505104
H    1.0       19.4257821558       17.2063981525       25.5735898178
H    1.0       19.4719086102       18.7770054981       26.3930679052
C    6.0       18.9737551742       18.8844799722       24.2846388305
H    1.0       18.2296084549       18.4262156793       23.6229385949
H    1.0       18.6858290906       19.9346967571       24.4127394601
C    6.0       20.3764975700       18.8011874700       23.6440554724
H    1.0       20.6777110759       17.7502228150       23.5485578822
H    1.0       21.1046835696       19.2725781031       24.3186932355
C    6.0       20.4584503863       19.4918698254       22.2634216002
H    1.0       20.1097353897       20.5272865698       22.3533995107
H    1.0       21.5124258263       19.5473048127       21.9727207969
C    6.0       19.6688177079       18.7628005003       21.1505507528
H    1.0       18.6076049904       18.6887256979       21.4211701965
H    1.0       20.0444084374       17.7356495893       21.0449204996
C    6.0       19.7837935843       19.4924964192       19.7964072955
H    1.0       20.8300085306       19.5802554283       19.4806317712
H    1.0       19.3538212239       20.5001854420       19.8603960898
H    1.0       19.2434574314       18.9450246248       19.0139701019
 $end
$$$$
! Edit this basic GAMESS input file as needed.
! Conformer was generated by a VeraChem VCPack run 
! and contains    149 atoms.
!
 $contrl scftyp=rhf runtyp=optimize nzvar=0
  maxit=200 icharg=0 $end
 $system mwords=50 $end
 $basis gbasis=pm3 $end
 $statpt nstep=200 $end
 $guess guess=huckel $end
 $data
FE Rank=2      G=568.290           E=371.173           -TS=197.117              
C1
C    6.0       16.2457551185       15.3030452765       20.6655377749
H    1.0       15.2206225506       15.0950510471       20.3325764242
O    8.0       16.4045396477       16.6721246931       21.0861645283
C    6.0       16.6504433275       14.3825468282       21.8476169853
H    1.0       16.6079127884       13.3483786525       21.4816168704
O    8.0       15.7499215401       14.5165447447       22.9576223833
H    1.0       15.6709479812       15.4822648060       23.1648440439
C    6.0       18.1085708646       14.6694057957       22.2877138974
H    1.0       18.1573723619       15.6931704596       22.6841496161
O    8.0       18.4806730155       13.7370641420       23.3087180174
H    1.0       17.6848642057       13.6620718581       23.8832845860
C    6.0       19.0671018121       14.5700044136       21.0699441915
H    1.0       19.1527846521       13.5182531943       20.7674282234
C    6.0       18.5558352382       15.4021119178       19.8639428661
H    1.0       18.6166051661       16.4646009248       20.1290237106
O    8.0       17.1760255887       15.0612142495       19.5869129350
C    6.0       19.3912166536       15.2073800033       18.5738926416
H    1.0       20.3232363888       15.7768355361       18.6750063893
H    1.0       18.8377516759       15.6389676579       17.7294647622
O    8.0       19.7002374319       13.8335013350       18.3115596011
H    1.0       20.3613921422       13.5481041737       18.9789967681
C    6.0       14.5794508945       20.2929466757       21.5759661112
H    1.0       13.9303063603       21.1701757494       21.6936046994
O    8.0       15.9662837223       20.6595363734       21.4427809650
C    6.0       14.4510165811       19.3695333121       22.8082026115
H    1.0       13.4177074403       19.0006774528       22.8464192410
O    8.0       14.7482913231       20.0882455378       24.0164527990
H    1.0       15.3129824183       20.8612889581       23.7655583312
C    6.0       15.3936603536       18.1562213165       22.6598207689
H    1.0       16.4213225665       18.5319420639       22.6957755050
O    8.0       15.1781424307       17.2532325183       23.7471984977
H    1.0       15.1094252236       17.8294543625       24.5414917836
C    6.0       15.1993110936       17.4304894163       21.3043889680
H    1.0       14.3106131453       16.7894408301       21.3759240257
C    6.0       15.0696409690       18.4041629045       20.0953668586
H    1.0       16.0740827357       18.7830312159       19.8679557259
O    8.0       14.2075462837       19.5292521215       20.4105447388
C    6.0       14.5413675879       17.7232651646       18.8105140305
H    1.0       15.3182793061       17.0464185771       18.4297353781
H    1.0       14.3771516240       18.4948484983       18.0463201156
O    8.0       13.3329077592       16.9907137795       19.0470905659
H    1.0       13.0172488394       16.6485081310       18.1822948155
C    6.0       18.4718203407       23.9056325692       20.7773208103
H    1.0       18.8929882305       24.8829732918       20.5093062890
O    8.0       19.5158412608       22.9306819442       20.9999623903
C    6.0       17.5549724426       24.0172128072       22.0308248351
H    1.0       16.7366323874       24.6995728183       21.7664272862
O    8.0       18.2439128149       24.5499506714       23.1713005349
H    1.0       18.9311346019       23.8838454211       23.4259475519
C    6.0       16.9313916691       22.6437055459       22.3739044486
H    1.0       17.7403068950       21.9666902585       22.6783089561
O    8.0       15.9935304728       22.7885247989       23.4451921948
H    1.0       16.4323604922       23.3836882536       24.0933668812
C    6.0       16.2275428578       22.0376628852       21.1367967798
H    1.0       15.3079623986       22.6046813952       20.9407195013
C    6.0       17.1290890454       22.0690415736       19.8748394147
H    1.0       17.9621205528       21.3787937805       20.0424894788
O    8.0       17.6498539357       23.4097962172       19.6949285402
C    6.0       16.4313937634       21.6116259303       18.5668925012
H    1.0       16.5726381269       20.5287929193       18.4590112738
H    1.0       16.9392349244       22.0843477363       17.7156433643
O    8.0       15.0312102009       21.9121652733       18.5334772348
H    1.0       14.5793510845       21.2451755737       19.1002609360
C    6.0       23.5185176796       22.5073871304       22.0309518775
H    1.0       24.5478377148       22.6542566667       22.3823645622
O    8.0       23.3753970235       21.2655846394       21.3124239718
C    6.0       22.5308598132       22.5252912154       23.2276612779
H    1.0       22.6315328789       23.5039516351       23.7148790721
O    8.0       22.8200303395       21.4907219628       24.1820531687
H    1.0       23.7581181045       21.2164246721       24.0420071405
C    6.0       21.0745150130       22.3771858688       22.7380031849
H    1.0       20.9703510452       21.3704677246       22.3179645367
O    8.0       20.1939642107       22.5321259608       23.8546889545
H    1.0       20.6069273311       21.9906647791       24.5647361213
C    6.0       20.7307644307       23.3972371645       21.6249082714
H    1.0       20.6090412536       24.3888806912       22.0797028432
C    6.0       21.8292685784       23.4586074277       20.5264502512
H    1.0       21.7831957969       22.5283334901       19.9452777127
O    8.0       23.1408574455       23.5751883494       21.1359278241
C    6.0       21.6459499360       24.6299577675       19.5317938391
H    1.0       20.7811263103       24.4105919718       18.8911822544
H    1.0       22.5295238227       24.6780908079       18.8812783296
O    8.0       21.4497948308       25.8827350706       20.1996047248
H    1.0       21.4296780349       26.5861327048       19.5144297071
C    6.0       25.2302411731       17.6328080564       20.8448309576
H    1.0       25.8615942598       16.7620600231       20.6255891078
O    8.0       23.8571705955       17.2502349383       21.0788993721
C    6.0       25.7688992678       18.4334570722       22.0585966797
H    1.0       26.7458318970       18.8397305114       21.7652291556
O    8.0       25.9467661399       17.6078682068       23.2183568677
H    1.0       25.0493577460       17.2825639180       23.4820809150
C    6.0       24.8345121968       19.6275339673       22.3718511601
H    1.0       23.8700220872       19.2257545006       22.7128668750
O    8.0       25.4267422307       20.4152293153       23.4109285074
H    1.0       25.8159805750       19.7609603870       24.0351815985
C    6.0       24.5786533357       20.4974204891       21.1075170371
H    1.0       25.4460649004       21.1480532448       20.9394772545
C    6.0       24.3172637202       19.6570376506       19.8255836913
H    1.0       23.3003368561       19.2565363713       19.8938014744
O    8.0       25.2431289893       18.5471316024       19.7293961295
C    6.0       24.3853832776       20.4826173344       18.5171128604
H    1.0       23.5218340780       21.1605918051       18.4846867711
H    1.0       24.2893873940       19.7939990733       17.6672151878
O    8.0       25.5977210142       21.2371939261       18.4003570492
H    1.0       25.5278925101       22.0086635106       19.0023939989
C    6.0       21.2786622983       14.1938606067       22.0296843322
H    1.0       20.7863181820       13.2599530649       22.3293960046
O    8.0       20.3487165172       15.1178557145       21.4289630618
C    6.0       21.9215387035       14.8752622508       23.2610814163
H    1.0       22.6668838278       14.1791541482       23.6674646092
O    8.0       20.9373775703       15.1612823526       24.2691812034
H    1.0       20.1264375547       14.6464388652       24.0377532423
C    6.0       22.6456153915       16.1757916957       22.8465664276
H    1.0       21.8855242697       16.8929813727       22.5201804426
O    8.0       23.3367894638       16.7014850359       23.9821003193
H    1.0       22.6872098756       16.6348564022       24.7182536644
C    6.0       23.6189265135       15.9532029484       21.6603125720
H    1.0       24.5403542663       15.4896987031       22.0370507564
C    6.0       23.0011097599       15.0813831438       20.5291270434
H    1.0       22.2669163213       15.6966553787       19.9939231047
O    8.0       22.3266263931       13.9214444466       21.0769268806
C    6.0       24.0384873196       14.6017440308       19.4860005312
H    1.0       24.3623905337       15.4681220589       18.8934771297
H    1.0       23.5460656093       13.9015436275       18.7979173631
O    8.0       25.1752507863       13.9815899222       20.0997661324
H    1.0       25.7491921431       13.6342526567       19.3823394362
N    7.0       20.4388096732       19.1677191651       16.9220388913
H    1.0       19.5491527336       18.7173095196       16.6861065331
H    1.0       21.1168281663       18.8780164815       16.2091273729
H    1.0       20.3048846119       20.1778910479       16.8123526616
C    6.0       20.9034622826       18.8077788459       18.3180614392
H    1.0       21.8647165269       19.2973164336       18.4854097189
H    1.0       21.0571053554       17.7266477272       18.3547797539
C    6.0       19.9097453481       19.2316890932       19.4125120706
H    1.0       19.7997906242       20.3234612795       19.3925391349
H    1.0       18.9231373874       18.7989904363       19.1993628606
C    6.0       20.3770521257       18.7902246306       20.8164279381
H    1.0       21.3176400603       19.2981618155       21.0687069423
H    1.0       20.5914377393       17.7141609806       20.8126183144
C    6.0       19.3172684123       19.0991234453       21.8980466527
H    1.0       19.0555955690       20.1644331568       21.8623700430
H    1.0       18.3985219908       18.5412320823       21.6790592746
C    6.0       19.8156246744       18.7404904883       23.3162522276
H    1.0       20.7874344111       19.2201851189       23.5016888980
H    1.0       19.9758803540       17.6568251557       23.3903532590
C    6.0       18.8225499339       19.1752930908       24.4142775564
H    1.0       19.2498501685       18.9969126220       25.4093038701
H    1.0       17.8873365688       18.6073767079       24.3513849408
H    1.0       18.5833540421       20.2436625268       24.3372656271
 $end
$$$$
! Edit this basic GAMESS input file as needed.
! Conformer was generated by a VeraChem VCPack run 
! and contains    149 atoms.
!
 $contrl scftyp=rhf runtyp=optimize nzvar=0
  maxit=200 icharg=0 $end
 $system mwords=50 $end
 $basis gbasis=pm3 $end
 $statpt nstep=200 $end
 $guess guess=huckel $end
 $data
FE Rank=3      G=568.421           E=371.362           -TS=197.058              
C1
C    6.0       16.1477032443       15.0711070682       20.7112042529
H    1.0       15.1126156479       14.9297948510       20.3743323872
O    8.0       16.4148321930       16.4402597059       21.0804891704
C    6.0       16.4544935426       14.1845806865       21.9447159511
H    1.0       16.3266199640       13.1376209896       21.6403622859
O    8.0       15.5573367213       14.4741590963       23.0285211546
H    1.0       15.5020470289       15.4598140506       23.1155824239
C    6.0       17.9239793696       14.3792454338       22.3901595154
H    1.0       18.0349426409       15.4094399876       22.7538388579
O    8.0       18.2393429342       13.4619281042       23.4428681172
H    1.0       17.4736367169       13.5046710587       24.0579135784
C    6.0       18.9015007872       14.1754513130       21.2060982313
H    1.0       18.9497273415       13.1013557101       20.9841712069
C    6.0       18.4646248778       14.9582866307       19.9340433204
H    1.0       18.5872831092       16.0284617550       20.1308374064
O    8.0       17.0678590259       14.6952941464       19.6636505981
C    6.0       19.2782669921       14.6438448671       18.6530590308
H    1.0       20.1749306621       15.2751136990       18.6440227490
H    1.0       18.6777327449       14.9320795422       17.7799706899
O    8.0       19.6624338217       13.2689648701       18.5507896447
H    1.0       20.5358658797       13.1853285187       18.9939887848
C    6.0       14.7979700163       20.2423699714       21.0293345331
H    1.0       14.1604293370       21.1325390919       20.9544169539
O    8.0       16.1984970285       20.5999851524       21.0563102356
C    6.0       14.4355982886       19.4014266727       22.2842781810
H    1.0       13.4022445701       19.0553524321       22.1510298832
O    8.0       14.5094523275       20.1679474877       23.4950649930
H    1.0       15.4573253701       20.4301299512       23.6110698542
C    6.0       15.3449295934       18.1537113738       22.3715388748
H    1.0       16.3762848451       18.4921048742       22.5311615066
O    8.0       14.9318257354       17.3329728218       23.4687070186
H    1.0       14.7695347814       17.9580190563       24.2101037270
C    6.0       15.2910696164       17.3389040730       21.0557569024
H    1.0       14.3338601164       16.8016063970       21.0267140617
C    6.0       15.4395006905       18.2267812362       19.7877751347
H    1.0       16.4842839769       18.5557853196       19.7224489195
O    8.0       14.5833200071       19.3925383590       19.8830208324
C    6.0       15.1074474143       17.4821985186       18.4721711103
H    1.0       15.9076643787       16.7578098857       18.2695543965
H    1.0       15.1091804269       18.2084603025       17.6483989680
O    8.0       13.8456320172       16.8053939549       18.5373911952
H    1.0       13.6755602160       16.4069665878       17.6560256020
C    6.0       18.7372219082       23.8045673582       21.8877856991
H    1.0       19.1558632094       24.7637488204       22.2167845895
O    8.0       19.6643897607       23.0771089711       21.0558463547
C    6.0       18.3542243315       22.9276194912       23.1104471403
H    1.0       17.6115416991       23.4907421472       23.6906725652
O    8.0       19.4859695719       22.6410104488       23.9481025693
H    1.0       20.1305196871       23.3783462212       23.8281270038
C    6.0       17.7041937076       21.6040290314       22.6506024146
H    1.0       18.4643983832       21.0263555750       22.1124492899
O    8.0       17.2700342595       20.8806812785       23.8053989720
H    1.0       18.0216326059       20.9580978593       24.4354334509
C    6.0       16.5229665076       21.8597603386       21.6832146468
H    1.0       15.6793587787       22.2618753555       22.2598825500
C    6.0       16.9058747271       22.8566875892       20.5537334441
H    1.0       17.6146313446       22.3563436668       19.8807808453
O    8.0       17.5366994427       24.0335156002       21.1194423063
C    6.0       15.6998784663       23.3139043458       19.6981937474
H    1.0       15.3716547060       22.4681736118       19.0788272795
H    1.0       16.0350644719       24.1068333450       19.0162391781
O    8.0       14.6089635993       23.7775369324       20.5040884219
H    1.0       13.9197413076       24.1288486710       19.8989360517
C    6.0       23.7302938970       22.8088136856       20.4888351528
H    1.0       24.7922993421       22.8960778155       20.2255017193
O    8.0       23.3831096681       21.4520170823       20.8508835196
C    6.0       23.3453850914       23.7907694217       21.6256005417
H    1.0       23.4513305592       24.8052364594       21.2190470739
O    8.0       24.2027046275       23.6711731539       22.7692400146
H    1.0       24.0262874798       22.7816032695       23.1659284221
C    6.0       21.8609573058       23.5930008290       22.0173145318
H    1.0       21.7485127458       22.5821825389       22.4322212229
O    8.0       21.5159990708       24.5662458727       23.0100241029
H    1.0       22.3143854048       24.6402203227       23.5814757507
C    6.0       20.9309091132       23.7114945494       20.7736451192
H    1.0       20.7965222356       24.7723989581       20.5283480479
C    6.0       21.4863247312       22.9616849672       19.5284077518
H    1.0       21.3202613734       21.8916670637       19.6914067314
O    8.0       22.9092259617       23.1827665798       19.3633904271
C    6.0       20.7665007742       23.3325192323       18.2084516375
H    1.0       19.7422060838       22.9374223258       18.2439940011
H    1.0       21.2803798194       22.8280666638       17.3794956373
O    8.0       20.7334618723       24.7458112230       17.9751016935
H    1.0       20.0638276047       25.1323985440       18.5788972043
C    6.0       24.7191433790       17.8535340466       22.3613622095
H    1.0       25.2818235918       17.0193159977       22.7999395715
O    8.0       23.4709241258       17.4115783499       21.7925017243
C    6.0       24.4239489492       18.9205078813       23.4425304156
H    1.0       25.3917003482       19.2798670699       23.8161888334
O    8.0       23.6706055370       18.3678371650       24.5347793326
H    1.0       23.6850280193       17.3850693029       24.4317386965
C    6.0       23.6642987693       20.1208301380       22.8364314732
H    1.0       22.6677007277       19.7762167613       22.5406395251
O    8.0       23.5380344120       21.1270393664       23.8431385682
H    1.0       23.2472602300       20.6364027352       24.6453260103
C    6.0       24.3665269338       20.6783682360       21.5698485288
H    1.0       25.2293194296       21.2844057024       21.8762866358
C    6.0       24.8248082453       19.5531659966       20.5972834441
H    1.0       23.9309223749       19.1484878790       20.1060235049
O    8.0       25.4885638057       18.4825220509       21.3157988400
C    6.0       25.7692319530       20.0558673289       19.4794611177
H    1.0       25.1875059410       20.6789730573       18.7866909981
H    1.0       26.1336463299       19.1891641391       18.9117613566
O    8.0       26.8707401464       20.8096140436       20.0010327408
H    1.0       27.4645701325       21.0287271218       19.2500000641
C    6.0       21.3140626385       13.8510426424       21.4598823189
H    1.0       21.0259946691       12.8036196774       21.3043273904
O    8.0       20.1651940384       14.6964380005       21.6541368485
C    6.0       22.1812353342       13.9725860832       22.7367369530
H    1.0       23.0679473923       13.3403395925       22.5980611624
O    8.0       21.4443348742       13.5164947356       23.8828605309
H    1.0       20.4955244926       13.7430088265       23.7216126157
C    6.0       22.6575181263       15.4300254142       22.9497200657
H    1.0       21.7792312372       16.0470734625       23.1812640850
O    8.0       23.5758211367       15.4612894256       24.0472753960
H    1.0       23.1732493117       14.8761249250       24.7287049030
C    6.0       23.3178584408       15.9865571327       21.6610333334
H    1.0       24.2850534731       15.4891617494       21.5107771311
C    6.0       22.4313739163       15.7511074248       20.4102785080