$$$$
! Edit this basic GAMESS input file as needed.
! Conformer was generated by a VeraChem VCPack run 
! and contains    143 atoms.
!
 $contrl scftyp=rhf runtyp=optimize nzvar=0
  maxit=200 icharg=0 $end
 $system mwords=50 $end
 $basis gbasis=pm3 $end
 $statpt nstep=200 $end
 $guess guess=huckel $end
 $data
FE Rank=1      G=497.819           E=314.123           -TS=183.697              
C1
C    6.0       16.1459263098       15.0936063044       20.8254684994
H    1.0       15.0973683319       14.9168021046       20.5539467260
O    8.0       16.3991210043       16.4824338172       21.1125603616
C    6.0       16.5330701001       14.2653173825       22.0767302541
H    1.0       16.3948734761       13.2058552102       21.8247116998
O    8.0       15.6958565677       14.5938433828       23.1968710848
H    1.0       15.5928644817       15.5794384789       23.2125849427
C    6.0       18.0247202021       14.4787450807       22.4298583131
H    1.0       18.1586399682       15.5246985082       22.7365693637
O    8.0       18.3935027791       13.6056474745       23.5040820466
H    1.0       17.6684394894       13.6917979491       24.1621390210
C    6.0       18.9324417309       14.2108110282       21.2048874568
H    1.0       18.9603084354       13.1265829352       21.0347571466
C    6.0       18.4254648190       14.9362077064       19.9240348797
H    1.0       18.5926324740       16.0140865178       20.0495425694
O    8.0       17.0091117297       14.6880140490       19.7450765651
C    6.0       19.1342754792       14.4933712261       18.6211259776
H    1.0       20.1403444934       14.9277021415       18.6001644343
H    1.0       18.5873135350       14.9152345157       17.7673522406
O    8.0       19.2144595203       13.0667164903       18.5037397619
H    1.0       19.6426576102       12.8629940319       17.6442086353
C    6.0       14.7550421101       20.2628188141       20.9501806526
H    1.0       14.1289704351       21.1585677974       20.8501717043
O    8.0       16.1596446350       20.6063709800       20.9926065654
C    6.0       14.3586124311       19.4415648204       22.2066637611
H    1.0       13.3375468222       19.0746808631       22.0387179933
O    8.0       14.3641476433       20.2297619774       23.4054245809
H    1.0       15.3070102806       20.4809611349       23.5742769204
C    6.0       15.2843953424       18.2102175643       22.3436817447
H    1.0       16.3117278498       18.5611399563       22.5096018310
O    8.0       14.8582463261       17.4127207061       23.4533279293
H    1.0       14.6877733707       18.0537454227       24.1789888673
C    6.0       15.2604647393       17.3630860733       21.0477061736
H    1.0       14.3129268201       16.8089618340       21.0268399286
C    6.0       15.3951600426       18.2177865006       19.7520984947
H    1.0       16.4361479963       18.5463567928       19.6579574935
O    8.0       14.5440901902       19.3910705090       19.8185054384
C    6.0       15.0514333412       17.4327702597       18.4638573349
H    1.0       15.8423329247       16.6912998096       18.2874847464
H    1.0       15.0633668000       18.1299021811       17.6154103049
O    8.0       13.7802568436       16.7759377089       18.5526030503
H    1.0       13.6100523898       16.3399827513       17.6892997312
C    6.0       18.7518022185       23.7221713460       21.9882908183
H    1.0       19.1900926842       24.6568773427       22.3559709362
O    8.0       19.6770460657       22.9765744710       21.1710396935
C    6.0       18.3153043272       22.8294650329       23.1794167552
H    1.0       17.5577177180       23.3891709332       23.7426675363
O    8.0       19.4320124611       22.5669738471       24.0459626250
H    1.0       19.4401434765       21.5992835794       24.2635987988
C    6.0       17.6514827544       21.5226144507       22.6724746965
H    1.0       18.4133784226       20.9249751519       22.1552273422
O    8.0       17.1232855111       20.7898985211       23.7847379939
H    1.0       17.9052655104       20.3761478658       24.2362227386
C    6.0       16.5102145380       21.8356945891       21.6671658962
H    1.0       15.6603928363       22.2511631321       22.2244739105
C    6.0       16.9503540309       22.8488410452       20.5747200376
H    1.0       17.6711277327       22.3475094442       19.9156355842
O    8.0       17.5820189940       24.0006088470       21.1887238947
C    6.0       15.7836679084       23.3468830540       19.6879201821
H    1.0       15.4598004111       22.5189573429       19.0427207634
H    1.0       16.1584534762       24.1440413226       19.0320771650
O    8.0       14.6750192820       23.8196361791       20.4640620457
H    1.0       14.0128756124       24.1917327435       19.8415079908
C    6.0       23.6874409782       22.7109656263       20.5083223923
H    1.0       24.7423866913       22.7497774691       20.2077786049
O    8.0       23.3390128904       21.4287273084       21.0687400737
C    6.0       23.3492139423       23.8252732206       21.5273134585
H    1.0       23.4974331919       24.7833143291       21.0120145367
O    8.0       24.2139083849       23.7793172474       22.6726014276
H    1.0       24.0574596653       22.9081263790       23.1177674934
C    6.0       21.8632272410       23.7468237148       21.9597007408
H    1.0       21.7358217751       22.8497048976       22.5822681823
O    8.0       21.5694493183       24.9211736526       22.7244216637
H    1.0       22.2644731147       24.9595559451       23.4172139229
C    6.0       20.8893993066       23.6336531393       20.7456801355
H    1.0       20.6799765244       24.6386402876       20.3595443843
C    6.0       21.4242963435       22.7331952203       19.5947783662
H    1.0       21.2708419573       21.6903337244       19.8971948922
O    8.0       22.8387834456       22.9437949680       19.3673264577
C    6.0       20.6689853503       22.9203022677       18.2561804280
H    1.0       19.6459664961       22.5391764205       18.3749440408
H    1.0       21.1579445317       22.3000573705       17.4933397654
O    8.0       20.6321995318       24.2873383183       17.8269339912
H    1.0       20.0047960613       24.7664308528       18.4089283338
C    6.0       24.7626879512       17.8644726386       22.5422437489
H    1.0       25.3410884307       17.0282441372       22.9557110317
O    8.0       23.4471001160       17.4354041361       22.1360542784
C    6.0       24.6515858289       18.9928845432       23.5979608688
H    1.0       25.6707458937       19.3569261783       23.7812930267
O    8.0       24.1132474086       18.5078502219       24.8363962355
H    1.0       23.1330972755       18.3865795584       24.7054151564
C    6.0       23.8213762822       20.1752884045       23.0495947255
H    1.0       22.7925330644       19.8295180238       22.8841308097
O    8.0       23.8235038393       21.2423924744       24.0036662809
H    1.0       23.4733188254       20.8416752337       24.8310043658
C    6.0       24.3899135245       20.6699030211       21.6959719639
H    1.0       25.2851595783       21.2768100638       21.8858317329
C    6.0       24.7221370458       19.5072609741       20.7182949038
H    1.0       23.7649635280       19.1310892263       20.3439484540
O    8.0       25.4227610117       18.4219729552       21.3839341326
C    6.0       25.5519677458       19.9519045981       19.4899308514
H    1.0       24.9140937688       20.5700116785       18.8436497959
H    1.0       25.8336900845       19.0614911269       18.9121236315
O    8.0       26.7203312449       20.6896191010       19.8686884527
H    1.0       27.2375836337       20.8686040798       19.0531991358
C    6.0       21.3716215465       13.9590803498       21.1341022288
H    1.0       21.0787865908       12.9671564307       20.7667782039
O    8.0       20.2294953707       14.7285741656       21.5590808235
C    6.0       22.3057830946       13.8225374004       22.3603483045
H    1.0       23.1701353150       13.2226249024       22.0472160492
O    8.0       21.6212580556       13.1496063295       23.4303291194
H    1.0       20.6974932191       13.5029477612       23.4419268575
C    6.0       22.8310633374       15.2010925579       22.8412332329
H    1.0       22.0011934107       15.7397829808       23.3174616941
O    8.0       23.8759962815       14.9775569125       23.7933810899
H    1.0       23.4929996739       14.3681155469       24.4612531016
C    6.0       23.3572970784       16.0729304660       21.6682299013
H    1.0       24.3372763947       15.6855501569       21.3604470318
C    6.0       22.4027745762       16.0562570352       20.4410649098
H    1.0       21.4805344326       16.5850384242       20.7058207204
O    8.0       22.0852211797       14.6860465717       20.1137620868
C    6.0       22.9624926262       16.7368725704       19.1657409278
H    1.0       22.6652591745       17.7923682958       19.1768951489
H    1.0       22.4762240476       16.2892970415       18.2888010236
O    8.0       24.3868161428       16.6257466500       19.0433862325
H    1.0       24.7880178240       17.1003933830       19.8073723830
C    6.0       20.2582575175       18.8901860141       24.2132811117
O    8.0       19.5722824718       19.8127210356       24.6120409461
O    8.0       21.3529543308       18.6122929059       24.6618081110
C    6.0       19.7201840593       18.0395518089       23.0724064964
H    1.0       18.6303403333       17.9787008202       23.1708391611
H    1.0       20.1125566552       17.0267749219       23.2078626457
C    6.0       20.1205449114       18.5682163745       21.7094453900
H    1.0       21.1806583299       18.7754944117       21.5781915378
C    6.0       19.2578894713       18.7839142716       20.7148290216
H    1.0       18.2013093773       18.5829905828       20.8645867211
C    6.0       19.6380312757       19.2999414606       19.3465918190
H    1.0       19.0350633163       20.1863401397       19.1100831017
H    1.0       20.6903425619       19.6105663985       19.3337142929
C    6.0       19.4184168220       18.2267829562       18.2637831685
H    1.0       18.3714577059       17.8990510126       18.2416232343
H    1.0       19.6741915650       18.6196601015       17.2715025088
H    1.0       20.0493459924       17.3511910790       18.4553219791
 $end
$$$$
! Edit this basic GAMESS input file as needed.
! Conformer was generated by a VeraChem VCPack run 
! and contains    143 atoms.
!
 $contrl scftyp=rhf runtyp=optimize nzvar=0
  maxit=200 icharg=0 $end
 $system mwords=50 $end
 $basis gbasis=pm3 $end
 $statpt nstep=200 $end
 $guess guess=huckel $end
 $data
FE Rank=2      G=499.270           E=316.833           -TS=182.437              
C1
C    6.0       16.2021680879       15.2520653012       20.6058744677
H    1.0       15.1808445328       15.1207495633       20.2256581571
O    8.0       16.4020539592       16.5636741144       21.1633393577
C    6.0       16.5236394350       14.2154307157       21.7089551369
H    1.0       16.4250047255       13.2201765291       21.2563545483
O    8.0       15.5999075614       14.3283070231       22.8043920470
H    1.0       15.5856448003       15.2797218687       23.0807066700
C    6.0       17.9818190597       14.3654884050       22.2153797229
H    1.0       18.0492153790       15.2955948743       22.7976208716
O    8.0       18.2800167454       13.2425757862       23.0512867323
H    1.0       17.5510070169       13.2074411781       23.7083463439
C    6.0       19.0102161456       14.4556231586       21.0508544578
H    1.0       19.2105871398       13.4457118580       20.6719271779
C    6.0       18.5318044443       15.3617825094       19.8827303125
H    1.0       18.5998905041       16.4048589778       20.2174959981
O    8.0       17.1576609479       15.0615411401       19.5433858788
C    6.0       19.3909460498       15.2436453726       18.5984303303
H    1.0       20.3207042266       15.8047769953       18.7465001820
H    1.0       18.8530558606       15.7311706434       17.7745727511
O    8.0       19.6984304526       13.8878361999       18.2509320691
H    1.0       20.3411442057       13.5526231936       18.9127564170
C    6.0       14.6791201677       20.2469161538       21.6890655447
H    1.0       14.0310130867       21.1233300640       21.8189399508
O    8.0       16.0648931772       20.6240297078       21.5851457384
C    6.0       14.5328449035       19.3020918429       22.9047658668
H    1.0       13.4880580467       18.9675387042       22.9448209316
O    8.0       14.8590781406       20.0007534160       24.1166220149
H    1.0       15.4714232904       20.7328243037       23.8626970201
C    6.0       15.4324514960       18.0557291847       22.7400571081
H    1.0       16.4765420640       18.3846179510       22.8046421321
O    8.0       15.1575472598       17.1222291194       23.7900608903
H    1.0       15.1576385430       17.6596388311       24.6133182733
C    6.0       15.2299697965       17.3726076194       21.3655429551
H    1.0       14.3113427355       16.7721114094       21.4035649258
C    6.0       15.1729073230       18.3806125489       20.1828137710
H    1.0       16.1954962426       18.7386669062       20.0143022641
O    8.0       14.3211559119       19.5119447817       20.5008218811
C    6.0       14.6826917543       17.7568787103       18.8542579746
H    1.0       15.4645661084       17.0859335739       18.4735479405
H    1.0       14.5553426362       18.5594311745       18.1152837511
O    8.0       13.4576429380       17.0322588282       19.0192160534
H    1.0       13.1670457471       16.7316622926       18.1305750338
C    6.0       18.5269280877       23.8673182179       20.6677143052
H    1.0       18.9288497306       24.8251173570       20.3134454805
O    8.0       19.5858127061       22.9557924347       21.0251091646
C    6.0       17.5616332776       24.0713494501       21.8706761885
H    1.0       16.7353456414       24.6992212510       21.5128290719
O    8.0       18.1982731724       24.7362510363       22.9715129555
H    1.0       18.9197608725       24.1361138958       23.2890592748
C    6.0       16.9613707621       22.7187060468       22.3272680754
H    1.0       17.7776688490       22.1007351430       22.7236098676
O    8.0       15.9803747845       22.9408840110       23.3463329858
H    1.0       16.3878060100       23.5934369387       23.9581450702
C    6.0       16.3211548611       21.9665421412       21.1350547902
H    1.0       15.4009181542       22.4882898966       20.8409782668
C    6.0       17.2823026666       21.8965825073       19.9177142739
H    1.0       18.1261461813       21.2549619368       20.1986377988
O    8.0       17.7624849895       23.2326399946       19.6186235948
C    6.0       16.6709135152       21.2986849073       18.6238049983
H    1.0       16.8675802070       20.2200892880       18.6107173680
H    1.0       17.2029379946       21.7212113548       17.7609980461
O    8.0       15.2637961841       21.5375735710       18.4957090564
H    1.0       14.8089110252       20.9466690834       19.1405850946
C    6.0       23.5739855431       22.6147298902       22.0678928822
H    1.0       24.6108264004       22.7589566311       22.3976033961
O    8.0       23.3734854136       21.3006310982       21.5107959906
C    6.0       22.6043391615       22.8390016045       23.2560933471
H    1.0       22.7231656968       23.8842723783       23.5690246013
O    8.0       22.9139278963       21.9911340904       24.3713902701
H    1.0       22.6060308607       21.0728950216       24.1357720339
C    6.0       21.1376124902       22.6429823094       22.8140307107
H    1.0       21.0042494620       21.5910914897       22.5299135984
O    8.0       20.2745608774       22.9724786145       23.9084777415
H    1.0       20.6319054741       22.4575233497       24.6663028404
C    6.0       20.7967642898       23.5096763457       21.5778611985
H    1.0       20.6680760667       24.5520188382       21.8974391481
C    6.0       21.8914170769       23.4205445962       20.4749073377
H    1.0       21.8163370282       22.4289195110       20.0119661768
O    8.0       23.2185832538       23.5749845815       21.0480221382
C    6.0       21.7170642363       24.4633422226       19.3455438809
H    1.0       20.8393200199       24.1834058952       18.7473568388
H    1.0       22.5922902923       24.4123697204       18.6841123150
O    8.0       21.5537701315       25.7926620494       19.8557622730
H    1.0       21.5300185768       26.4055971194       19.0887895200
C    6.0       25.0950486080       17.6670535670       20.8040767269
H    1.0       25.6865287859       16.7839748254       20.5306454422
O    8.0       23.7174355781       17.3173551771       21.0581266032
C    6.0       25.7097905655       18.3943343158       22.0283064383
H    1.0       26.7024599355       18.7465114374       21.7189135302
O    8.0       25.8678076221       17.5177820291       23.1538532818
H    1.0       24.9545943373       17.2794616925       23.4553204535
C    6.0       24.8721465457       19.6386004276       22.4142232212
H    1.0       23.9157797599       19.2936867937       22.8311157547
O    8.0       25.5960056011       20.3886012526       23.3952774603
H    1.0       25.7777740395       19.7583405737       24.1250364134
C    6.0       24.5610104182       20.5463614396       21.1925376812
H    1.0       25.4201111600       21.2039427960       21.0114496810
C    6.0       24.2375419979       19.7647939349       19.8870366501
H    1.0       23.2028262336       19.4069010714       19.9555485072
O    8.0       25.1138749835       18.6222048710       19.7254969470
C    6.0       24.3386047002       20.6410510982       18.6132302680
H    1.0       23.5551613559       21.4089191100       18.6494362867
H    1.0       24.1327778374       20.0072365239       17.7405318413
O    8.0       25.6189240066       21.2699759922       18.4714675725
H    1.0       25.6592914176       22.0130151917       19.1102895164
C    6.0       21.1950156269       14.2052849508       22.1394492384
H    1.0       20.7494830490       13.2645408572       22.4859359275
O    8.0       20.2062017641       15.0784709503       21.5574761956
C    6.0       21.8761618808       14.9353826042       23.3234079080
H    1.0       22.6981389957       14.2951414122       23.6680779666
O    8.0       20.9541095774       15.1173459524       24.4090229545
H    1.0       20.7445609205       16.0873537366       24.4583660309
C    6.0       22.4887500095       16.2741796871       22.8408171438
H    1.0       21.6775017301       16.9158178163       22.4714989380
O    8.0       23.1658734724       16.9288778115       23.9204420285
H    1.0       22.4771096264       17.5139540408       24.3373324467
C    6.0       23.4618136891       16.0317039108       21.6608484493
H    1.0       24.3782100279       15.5644916082       22.0446220654
C    6.0       22.8284208293       15.1338172492       20.5594993191
H    1.0       22.0585415717       15.7286830962       20.0541954454
O    8.0       22.2090035164       13.9550433769       21.1405098595
C    6.0       23.8376568326       14.6768443795       19.4794824882
H    1.0       24.1149097358       15.5487622099       18.8715863486
H    1.0       23.3383307992       13.9603725250       18.8135659564
O    8.0       25.0132810400       14.0904216622       20.0521830939
H    1.0       25.5685904780       13.7550380487       19.3148522702
C    6.0       20.5634922165       18.9136116462       24.0139560773
O    8.0       21.5668793460       19.5975867655       23.9648978930
O    8.0       20.5186721570       17.8591797056       24.6171526426
C    6.0       19.2999863150       19.3850028300       23.2987214106
H    1.0       19.1494078461       20.4460016895       23.5159382750
H    1.0       18.4618124641       18.8641397803       23.7737227870
C    6.0       19.2532325567       19.1377473150       21.7964767939
H    1.0       18.2550891954       18.9744515764       21.3966406092
C    6.0       20.3081431372       19.0830257987       20.9758942340
H    1.0       21.3165765652       19.2370799507       21.3571952599
C    6.0       20.2121980762       18.7946732839       19.4925300722
H    1.0       20.9322271401       18.0086540651       19.2319073820
H    1.0       19.2145805940       18.4129772265       19.2401704543
C    6.0       20.5000358130       20.0432364943       18.6362280069
H    1.0       20.4387919251       19.8031586708       17.5672323828
H    1.0       19.7854715958       20.8457922753       18.8453112353
H    1.0       21.5009032386       20.4310873081       18.8402964194
 $end
$$$$
! Edit this basic GAMESS input file as needed.
! Conformer was generated by a VeraChem VCPack run 
! and contains    143 atoms.
!
 $contrl scftyp=rhf runtyp=optimize nzvar=0
  maxit=200 icharg=0 $end
 $system mwords=50 $end
 $basis gbasis=pm3 $end
 $statpt nstep=200 $end
 $guess guess=huckel $end
 $data
FE Rank=3      G=499.531           E=315.989           -TS=183.542              
C1
C    6.0       16.3873299219       15.3678663270       19.9224992151
H    1.0       15.4086382039       15.3460656694       19.4264277017
O    8.0       16.6469075304       16.6567334434       20.5186852187
C    6.0       16.5042912293       14.2449655985       20.9854743748
H    1.0       16.4349095245       13.2918735417       20.4451201330
O    8.0       15.4423183664       14.3009956551       21.9497479396
H    1.0       15.5739146701       15.1358379188       22.4663012411
C    6.0       17.8848661255       14.2853634992       21.6873026572
H    1.0       17.9227530843       15.1823209992       22.3209780356
O    8.0       18.0150861245       13.1102887251       22.4946479658
H    1.0       17.2143546265       13.0944120181       23.0624129891
C    6.0       19.0648823864       14.3692317664       20.6770065573
H    1.0       19.3059886955       13.3599334504       20.3213755173
C    6.0       18.7827569751       15.2942708998       19.4584331176
H    1.0       18.8955495358       16.3283671297       19.7993675393
O    8.0       17.4332414012       15.1123541015       18.9632498087
C    6.0       19.7738300223       15.1117065603       18.2826693019
H    1.0       20.7395542890       15.5475617056       18.5674752664
H    1.0       19.4028762850       15.6897334912       17.4258785477
O    8.0       19.9515283460       13.7395712014       17.9092159141
H    1.0       20.4891933182       13.3089055631       18.6077819013
C    6.0       14.9008176127       20.0970179772       22.0162351474
H    1.0       14.2293139774       20.8735144039       22.4049643589
O    8.0       16.2243320185       20.6089194553       21.7773651318
C    6.0       15.0228384727       18.9413907689       23.0378149548
H    1.0       14.0275245821       18.4965152558       23.1634219182
O    8.0       15.4709066091       19.4590564556       24.3016555867
H    1.0       15.9064488167       20.3257187861       24.1192854598
C    6.0       15.9709100133       17.8431845159       22.4912049661
H    1.0       16.9760848071       18.2718212148       22.3959006589
O    8.0       16.0154160447       16.7257157155       23.3851969390
H    1.0       16.8890415380       16.8182990010       23.8537635709
C    6.0       15.5318585605       17.3782331193       21.0793463014
H    1.0       14.6343455099       16.7524457497       21.1690644175
C    6.0       15.2546336342       18.5766037553       20.1281785702
H    1.0       16.2217240508       19.0379757537       19.8911625409
O    8.0       14.4031679649       19.5612210826       20.7719556967
C    6.0       14.6030585749       18.1649738308       18.7867871000
H    1.0       15.3494701290       17.6237159477       18.1896630312
H    1.0       14.3385450748       19.0748975845       18.2315012809
O    8.0       13.4451484018       17.3427189839       18.9787077241
H    1.0       13.0411222886       17.1862391649       18.0974584387
C    6.0       18.4032931754       24.1342020632       21.5997406912
H    1.0       18.7291471030       25.1775289858       21.5005673464
O    8.0       19.5236593459       23.2422004991       21.7583329141
C    6.0       17.5188954528       23.9774286592       22.8611118158
H    1.0       16.6438549768       24.6295971085       22.7425266964
O    8.0       18.2543034969       24.3682618109       24.0313832153
H    1.0       19.1972230541       24.1287196894       23.8613957136
C    6.0       17.0221749700       22.5188997513       22.9986750359
H    1.0       17.8955912227       21.8832834623       23.1918247640
O    8.0       16.1024240107       22.4225306793       24.0900196734
H    1.0       16.5161807299       22.9378108432       24.8182866745
C    6.0       16.3537560827       22.0359660723       21.6889042799
H    1.0       15.3829710716       22.5359035366       21.5754504732
C    6.0       17.2340971333       22.3250044433       20.4451303894
H    1.0       18.1276375393       21.6918661363       20.5186851452
O    8.0       17.6373107180       23.7185389378       20.4464147988
C    6.0       16.5506156288       21.9964746327       19.0906906164
H    1.0       16.7540085993       20.9473206811       18.8437778495
H    1.0       17.0173783525       22.6042141273       18.3041528076
O    8.0       15.1341284272       22.2109926462       19.1028675334
H    1.0       14.7361894663       21.4824819356       19.6327126122
C    6.0       23.5218812706       22.7108694456       20.7475073516
H    1.0       24.5445580319       22.8243396701       20.3653278707
O    8.0       23.2768856955       21.3755138752       21.2343914455
C    6.0       23.2533072813       23.7023252533       21.9081943859
H    1.0       23.3869686578       24.7168010694       21.5106852818
O    8.0       24.1739992345       23.4973279585       22.9916358316
H    1.0       24.1931782720       22.5253658503       23.1853272616
C    6.0       21.7924627156       23.5731455872       22.4044028349
H    1.0       21.6738074534       22.5819296063       22.8638361282
O    8.0       21.5231206697       24.5903868372       23.3754197225
H    1.0       22.2994618958       24.5807076882       23.9783198334
C    6.0       20.7866834072       23.6865656590       21.2308380446
H    1.0       20.7539862835       24.7342540265       20.9045835702
C    6.0       21.1788506667       22.7740566743       20.0321593100
H    1.0       21.0433370063       21.7311237380       20.3393272180
O    8.0       22.5704708979       22.9954435192       19.7003092776
C    6.0       20.3464920326       22.9757422748       18.7397623328
H    1.0       19.4798293867       22.3067992483       18.7733685065
H    1.0       20.9535724517       22.6576002324       17.8817131676
O    8.0       19.9032755811       24.3242823200       18.5530396863
H    1.0       19.0872333110       24.4289694292       19.0942664480
C    6.0       25.0224107370       17.6317949212       21.5086995378
H    1.0       25.6837447525       16.7558356841       21.5194068380
O    8.0       23.6304071071       17.2473724775       21.5238442565
C    6.0       25.3137989818       18.5718293066       22.7077831093
H    1.0       26.3322298866       18.9585783331       22.5715680898
O    8.0       25.2551490916       17.8823639712       23.9642571701
H    1.0       24.3438565217       17.5024613078       24.0472300869
C    6.0       24.3455480473       19.7800025132       22.6831477962
H    1.0       23.3192516889       19.4120479599       22.8257548799
O    8.0       24.6899201491       20.6868701155       23.7361174596
H    1.0       24.8208122119       20.1190389648       24.5281206057
C    6.0       24.4251306564       20.5088430597       21.3178056778
H    1.0       25.3658794345       21.0746499855       21.2921797276
C    6.0       24.3657934594       19.5323964646       20.1068345720
H    1.0       23.3404540395       19.1554042097       20.0212326122
O    8.0       25.2570533634       18.4076256767       20.3143896194
C    6.0       24.7234802504       20.1987352490       18.7567235130
H    1.0       23.9041117962       20.8731534500       18.4734397264
H    1.0       24.7834249337       19.4183056637       17.9864244393
O    8.0       25.9547104739       20.9299932826       18.8230290350
H    1.0       26.1486248825       21.2679139492       17.9215795050
C    6.0       21.0401988695       14.0795351461       22.1038885763
H    1.0       20.5413250118       13.1308448583       22.3377466496
O    8.0       20.1797816139       14.9685275300       21.3651339847
C    6.0       21.4941606626       14.7770162141       23.4095910409
H    1.0       22.2587439828       14.1314016240       23.8602341131
O    8.0       20.4091064868       14.8991614004       24.3433571646
H    1.0       19.8741266695       15.7063549778       24.1163091013
C    6.0       22.1647513847       16.1367655337       23.0903697471
H    1.0       21.4143566446       16.8036475814       22.6450537003
O    8.0       22.6783695084       16.7182294952       24.2928403217
H    1.0       21.8799296672       17.0421544896       24.7926656086
C    6.0       23.3182437988       15.9481870897       22.0689080354
H    1.0       24.1761726078       15.5077053653       22.5940595477
C    6.0       22.9180094482       15.0479331086       20.8636611813
H    1.0       22.2448198153       15.6317813191       20.2241386902
O    8.0       22.2248694588       13.8526638712       21.3101311021
C    6.0       24.1208863643       14.6206898170       19.9889516244
H    1.0       24.4902125265       15.5040173185       19.4503411532
H    1.0       23.7691626551       13.9027531162       19.2359969680
O    8.0       25.1800058556       14.0489207186       20.7672240992
H    1.0       25.8716857168       13.7356942644       20.1442998009
C    6.0       19.4453113137       18.0713336544       24.3869692784
O    8.0       20.3514924618       17.9410289123       25.1862945239
O    8.0       18.7139580091       17.1554632626       24.0576520554
C    6.0       19.2612798574       19.4381286872       23.7341053360
H    1.0       19.7221425412       20.1787505910       24.3979359702