$$$$
! Edit this basic GAMESS input file as needed.
! Conformer was generated by a VeraChem VCPack run 
! and contains    152 atoms.
!
 $contrl scftyp=rhf runtyp=optimize nzvar=0
  maxit=200 icharg=0 $end
 $system mwords=50 $end
 $basis gbasis=pm3 $end
 $statpt nstep=200 $end
 $guess guess=huckel $end
 $data
FE Rank=1      G=604.427           E=401.695           -TS=202.732              
C1
C    6.0       16.4312658549       15.3988048891       20.5131317709
H    1.0       15.4276494762       15.2139036220       20.1089990793
O    8.0       16.6019876438       16.7834710699       20.8813227016
C    6.0       16.7157048393       14.4924665377       21.7453009819
H    1.0       16.6544171141       13.4528727587       21.3978860178
O    8.0       15.7533319458       14.6814974462       22.7928497051
H    1.0       15.8220508155       15.6249320987       23.0863092565
C    6.0       18.1516493218       14.7288584832       22.2746337359
H    1.0       18.2192921511       15.7595599430       22.6492031604
O    8.0       18.4389902734       13.8069897686       23.3315932788
H    1.0       17.6286801857       13.7943481121       23.8887562402
C    6.0       19.1756390224       14.5550625630       21.1278251521
H    1.0       19.2053121267       13.4948149893       20.8432134935
C    6.0       18.7983101682       15.3959844033       19.8800415818
H    1.0       18.8796931829       16.4581552267       20.1400532658
O    8.0       17.4293613784       15.0950791593       19.5111520798
C    6.0       19.7135786886       15.1594201211       18.6504869491
H    1.0       20.5620606066       15.8508272799       18.7129734866
H    1.0       19.1549470760       15.4221988836       17.7423004328
O    8.0       20.2033773019       13.8160942819       18.5558309558
H    1.0       20.8733875731       13.6964361104       19.2682849359
C    6.0       14.6819436028       20.3391172025       21.6141604188
H    1.0       14.0075035872       21.1794867860       21.8231877026
O    8.0       15.9894639564       20.7848121473       21.1995048589
C    6.0       14.8343121319       19.4391575785       22.8653901450
H    1.0       13.8499230451       19.0031456221       23.0805224954
O    8.0       15.2807577140       20.1819460351       24.0107906760
H    1.0       15.5141818469       21.0917417429       23.7016096853
C    6.0       15.8162571917       18.2863938970       22.5697631090
H    1.0       16.8019880293       18.7331546842       22.3998336782
O    8.0       15.8705799586       17.4148802412       23.7025274495
H    1.0       15.8960842655       18.0208260753       24.4776283874
C    6.0       15.4204052796       17.5011295744       21.2937214655
H    1.0       14.5911121588       16.8255654460       21.5420158090
C    6.0       15.0169997448       18.4301332293       20.1096226696
H    1.0       15.9362861940       18.8648005250       19.6963040478
O    8.0       14.1519971674       19.5061383882       20.5615915013
C    6.0       14.3105864036       17.6853885401       18.9517950631
H    1.0       15.0514823715       17.0589804008       18.4368425798
H    1.0       13.9505995520       18.4273106684       18.2263961770
O    8.0       13.2246386907       16.8727523686       19.4139535269
H    1.0       12.7732893246       16.5008058191       18.6248421128
C    6.0       18.4329837051       24.0664297673       20.7743613772
H    1.0       18.9026694309       25.0359599748       20.5649134795
O    8.0       19.4238754906       23.0427712833       21.0191679005
C    6.0       17.4577415672       24.1655438509       21.9787715875
H    1.0       16.6640688846       24.8669043615       21.6897362516
O    8.0       18.1014059453       24.6619401579       23.1614607589
H    1.0       18.7772151536       23.9873465137       23.4245455009
C    6.0       16.7986900101       22.7940904945       22.2592184499
H    1.0       17.5812018458       22.1051802138       22.6067592542
O    8.0       15.8042853742       22.9517080340       23.2751306459
H    1.0       16.2077710317       23.5587606093       23.9364575997
C    6.0       16.1597247325       22.1961987693       20.9782140301
H    1.0       15.2057506462       22.7007680026       20.7790270223
C    6.0       17.0766255532       22.3194476407       19.7312390217
H    1.0       17.8901654289       21.5971248882       19.8479815926
O    8.0       17.6433163304       23.6489288947       19.6407508184
C    6.0       16.3678365158       21.9811351766       18.3964379122
H    1.0       16.1988251328       20.8969806036       18.3537600385
H    1.0       17.0445491359       22.2358376551       17.5700265371
O    8.0       15.1216068038       22.6698510565       18.2392942350
H    1.0       14.4561520469       22.2086307765       18.7936507562
C    6.0       23.3922724350       22.4870320309       22.1326288015
H    1.0       24.4180358139       22.6160036902       22.5002190197
O    8.0       23.2268206362       21.2260573888       21.4529325690
C    6.0       22.3865612158       22.5556979567       23.3109193096
H    1.0       22.5129404255       23.5361617149       23.7883541438
O    8.0       22.6348224614       21.5212312977       24.2777329581
H    1.0       23.5795638540       21.2532096756       24.1781622107
C    6.0       20.9329904852       22.4495418846       22.7980595386
H    1.0       20.7998793987       21.4423661199       22.3910673446
O    8.0       20.0378215626       22.6486459538       23.8957018576
H    1.0       20.4232266648       22.1109229243       24.6240039930
C    6.0       20.6457956248       23.4629410293       21.6621734395
H    1.0       20.5590333003       24.4666406485       22.0989219598
C    6.0       21.7602155827       23.4560594181       20.5788422287
H    1.0       21.6903090868       22.5127894209       20.0215102920
O    8.0       23.0644963590       23.5427200799       21.2048701789
C    6.0       21.6330889677       24.6070610273       19.5521842699
H    1.0       20.7683423246       24.4034663446       18.9061727986
H    1.0       22.5256131422       24.6053288602       18.9122293718
O    8.0       21.4761043193       25.8831077234       20.1856521555
H    1.0       21.4886704657       26.5686589020       19.4824732095
C    6.0       25.2117543941       17.6281978088       21.0471320395
H    1.0       25.8873551855       16.7907878643       20.8297401046
O    8.0       23.8834192234       17.1796768987       21.3813800723
C    6.0       25.7365012090       18.4900728670       22.2220901342
H    1.0       26.6906456580       18.9297448410       21.9034420923
O    8.0       25.9588386020       17.7014541635       23.4009923951
H    1.0       25.1253480737       17.1983752747       23.5854633420
C    6.0       24.7517095785       19.6487025240       22.5174529499
H    1.0       23.8145960305       19.2126928710       22.8906798409
O    8.0       25.3216140523       20.4927132163       23.5240435029
H    1.0       25.7486812616       19.8739366865       24.1597291010
C    6.0       24.4276374087       20.4588231583       21.2277183620
H    1.0       25.2755142191       21.1104815625       20.9775528438
C    6.0       24.1215062442       19.5521340734       20.0038993886
H    1.0       23.1329945469       19.1031621400       20.1420039777
O    8.0       25.1158247236       18.5034378297       19.9035446483
C    6.0       24.1136399714       20.3551397277       18.6818550703
H    1.0       25.1486458831       20.4775606133       18.3353186646
H    1.0       23.7099951502       21.3592494362       18.8701046473
O    8.0       23.3183688065       19.7043920828       17.6839056717
H    1.0       23.6651162091       19.9868307171       16.8094042313
C    6.0       21.4019322241       13.9800781034       21.9107411700
H    1.0       20.9099953542       13.0107319376       22.0645428607
O    8.0       20.4496154663       15.0178720973       21.6059552415
C    6.0       22.1693870998       14.3842498383       23.1903149877
H    1.0       22.9375982128       13.6212087834       23.3715192520
O    8.0       21.2788794955       14.4432980688       24.3168012889
H    1.0       20.3575936499       14.3915255450       23.9605502894
C    6.0       22.8755946440       15.7435721021       22.9947326037
H    1.0       22.1008965080       16.5131741660       22.9197257448
O    8.0       23.6998752302       16.0159832678       24.1309231781
H    1.0       23.1434599695       15.7794391030       24.9066844667
C    6.0       23.7171864840       15.7855101806       21.6940366565
H    1.0       24.6748270562       15.2795150941       21.8749281225
C    6.0       22.9923282520       15.1575868161       20.4690961086
H    1.0       22.2279012488       15.8723048447       20.1413641118
O    8.0       22.3449977510       13.9079540086       20.8220360752
C    6.0       23.9260036306       14.9092028281       19.2607729861
H    1.0       24.2158841008       15.8814853926       18.8389622067
H    1.0       23.3627385222       14.3724136005       18.4855654114
O    8.0       25.0971655512       14.1702294973       19.6288416483
H    1.0       25.6063755571       13.9905164383       18.8085015961
N    7.0       20.3609828738       19.6718408414       17.2515250321
H    1.0       21.3605337236       19.9025965186       17.4169816777
H    1.0       20.0295311789       20.3436244349       16.5428102936
C    6.0       19.5709317351       19.8314139414       18.5367172112
H    1.0       18.6167649234       19.3123467312       18.4166543712
H    1.0       19.3742770353       20.8976778814       18.6711170108
C    6.0       20.3216606520       19.3054434785       19.7708427406
H    1.0       20.7083004426       18.2978598247       19.5708114646
H    1.0       21.1864988903       19.9561419285       19.9430410034
C    6.0       19.4549544290       19.2798946420       21.0468422366
H    1.0       18.5489483235       18.6855316807       20.8733704714
H    1.0       19.1246462793       20.2971930685       21.2936220043
C    6.0       20.2548513867       18.6854794240       22.2279515622
H    1.0       20.4847348719       17.6366466284       22.0088202978
H    1.0       21.2190236423       19.2049546640       22.3207692706
C    6.0       19.4986626782       18.7733494285       23.5704735000
H    1.0       18.6037466301       18.1402271163       23.5348774483
H    1.0       19.1584794908       19.8042736000       23.7426555309
C    6.0       20.3824820227       18.3241656395       24.7526171319
H    1.0       19.8396805713       18.4264904337       25.7008909681
H    1.0       21.2941248254       18.9331425868       24.8190907081
H    1.0       20.6774248970       17.2724502198       24.6487021760
C    6.0       20.2401042045       18.2506941723       16.7187622860
H    1.0       20.7868118421       18.1769516490       15.7761195602
H    1.0       20.6701671135       17.5598314453       17.4452228125
H    1.0       19.1863091785       18.0153390571       16.5553370632
 $end
