$$$$
! Edit this basic GAMESS input file as needed.
! Conformer was generated by a VeraChem VCPack run 
! and contains    155 atoms.
!
 $contrl scftyp=rhf runtyp=optimize nzvar=0
  maxit=200 icharg=0 $end
 $system mwords=50 $end
 $basis gbasis=pm3 $end
 $statpt nstep=200 $end
 $guess guess=huckel $end
 $data
FE Rank=1      G=583.810           E=376.080           -TS=207.730              
C1
C    6.0       16.3871050733       15.3253796948       21.8273961878
H    1.0       15.3400896973       15.1855879810       22.1246391945
O    8.0       16.6052617194       16.6270192671       21.2454164005
C    6.0       17.3236652959       15.1554549418       23.0516671341
H    1.0       17.1779217558       14.1351740700       23.4298916432
O    8.0       17.0140324235       16.0914820569       24.0959741508
H    1.0       16.0880546535       16.3983341367       23.9449897995
C    6.0       18.8029142088       15.3071954202       22.6324308872
H    1.0       18.9579138239       16.3416513106       22.3043272867
O    8.0       19.6325582828       15.0313442087       23.7643103158
H    1.0       19.2038292151       15.5209278026       24.5023967222
C    6.0       19.1542017002       14.3711807465       21.4489971181
H    1.0       19.2252151572       13.3411083352       21.8226642869
C    6.0       18.1005877404       14.4470325788       20.3082086875
H    1.0       18.2044391685       15.4217516419       19.8136384150
O    8.0       16.7611417139       14.3308620529       20.8508894653
C    6.0       18.2852220355       13.3590486578       19.2231730066
H    1.0       19.1860310129       13.5970707753       18.6413993663
H    1.0       17.4310155282       13.4031594571       18.5343087939
O    8.0       18.4042314558       12.0466138228       19.7867848520
H    1.0       18.4331876453       11.4046641190       19.0440362878
C    6.0       14.6374146332       20.2769097508       20.9826487874
H    1.0       13.9332205014       21.0961503836       20.7925756392
O    8.0       15.9332150152       20.7577813400       21.3850421785
C    6.0       14.1088736360       19.3570819514       22.1093991359
H    1.0       13.1487665903       18.9449363567       21.7724239257
O    8.0       13.9028367099       20.0981488497       23.3227367530
H    1.0       14.6748638087       20.7091739773       23.4334308241
C    6.0       15.0754352868       18.1726191850       22.3572531229
H    1.0       16.0029571891       18.5756089648       22.7864207684
O    8.0       14.4607720430       17.2755405338       23.2884948343
H    1.0       14.0338138233       17.8602553647       23.9558163978
C    6.0       15.4346551897       17.4416181696       21.0308793954
H    1.0       14.5826134866       16.8343788758       20.6972502008
C    6.0       15.8125968654       18.4338759904       19.8998563954
H    1.0       16.7874220289       18.8776135435       20.1341868555
O    8.0       14.8044458704       19.4687422736       19.8005671559
C    6.0       15.9206364426       17.7432999593       18.5253962755
H    1.0       14.9318619917       17.3718270963       18.2245521982
H    1.0       16.5913557817       16.8777913922       18.6072586567
O    8.0       16.4298646636       18.6655788583       17.5598090090
H    1.0       15.7844970267       19.4059138854       17.5302799066
C    6.0       18.3498940536       24.0804653716       21.6291975857
H    1.0       18.7837298204       25.0877357622       21.6723140117
O    8.0       19.3662214365       23.0588440610       21.6239927151
C    6.0       17.4442334025       23.8512491586       22.8620739375
H    1.0       16.6390699893       24.5967388427       22.8292117266
O    8.0       18.1963631814       24.0128329900       24.0754745247
H    1.0       19.1441621269       23.8318421686       23.8555907976
C    6.0       16.8038167440       22.4471605041       22.8091285978
H    1.0       17.6065747740       21.7116935413       22.9318179018
O    8.0       15.8588527864       22.3061391118       23.8740987729
H    1.0       16.3122058418       22.6745326191       24.6651273209
C    6.0       16.1130187558       22.1829959300       21.4494474277
H    1.0       15.1604983041       22.7280759210       21.4302811573
C    6.0       16.9952758824       22.5937758416       20.2362031366
H    1.0       17.8144199885       21.8680921442       20.1627736129
O    8.0       17.5520868016       23.9177822660       20.4388865240
C    6.0       16.2557987933       22.5779403120       18.8765244305
H    1.0       16.0361727988       21.5373894647       18.6040934028
H    1.0       16.9349992378       22.9740198689       18.1099077025
O    8.0       15.0466526938       23.3462504325       18.8980175110
H    1.0       14.3462254957       22.7986891518       19.3085401214
C    6.0       23.4521487502       22.5934971156       20.8738603150
H    1.0       24.4948313843       22.7612011522       20.5752320046
O    8.0       23.2059777394       21.2001122197       21.1540327236
C    6.0       23.0782858976       23.4579060155       22.1128227705
H    1.0       23.2095055835       24.5077930611       21.8201244653
O    8.0       23.9220185798       23.1887676693       23.2422703184
H    1.0       23.7603757301       22.2478173522       23.5058444369
C    6.0       21.5911195875       23.2556991718       22.4902191051
H    1.0       21.4541603222       22.2161266220       22.8191415775
O    8.0       21.2322192159       24.1528483940       23.5467813712
H    1.0       21.9742252596       24.1036185247       24.1898164483
C    6.0       20.6848691095       23.5035542852       21.2619956853
H    1.0       20.7106289577       24.5751951190       21.0240682202
C    6.0       21.1567053485       22.6990332370       20.0210324242
H    1.0       21.0220907846       21.6327476778       20.2329642145
O    8.0       22.5633041434       22.9711422076       19.7970389949
C    6.0       20.3770165624       22.9978409624       18.7141474394
H    1.0       19.5025330373       22.3375175351       18.6701087341
H    1.0       21.0153674484       22.7362171306       17.8597396294
O    8.0       19.9481612171       24.3599981715       18.6086434759
H    1.0       19.1333960590       24.4478720142       19.1558219231
C    6.0       24.9464995867       17.5821155247       22.0362896581
H    1.0       25.5791648486       16.7314283289       22.3207704083
O    8.0       23.7354500602       17.1554243768       21.3803190743
C    6.0       24.5771249672       18.4251759415       23.2832853848
H    1.0       25.5122846117       18.8256601040       23.6960845190
O    8.0       23.9151503587       17.6399823238       24.2879944066
H    1.0       23.9310916763       16.6994941268       23.9853478984
C    6.0       23.6795382086       19.6132132494       22.8789344113
H    1.0       22.7264511048       19.1968164765       22.5338563150
O    8.0       23.4559071891       20.4417009241       24.0237228441
H    1.0       23.2690266105       19.8063153140       24.7513834466
C    6.0       24.2927267273       20.4394005356       21.7196465532
H    1.0       25.0828343027       21.0834812203       22.1272327676
C    6.0       24.8704878926       19.5510928821       20.5790216190
H    1.0       24.0257210006       19.1410517701       20.0104970140
O    8.0       25.6481899595       18.4541831918       21.1258728103
C    6.0       25.7556241593       20.3274864439       19.5748513779
H    1.0       25.1088422853       20.9774679992       18.9702302945
H    1.0       26.2234428681       19.6066700991       18.8908920917
O    8.0       26.7576250486       21.1141053262       20.2309532479
H    1.0       27.3312479473       21.5063057443       19.5368162799
C    6.0       21.4198626816       13.8398376184       20.6539393776
H    1.0       20.9779447316       12.8762830089       20.3695861517
O    8.0       20.4029855449       14.8366065815       20.8991360149
C    6.0       22.3322263318       13.6938005889       21.9010002310
H    1.0       23.1609474795       13.0330124461       21.6146952818
O    8.0       21.6426370457       13.1089554961       23.0152270802
H    1.0       20.9379128068       13.7509136898       23.2842518582
C    6.0       22.9330081050       15.0642899495       22.2946003939
H    1.0       22.1129571139       15.7114306545       22.6363336530
O    8.0       23.8747187494       14.8715266825       23.3552508615
H    1.0       23.4562796168       14.2083019782       23.9501893573
C    6.0       23.6205164650       15.7519727743       21.0839940293
H    1.0       24.6018385996       15.2901230439       20.9171834796
C    6.0       22.7865281170       15.6652122281       19.7752629555
H    1.0       21.9466867306       16.3632499758       19.8644152507
O    8.0       22.2623259071       14.3280473503       19.5892004596
C    6.0       23.5747656336       16.0765677840       18.5069723046
H    1.0       23.7363741196       17.1624871463       18.5316397190
H    1.0       22.9532344491       15.8616333482       17.6276083863
O    8.0       24.8343925733       15.4036564877       18.3923038685
H    1.0       25.4540998966       15.8222226630       19.0274512732
C    6.0       19.5068168455       19.0494881276       25.8867876964
H    1.0       20.3379976567       19.7482582715       26.0481814068
H    1.0       18.7697800311       19.2090213306       26.6841828891
H    1.0       19.8948807830       18.0272020725       25.9848719763
C    6.0       18.8642831822       19.2652400604       24.5013018991
H    1.0       18.4573052207       20.2829244828       24.4457719110
H    1.0       18.0173978634       18.5765748768       24.3815458124
C    6.0       19.8857791982       19.0433677298       23.3662857490
H    1.0       20.7061153713       19.7644471767       23.4763650499
H    1.0       20.3264707460       18.0412708765       23.4640125220
C    6.0       19.2504377797       19.1974176117       21.9671103695
H    1.0       18.8972270703       20.2279278989       21.8380452906
H    1.0       18.3708970286       18.5469129887       21.8876039047
C    6.0       20.2555778376       18.8517395268       20.8480357980
H    1.0       21.1430246503       19.4860045055       20.9567646574
H    1.0       20.5943999540       17.8140656504       20.9668833036
C    6.0       19.6524043788       19.0461320217       19.4395944508
H    1.0       19.1753446458       20.0323772551       19.3764494950
H    1.0       18.8648294561       18.2990274776       19.2767122408
C    6.0       20.7283748462       18.9255989475       18.3363457880
H    1.0       21.5674425289       19.5956791510       18.5681358709
H    1.0       21.1337159931       17.9069060515       18.3211054368
C    6.0       20.1958219068       19.2844942421       16.9365056967
H    1.0       21.0177634861       19.2367582488       16.2171831948
H    1.0       19.8036890428       20.3048679922       16.9389080321
N    7.0       19.1002800016       18.3635735592       16.4386666947
H    1.0       19.3855060333       17.3803180903       16.4569201252
H    1.0       18.8306158614       18.5831522508       15.4744285902
H    1.0       18.2372093865       18.4460542176       17.0026189021
 $end
