$$$$
! Edit this basic GAMESS input file as needed.
! Conformer was generated by a VeraChem VCPack run 
! and contains    152 atoms.
!
 $contrl scftyp=rhf runtyp=optimize nzvar=0
  maxit=200 icharg=0 $end
 $system mwords=50 $end
 $basis gbasis=pm3 $end
 $statpt nstep=200 $end
 $guess guess=huckel $end
 $data
FE Rank=1      G=553.343           E=348.592           -TS=204.752              
C1
C    6.0       16.2825249428       15.2683385506       20.4998441618
H    1.0       15.2945097284       15.0307479342       20.0848418143
O    8.0       16.3725101108       16.6448673348       20.9199008357
C    6.0       16.5880317116       14.3824792099       21.7370841764
H    1.0       16.5672907148       13.3358845948       21.4064621319
O    8.0       15.6027229867       14.5709241243       22.7657091701
H    1.0       15.4257124107       15.5431097060       22.8380285722
C    6.0       18.0048714395       14.6827097628       22.2862025719
H    1.0       18.0026704567       15.7106149230       22.6663334851
O    8.0       18.3084451231       13.7784119748       23.3542856130
H    1.0       17.4748384526       13.7119666066       23.8727507091
C    6.0       19.0607376436       14.5780696958       21.1529819682
H    1.0       19.1744080896       13.5241321450       20.8672896493
C    6.0       18.6502803306       15.3999693988       19.9041251334
H    1.0       18.6675231975       16.4638648418       20.1707407589
O    8.0       17.3085321346       15.0289077321       19.5104976387
C    6.0       19.6033568421       15.2211789162       18.6944986163
H    1.0       20.4620444186       15.8911222967       18.8296952165
H    1.0       19.0816788701       15.5472456550       17.7849015818
O    8.0       20.0710006125       13.8754602908       18.5412660847
H    1.0       20.6701559814       13.6862003447       19.2969732725
C    6.0       14.5356115540       20.3051179132       20.7940200347
H    1.0       13.8959803107       21.1907240171       20.6873692653
O    8.0       15.9248969460       20.6730820846       20.9602764667
C    6.0       14.0685455646       19.4095128843       21.9723937035
H    1.0       13.0810322448       19.0123089565       21.7030432711
O    8.0       13.9459699451       20.1391360005       23.2011751602
H    1.0       14.8580092986       20.4275862307       23.4548890983
C    6.0       15.0339961564       18.2118989320       22.1293656102
H    1.0       16.0215845678       18.6028263386       22.4029570547
O    8.0       14.5620428161       17.3377399671       23.1594590870
H    1.0       14.2613715287       17.9313311762       23.8829803745
C    6.0       15.1711647321       17.4299486523       20.7991201032
H    1.0       14.2780558540       16.8017567329       20.6838305870
C    6.0       15.3398551499       18.3477674209       19.5509986173
H    1.0       16.3696605909       18.7220227011       19.5384446642
O    8.0       14.4380907789       19.4828346912       19.6118173151
C    6.0       15.1120551667       17.6097857826       18.2101342274
H    1.0       15.9505836732       16.9200203752       18.0447134350
H    1.0       15.1318537631       18.3474054755       17.3967353511
O    8.0       13.8760587092       16.8844118785       18.1950132440
H    1.0       13.7703593671       16.4948717081       17.2996460958
C    6.0       18.5308729741       23.6421997757       22.2132497959
H    1.0       18.9923848742       24.5495131151       22.6226348517
O    8.0       19.4802226666       22.8558905354       21.4637637500
C    6.0       17.9504556287       22.7731283221       23.3573211568
H    1.0       17.2087341282       23.3872061746       23.8846467446
O    8.0       18.9684310191       22.3583390120       24.2843316933
H    1.0       19.7123685290       23.0025806722       24.2030948967
C    6.0       17.2348862855       21.5274831681       22.7930815803
H    1.0       17.9947276810       20.8864340832       22.3369615384
O    8.0       16.6151553113       20.8394182647       23.8810416469
H    1.0       17.2748953474       20.8980622863       24.6083415708
C    6.0       16.2051552249       21.8865402911       21.6916356191
H    1.0       15.3062775316       22.3024809894       22.1656443667
C    6.0       16.7795773148       22.8994246655       20.6604708660
H    1.0       17.5128877095       22.3721291036       20.0369641449
O    8.0       17.4422005366       23.9982911859       21.3350657055
C    6.0       15.7057053183       23.4809600474       19.7100761553
H    1.0       15.3802572194       22.6858552313       19.0255802488
H    1.0       16.1672390701       24.2687287648       19.0996977858
O    8.0       14.5755485866       23.9996254202       20.4227122359
H    1.0       13.9753783021       24.4167942411       19.7666347037
C    6.0       23.6226885560       22.7438512957       20.9362426279
H    1.0       24.6657469238       22.9880552814       20.7002624116
O    8.0       23.4462765224       21.3377498882       21.2091433613
C    6.0       23.1512791116       23.5418666950       22.1775265921
H    1.0       23.2215939673       24.6078199795       21.9241739864
O    8.0       23.9852267658       23.2810922599       23.3170228592
H    1.0       24.2146146776       22.3173067120       23.3079160706
C    6.0       21.6699371748       23.2321161020       22.5023563867
H    1.0       21.5969425643       22.1776821210       22.7996785258
O    8.0       21.2595895868       24.0719525903       23.5869512608
H    1.0       22.0331086641       24.0864053845       24.1963766302
C    6.0       20.7757278863       23.4537230885       21.2493146315
H    1.0       20.6880833798       24.5310487340       21.0588488428
C    6.0       21.3650092284       22.7625550695       19.9889295920
H    1.0       21.2801085210       21.6804021131       20.1265421700
O    8.0       22.7638721552       23.1061271704       19.8336847167
C    6.0       20.6132593168       23.1070593570       18.6793205453
H    1.0       19.6564810657       22.5679989372       18.6743234384
H    1.0       21.2002695700       22.7316097480       17.8307203717
O    8.0       20.3745009175       24.5115607462       18.5298561243
H    1.0       19.6754098266       24.7610358465       19.1719545800
C    6.0       25.2190371785       17.6185358434       21.1770741330
H    1.0       25.8571551366       16.7298433643       21.0878696536
O    8.0       23.8303200247       17.2619447906       21.3584012978
C    6.0       25.6736484558       18.5254617212       22.3492542887
H    1.0       26.6753032210       18.8993141064       22.0996456309
O    8.0       25.7471883988       17.8086357721       23.5897213010
H    1.0       24.8382958146       17.4669354474       23.7832020930
C    6.0       24.7275235485       19.7443110017       22.4690668742
H    1.0       23.7285875352       19.3791132037       22.7421324427
O    8.0       25.2125750068       20.6237424947       23.4869590692
H    1.0       25.4764128984       20.0350682073       24.2294429223
C    6.0       24.6200220590       20.5038868502       21.1210022665
H    1.0       25.5374162401       21.0913501196       20.9881202870
C    6.0       24.4247955706       19.5559771420       19.9006404618
H    1.0       23.3965546252       19.1809307519       19.9172487696
O    8.0       25.3229608121       18.4211586071       19.9814756383
C    6.0       24.6239601607       20.2502279587       18.5312302575
H    1.0       23.7940268463       20.9506395176       18.3657034425
H    1.0       24.5626335875       19.4855894286       17.7455357549
O    8.0       25.8747507587       20.9437944989       18.4398081951
H    1.0       25.7583320667       21.8287432631       18.8444088239
C    6.0       21.2064498633       14.2126893763       22.2467299285
H    1.0       20.6994608240       13.2834095054       22.5365758644
O    8.0       20.3032512252       15.1368626927       21.6109435826
C    6.0       21.8035284833       14.9050210744       23.4940806596
H    1.0       22.5379709643       14.2158560681       23.9311746416
O    8.0       20.7806084798       15.1963157170       24.4641303786
H    1.0       20.0000853452       14.6357987223       24.2303084845
C    6.0       22.5309091985       16.2059972080       23.0867575728
H    1.0       21.7736360663       16.8991603337       22.7095403182
O    8.0       23.1635580341       16.7647309568       24.2420887565
H    1.0       22.6595333054       16.4071936381       25.0056051412
C    6.0       23.5562722013       15.9728549743       21.9466733425
H    1.0       24.4573056258       15.5098685772       22.3705548187
C    6.0       22.9846992589       15.0881815668       20.8009793060
H    1.0       22.2744446551       15.6994992879       20.2305049361
O    8.0       22.2857522636       13.9331655742       21.3309991161
C    6.0       24.0637985512       14.5975540441       19.8064720855
H    1.0       24.4151944566       15.4584415059       19.2215619798
H    1.0       23.5991228050       13.8932294783       19.1034465668
O    8.0       25.1715109817       13.9794419857       20.4732430457
H    1.0       25.7757241862       13.6273322468       19.7835802629
C    6.0       19.5264877818       19.2559855095       18.5945359869
H    1.0       18.6403921135       19.5689205862       18.0271778746
H    1.0       20.3748541833       19.8660559646       18.2588533493
H    1.0       19.7374902140       18.2105914075       18.3398080355
C    6.0       19.2875206408       19.4228788954       20.1090004024
H    1.0       18.4141931601       18.8298971647       20.4052849499
H    1.0       19.0422385578       20.4712066437       20.3192564862
C    6.0       20.5206463438       18.9980179478       20.9384031337
H    1.0       20.7404439294       17.9355634345       20.7663089704
H    1.0       21.3951828119       19.5514276889       20.5851362492
C    6.0       20.3644285615       19.2612410912       22.4539732803
H    1.0       20.1375971757       20.3207852402       22.6274296218
H    1.0       21.3320777099       19.0812596240       22.9379612506
C    6.0       19.2736800182       18.3720918759       23.0993352891
H    1.0       18.2982072932       18.6175279603       22.6652978079
H    1.0       19.4673230398       17.3230301796       22.8542432127
C    6.0       19.1888431611       18.5266539347       24.6293459254
H    1.0       19.1181519680       19.5924406779       24.8697184497
C    6.0       17.9371187540       17.8129664877       25.1652075032
H    1.0       17.9765741160       16.7356442347       24.9606838006
H    1.0       17.0265826804       18.2123501152       24.7023043441
H    1.0       17.8462059010       17.9510369525       26.2493067508
N    7.0       20.4166908141       17.9924293879       25.3110715287
H    1.0       21.2674512589       18.4551502158       24.9772602876
H    1.0       20.3663049731       18.1112863039       26.3261298706
H    1.0       20.5188567821       16.9836370793       25.1171397253
 $end
$$$$
! Edit this basic GAMESS input file as needed.
! Conformer was generated by a VeraChem VCPack run 
! and contains    152 atoms.
!
 $contrl scftyp=rhf runtyp=optimize nzvar=0
  maxit=200 icharg=0 $end
 $system mwords=50 $end
 $basis gbasis=pm3 $end
 $statpt nstep=200 $end
 $guess guess=huckel $end
 $data
FE Rank=2      G=554.580           E=350.204           -TS=204.376              
C1
C    6.0       16.2241378934       15.1680734857       21.7385604554
H    1.0       15.1370934751       15.0968726326       21.8749536385
O    8.0       16.6413299586       16.5225914364       21.4804581320
C    6.0       16.9469600572       14.6752030876       23.0129464206
H    1.0       16.6851155822       13.6189518526       23.1576916374
O    8.0       16.5257841927       15.4355046122       24.1575881552
H    1.0       16.0063945450       16.2049533621       23.8172648134
C    6.0       18.4780687576       14.7759702698       22.8382253302
H    1.0       18.7359095683       15.8383871783       22.7963084781
O    8.0       19.1276739220       14.1767077425       23.9625788411
H    1.0       18.6383541755       14.5164326793       24.7452522850
C    6.0       18.9656794419       14.1185808466       21.5230261382
H    1.0       19.0295131040       13.0330480293       21.6759734797
C    6.0       18.0655938808       14.4429572834       20.2953651843
H    1.0       18.2890941626       15.4719340076       19.9891870165
O    8.0       16.6570828838       14.3510322214       20.6318975509
C    6.0       18.3406091526       13.5370552730       19.0716539135
H    1.0       19.3258419836       13.7957339187       18.6604596192
H    1.0       17.5953178195       13.7584698787       18.2958107685
O    8.0       18.3069822263       12.1459424737       19.4131755824
H    1.0       18.4163010974       11.6324099838       18.5831117791
C    6.0       15.0064069842       20.2400550639       20.5359480357
H    1.0       14.3745355547       21.0531349156       20.1560252411
O    8.0       16.2850032968       20.7321086374       20.9872291471
C    6.0       14.3077325708       19.4791805515       21.6984813255
H    1.0       13.3824589757       19.0502448504       21.2922729977
O    8.0       13.9726794648       20.3504188361       22.7885240160
H    1.0       14.8208960514       20.7343604242       23.1251599112
C    6.0       15.1953488874       18.3108577128       22.1933104868
H    1.0       16.1045242828       18.7360163647       22.6374245643
O    8.0       14.4909375234       17.5446655491       23.1761027061
H    1.0       14.0551417209       18.2090819513       23.7556532898
C    6.0       15.6102051221       17.4048710041       21.0087429235
H    1.0       14.7263340100       16.8546691195       20.6595276896
C    6.0       16.1946568356       18.2211611056       19.8252816544
H    1.0       17.1466166871       18.6614920419       20.1459889469
O    8.0       15.2650172118       19.2801979174       19.4851322361
C    6.0       16.4962326464       17.3848770878       18.5537899610
H    1.0       17.5315915141       17.0270166907       18.6126002094
H    1.0       16.4405504003       18.0458750081       17.6785821147
O    8.0       15.6136643907       16.2681142648       18.3840851402
H    1.0       15.8300350674       15.6123842080       19.0869648697
C    6.0       18.4978950062       24.0465609370       21.9336353181
H    1.0       18.9104025631       25.0257809339       22.2090802551
O    8.0       19.5237867495       23.1397131474       21.4856727394
C    6.0       17.7730307588       23.4154619113       23.1466389470
H    1.0       16.9455421139       24.0850472548       23.4155191146
O    8.0       18.6573945194       23.2721200319       24.2724759020
H    1.0       19.5267511825       23.6672515166       24.0091247665
C    6.0       17.1833114301       22.0396600834       22.7676023516
H    1.0       18.0294581664       21.3645519523       22.5953999631
O    8.0       16.3842734150       21.5542585403       23.8532087299
H    1.0       16.6292115157       22.1182279213       24.6196003040
C    6.0       16.3421846648       22.0901022728       21.4666343227
H    1.0       15.3469381340       22.4879268320       21.7052352215
C    6.0       17.0035739145       22.9380781577       20.3406786884
H    1.0       17.8297830236       22.3500649114       19.9210256343
O    8.0       17.5330732524       24.1811345925       20.8701498500
C    6.0       16.0468870128       23.2701724349       19.1707532261
H    1.0       15.8567607249       22.3488291315       18.6038154044
H    1.0       16.5528458659       23.9709091340       18.4930892607
O    8.0       14.8067160665       23.8250665385       19.6260851730
H    1.0       14.2886349249       24.0876808766       18.8340331304
C    6.0       23.5882553190       22.8456605558       20.8452368176
H    1.0       24.6479314666       22.9776189444       20.5914457865
O    8.0       23.2629245077       21.4521067490       21.0475637459
C    6.0       23.2000525687       23.6743414337       22.1011457703
H    1.0       23.3305147305       24.7323803286       21.8387826914
O    8.0       24.0334100724       23.3781187095       23.2305298387
H    1.0       23.8563846615       22.4358727243       23.4775943919
C    6.0       21.7079247802       23.4537394136       22.4482198306
H    1.0       21.5767026260       22.4037717559       22.7417267630
O    8.0       21.3342972237       24.3091042829       23.5338879814
H    1.0       22.0912387403       24.2709897632       24.1609901264
C    6.0       20.8070642325       23.7300635904       21.2170964448
H    1.0       20.7375705906       24.8149316323       21.0661549386
C    6.0       21.3385092876       23.0705923133       19.9142334444
H    1.0       21.1823076725       21.9896913418       19.9922774240
O    8.0       22.7572023452       23.3286991201       19.7666001215
C    6.0       20.6025714978       23.5288939790       18.6301165286
H    1.0       19.6371602786       23.0090693672       18.5774239238
H    1.0       21.1890773806       23.2064961359       17.7595371627
O    8.0       20.3876453359       24.9443774858       18.5816422696
H    1.0       19.6367462363       25.1471528161       19.1811784242
C    6.0       24.7635844252       17.7126041308       21.9735675146
H    1.0       25.3740990484       16.8527019690       22.2771277883
O    8.0       23.5336452562       17.2961162485       21.3448395328
C    6.0       24.4292542446       18.5940362545       23.2031822148
H    1.0       25.3831958860       18.9434928158       23.6193945968
O    8.0       23.7148259784       17.8599175442       24.2113467517
H    1.0       23.8597914293       16.9001011990       24.0288808356
C    6.0       23.6053676621       19.8285613027       22.7792538304
H    1.0       22.6311404618       19.4726278748       22.4219810825
O    8.0       23.4276932153       20.6685797435       23.9229525717
H    1.0       23.2440969025       20.0398338652       24.6559944326
C    6.0       24.2797824530       20.6065674429       21.6219535447
H    1.0       25.1221454814       21.1847396092       22.0241271360
C    6.0       24.7729466645       19.6647755616       20.4863206873
H    1.0       23.8922330627       19.2967110459       19.9448607953
O    8.0       25.4930198494       18.5320029769       21.0356918598
C    6.0       25.6820437861       20.3717516758       19.4527667257
H    1.0       25.0644987562       21.0600836186       18.8599665477
H    1.0       26.0822584608       19.6162695468       18.7633919634
O    8.0       26.7511917438       21.0941665803       20.0764625349
H    1.0       27.3273833891       21.4478780413       19.3640324590
C    6.0       21.3110627564       13.8154508867       20.8651116606
H    1.0       20.9343169906       12.8149619942       20.6159103406
O    8.0       20.2490508415       14.7099825159       21.2476346938
C    6.0       22.3320265840       13.7578729157       22.0293430283
H    1.0       23.1803364161       13.1506324164       21.6873855952
O    8.0       21.7638276189       13.1473130944       23.1984819689
H    1.0       20.9058685949       13.6053409142       23.3882034129
C    6.0       22.8643104253       15.1751213271       22.3603470096
H    1.0       22.0322272783       15.7701054077       22.7614975371
O    8.0       23.8944440523       15.0562248263       23.3477429250
H    1.0       23.5671593380       14.3679988699       23.9711351117
C    6.0       23.3999083832       15.8842522822       21.0837035323
H    1.0       24.3630008023       15.4375984708       20.8056007594
C    6.0       22.4209190566       15.7624084882       19.8834011428
H    1.0       21.5453337245       16.3903362375       20.0903546648
O    8.0       21.9892607883       14.3890342327       19.7278518630
C    6.0       23.0209964960       16.2492514273       18.5405043557
H    1.0       23.0892156700       17.3446874758       18.5625160853
H    1.0       22.3258453074       15.9846757938       17.7327361796
O    8.0       24.3150664567       15.6938557980       18.2766286734
H    1.0       24.9552061373       16.1410936667       18.8709308007
C    6.0       20.4664115574       19.1596516615       19.5978754658
H    1.0       19.8372785349       18.3882442991       19.1358689263
H    1.0       20.4939324910       20.0218197852       18.9201612382
H    1.0       21.4872162768       18.7688726537       19.6845517575
C    6.0       19.9244562901       19.5662969681       20.9831830226
H    1.0       18.9542179963       20.0653381937       20.8629051909
H    1.0       20.6036142990       20.3021953717       21.4306984175
C    6.0       19.7706156640       18.3411540335       21.9136086201
H    1.0       19.0858747737       17.6269551322       21.4396577935
H    1.0       20.7342384581       17.8227789822       22.0128290139
C    6.0       19.2296444428       18.6993404422       23.3200294855
H    1.0       18.9806778701       17.7732327257       23.8543958160
H    1.0       18.2902827507       19.2546087313       23.2209197757
C    6.0       20.2525907688       19.4935980261       24.1677640067
H    1.0       21.1798956489       18.9098124980       24.2164925111
H    1.0       20.4989116190       20.4464459952       23.6835805126
C    6.0       19.7751831802       19.7676240786       25.6068945155
H    1.0       19.4735759038       18.8177283654       26.0586790648
C    6.0       20.9222428363       20.3614675175       26.4394607752
H    1.0       21.2696071470       21.3116949627       26.0134088489
H    1.0       21.7736749477       19.6705728874       26.4776191851
H    1.0       20.5981712846       20.5472764530       27.4706234988
N    7.0       18.5775835206       20.6727193350       25.6477565186
H    1.0       17.7983225156       20.2978791856       25.0942476889
H    1.0       18.2459082923       20.8166288021       26.6049176336
H    1.0       18.7983560039       21.6005723399       25.2525398613
 $end
$$$$
! Edit this basic GAMESS input file as needed.
! Conformer was generated by a VeraChem VCPack run 
! and contains    152 atoms.
!
 $contrl scftyp=rhf runtyp=optimize nzvar=0
  maxit=200 icharg=0 $end
 $system mwords=50 $end
 $basis gbasis=pm3 $end
 $statpt nstep=200 $end
 $guess guess=huckel $end
 $data
FE Rank=3      G=554.723           E=350.937           -TS=203.786              
C1
C    6.0       16.1372216419       15.0834988674       20.7385326162
H    1.0       15.1041543117       14.9156194928       20.4075686280
O    8.0       16.3680078092       16.4574666247       21.1101764519
C    6.0       16.4743711369       14.2045202493       21.9703608827
H    1.0       16.3585881085       13.1551656521       21.6694876625
O    8.0       15.5856745599       14.4828676366       23.0643674633
H    1.0       15.5193956533       15.4676182421       23.1527509560
C    6.0       17.9461930613       14.4209950426       22.3998569995
H    1.0       18.0472222365       15.4522149646       22.7642286497
O    8.0       18.2873066321       13.5053219854       23.4460450104
H    1.0       17.5294029258       13.5366188902       24.0713146022
C    6.0       18.9100111714       14.2327515375       21.2025312391
H    1.0       18.9517613616       13.1624357365       20.9615031327
C    6.0       18.4525647959       15.0332244836       19.9499551952
H    1.0       18.5510541931       16.1014883689       20.1694291876
O    8.0       17.0610497912       14.7400487950       19.6823125550
C    6.0       19.2689931211       14.7663142217       18.6597870269
H    1.0       20.1388265444       15.4344415671       18.6529668505
H    1.0       18.6514085001       15.0393325871       17.7937494582
O    8.0       19.7101945798       13.4101542642       18.5393645763
H    1.0       20.5775777164       13.3543554949       19.0005180981
C    6.0       14.7328888297       20.2272343242       21.0625514228
H    1.0       14.1079959932       21.1271439604       20.9981410039
O    8.0       16.1409295148       20.5627031745       21.0400378805
C    6.0       14.3928990807       19.4031708882       22.3343373618
H    1.0       13.3560727290       19.0587626394       22.2259315880
O    8.0       14.4924082557       20.1833025186       23.5342461607
H    1.0       15.4461912182       20.4288506433       23.6360880029
C    6.0       15.3004237892       18.1540154691       22.4142559976
H    1.0       16.3355555714       18.4920810242       22.5472194303
O    8.0       14.9129720118       17.3442806908       23.5290309542
H    1.0       14.7766150613       17.9755566191       24.2702368256
C    6.0       15.2178378033       17.3223241046       21.1102906351
H    1.0       14.2765185532       16.7571554709       21.1263128567
C    6.0       15.2977645407       18.1889835342       19.8203600707
H    1.0       16.3380208020       18.5078076864       19.6921317771
O    8.0       14.4619253800       19.3672045617       19.9362055600
C    6.0       14.8925026035       17.4245048238       18.5371396624
H    1.0       15.6775188909       16.6927202344       18.3038422328
H    1.0       14.8531911740       18.1371354245       17.7024688642
O    8.0       13.6329643767       16.7559007205       18.6808685459
H    1.0       13.4109577833       16.3494441175       17.8147961091
C    6.0       18.7360182655       23.7491275478       21.8644945070
H    1.0       19.1417748601       24.7100781915       22.2043447524
O    8.0       19.6810018113       23.0424846777       21.0327286843
C    6.0       18.3541054091       22.8615837483       23.0809764360
H    1.0       17.6170900972       23.4241594415       23.6688729914
O    8.0       19.4867338576       22.5628266365       23.9130485929
H    1.0       20.1258495916       23.3075834836       23.8116415670
C    6.0       17.6932350203       21.5446409842       22.6172801971
H    1.0       18.4446692075       20.9688616198       22.0679033913
O    8.0       17.2698203427       20.8147863302       23.7717490954
H    1.0       18.0323438630       20.8795542871       24.3901731393
C    6.0       16.5063596680       21.8157266368       21.6608940223
H    1.0       15.6781478079       22.2425523927       22.2421476374
C    6.0       16.9064129365       22.7992812477       20.5266837504
H    1.0       17.6196255834       22.2904412485       19.8650043623
O    8.0       17.5373906978       23.9755985409       21.0916659731
C    6.0       15.7104098792       23.2579746136       19.6580254305
H    1.0       15.3800796692       22.4090387902       19.0441932808
H    1.0       16.0568822359       24.0421308158       18.9715598324
O    8.0       14.6170150185       23.7370470336       20.4516482304
H    1.0       13.9343135523       24.0864176926       19.8381363869
C    6.0       23.7533038640       22.8319510766       20.5094015568
H    1.0       24.8189011248       22.9300984136       20.2652019549
O    8.0       23.4092788646       21.4654848808       20.8364376891
C    6.0       23.3454007596       23.7921561855       21.6563956810
H    1.0       23.4495585895       24.8139428325       21.2680326191
O    8.0       24.1874881106       23.6592583526       22.8099815276
H    1.0       24.0072158876       22.7638260271       23.1914917888
C    6.0       21.8575762643       23.5781289374       22.0240039965
H    1.0       21.7481730566       22.5588759215       22.4181812661
O    8.0       21.4941713604       24.5289023933       23.0321647958
H    1.0       22.2869375861       24.5995543676       23.6117629122
C    6.0       20.9388800016       23.7102626400       20.7729667426
H    1.0       20.7822473234       24.7736978609       20.5495149152
C    6.0       21.5236332915       23.0084940178       19.5130064675
H    1.0       21.3495609471       21.9343711161       19.6298548346
O    8.0       22.9511386312       23.2250241074       19.3790476339
C    6.0       20.8355748473       23.4527969251       18.2002965851
H    1.0       19.7856098747       23.1320786669       18.2310997707
H    1.0       21.3151975033       22.9339388462       17.3597371619
O    8.0       20.9025123505       24.8716726894       18.0113511553
H    1.0       20.4825729714       25.0786795452       17.1482152022
C    6.0       24.7526495747       17.8576848180       22.3298366995
H    1.0       25.3158170340       17.0237985595       22.7682395186
O    8.0       23.5194210068       17.4093926057       21.7297052293
C    6.0       24.4312134752       18.9126579898       23.4160839246
H    1.0       25.3907054621       19.2829260431       23.8003013088
O    8.0       23.6778718375       18.3468181946       24.5010804619
H    1.0       23.7207709210       17.3643461719       24.4058045424
C    6.0       23.6636893262       20.1072095358       22.8080385864
H    1.0       22.6806491217       19.7512780102       22.4817703370
O    8.0       23.4991750353       21.0980412826       23.8244129887
H    1.0       23.2035642560       20.5909577766       24.6145754667
C    6.0       24.3853129698       20.6900297404       21.5649740079
H    1.0       25.2354314417       21.2997393748       21.8983453360
C    6.0       24.8775482611       19.5807929076       20.5903139836
H    1.0       24.0002267696       19.1678489059       20.0783935437
O    8.0       25.5385888184       18.5099593995       21.3107406223
C    6.0       25.8369527576       20.1071493588       19.4965323753
H    1.0       25.2605548167       20.7293456890       18.7984814608
H    1.0       26.2243300597       19.2510403027       18.9279986738
O    8.0       26.9174785840       20.8703644131       20.0472877841
H    1.0       27.5227047300       21.1056613653       19.3104239565
C    6.0       21.3153074610       13.8738774419       21.4515995205
H    1.0       21.0072254792       12.8300823724       21.3104691279
O    8.0       20.1831527001       14.7430979906       21.6368202054
C    6.0       22.1936936143       13.9926408912       22.7199885211
H    1.0       23.0676351823       13.3430648011       22.5802785559
O    8.0       21.4583611830       13.5602770229       23.8763143645
H    1.0       20.5089493654       13.7837669374       23.7127546951
C    6.0       22.6988466149       15.4422928270       22.9156855759