$$$$
! Edit this basic GAMESS input file as needed.
! Conformer was generated by a VeraChem VCPack run 
! and contains    146 atoms.
!
 $contrl scftyp=rhf runtyp=optimize nzvar=0
  maxit=200 icharg=0 $end
 $system mwords=50 $end
 $basis gbasis=pm3 $end
 $statpt nstep=200 $end
 $guess guess=huckel $end
 $data
FE Rank=1      G=585.796           E=393.016           -TS=192.780              
C1
C    6.0       16.2076410541       15.1822898472       20.5976280526
H    1.0       15.1529199582       15.0688652096       20.3160688502
O    8.0       16.5219174669       16.5540409770       20.9195665313
C    6.0       16.5769381707       14.2533271280       21.7897367306
H    1.0       16.4235631835       13.2197384180       21.4530629559
O    8.0       15.7566267718       14.4903820350       22.9433859609
H    1.0       15.9699966811       15.4026126526       23.2640160774
C    6.0       18.0703579778       14.4203235804       22.1524584874
H    1.0       18.2113769483       15.4442248670       22.5183429892
O    8.0       18.4395495377       13.4852760726       23.1719748123
H    1.0       17.6998005378       13.5021312175       23.8189187863
C    6.0       18.9702792341       14.2217379240       20.9109155504
H    1.0       18.9690728342       13.1532779536       20.6585102285
C    6.0       18.4790774731       15.0464914600       19.6890793961
H    1.0       18.6400890646       16.1083293958       19.9097898610
O    8.0       17.0612819908       14.8084561438       19.4919975081
C    6.0       19.2237423084       14.7538952759       18.3620666622
H    1.0       20.1455064634       15.3493438752       18.3412922931
H    1.0       18.5996596910       15.1029572893       17.5286238455
O    8.0       19.5453100191       13.3695053064       18.1891541244
H    1.0       20.4474776571       13.2397973815       18.5569619720
C    6.0       15.0477914856       20.1985594722       22.1156480673
H    1.0       14.4700447492       21.0520779108       22.4925579671
O    8.0       16.2357863580       20.6233883309       21.4177648142
C    6.0       15.4635513986       19.2704355041       23.2846316568
H    1.0       14.5418992813       18.9117174128       23.7612600396
O    8.0       16.2652819786       19.9657480823       24.2544368222
H    1.0       16.1145494512       20.9322341910       24.1162771038
C    6.0       16.2471245579       18.0508956611       22.7555727392
H    1.0       17.2005114328       18.4224794617       22.3654167531
O    8.0       16.4911401485       17.1489096345       23.8390968357
H    1.0       16.7141430888       17.7349768060       24.5971132342
C    6.0       15.5144185583       17.3325192532       21.5948800835
H    1.0       14.7116961953       16.7096595938       22.0102880698
C    6.0       14.9310248662       18.3210960761       20.5447622300
H    1.0       15.7667081086       18.7206435053       19.9558074982
O    8.0       14.2493693878       19.4201380783       21.2004184346
C    6.0       13.9499723021       17.6582696393       19.5482993115
H    1.0       14.5247819506       17.0113210668       18.8719839255
H    1.0       13.4902979976       18.4443907999       18.9343416338
O    8.0       12.9391974130       16.8898624020       20.2126057636
H    1.0       12.3092730581       16.5714846698       19.5294911873
C    6.0       18.4297786017       24.1000299470       20.8337499076
H    1.0       18.7783081936       25.1094090438       20.5805561756
O    8.0       19.5226904693       23.2097441387       21.1431896143
C    6.0       17.4949169064       24.1390476973       22.0681496613
H    1.0       16.6238890016       24.7513993547       21.8004765404
O    8.0       18.1516046288       24.7296785569       23.2007852490
H    1.0       19.0871648203       24.4031209570       23.2074586244
C    6.0       16.9886570718       22.7170086293       22.4139150600
H    1.0       17.8485894724       22.1146936565       22.7378454050
O    8.0       16.0380514931       22.8134069383       23.4802794284
H    1.0       16.4155889003       23.4872232361       24.0911082451
C    6.0       16.3584148441       22.0356851604       21.1671749345
H    1.0       15.3815333330       22.4927720515       20.9637516124
C    6.0       17.2554365560       22.1681499761       19.9052077888
H    1.0       18.1440448674       21.5431209983       20.0470862667
O    8.0       17.6762656392       23.5416776210       19.7362428771
C    6.0       16.5748313645       21.6858246552       18.6000057231
H    1.0       16.5549751686       20.5879440180       18.6022985637
H    1.0       17.1949915227       21.9956795184       17.7484476934
O    8.0       15.2428117898       22.1906237584       18.4475806118
H    1.0       14.6715675266       21.7119642222       19.0863498739
C    6.0       23.6360895517       22.8143542224       21.0333424116
H    1.0       24.7213307367       22.9359943061       20.9230650760
O    8.0       23.2763312028       21.4245558398       21.1934127047
C    6.0       23.0968276791       23.6469109251       22.2284498910
H    1.0       23.2770871292       24.7033883240       21.9902045711
O    8.0       23.7663907383       23.3348853484       23.4586026166
H    1.0       23.5378309228       22.3970446147       23.6785609290
C    6.0       21.5694091572       23.4473875899       22.3697074781
H    1.0       21.3794179854       22.3967527750       22.6274987166
O    8.0       21.0694218579       24.2973244651       23.4065445125
H    1.0       21.7138898890       24.2096531710       24.1440912649
C    6.0       20.8476839868       23.7638932731       21.0365757143
H    1.0       20.8318573661       24.8541129903       20.9077407936
C    6.0       21.5301890858       23.1016567326       19.8062420535
H    1.0       21.3197633304       22.0249297679       19.8355167213
O    8.0       22.9657974451       23.3039395604       19.8526052347
C    6.0       21.0035528723       23.6383666687       18.4536557444
H    1.0       19.9732756091       23.2842582288       18.3153300409
H    1.0       21.6085070512       23.2064719287       17.6452516913
O    8.0       21.0365843066       25.0699911079       18.3907312035
H    1.0       20.7248694801       25.3358823750       17.4982248642
C    6.0       24.7138243943       17.7041791953       22.3180725221
H    1.0       25.3014110451       16.8601616416       22.7006640648
O    8.0       23.5967245021       17.2558318598       21.5218859638
C    6.0       24.1870208793       18.5754102514       23.4892311584
H    1.0       25.0641647113       18.9433581578       24.0376128837
O    8.0       23.3513861606       17.8214572179       24.3842535287
H    1.0       23.6968408331       16.8949332283       24.3721732789
C    6.0       23.4058172554       19.7947902404       22.9528479728
H    1.0       22.5054890115       19.4229939806       22.4570289178
O    8.0       23.0371162369       20.6276379162       24.0552840245
H    1.0       22.7900069050       19.9988257706       24.7693937087
C    6.0       24.2173382157       20.5882695583       21.8995165844
H    1.0       24.9892505086       21.1744974954       22.4154090551
C    6.0       24.8772129458       19.6582679055       20.8419870344
H    1.0       24.0850252033       19.2688363936       20.1891576890
O    8.0       25.5438485043       18.5456229174       21.4900306991
C    6.0       25.9016441763       20.3838890994       19.9369363536
H    1.0       25.3547441527       21.0551613191       19.2610204175
H    1.0       26.4094493516       19.6360137214       19.3132362250
O    8.0       26.8589960855       21.1337672940       20.6954164390
H    1.0       27.5202565469       21.4959190738       20.0658289275
C    6.0       21.3661982133       13.7877451317       21.0283846306
H    1.0       21.0122988539       12.7707994405       20.8170077470
O    8.0       20.2763104947       14.6934704427       21.2878885397
C    6.0       22.2665276908       13.7756128990       22.2839477743
H    1.0       23.1137857745       13.1090440376       22.0761791907
O    8.0       21.5380366367       13.2803332138       23.4199092288
H    1.0       20.5876397183       13.5224710072       23.2878145751
C    6.0       22.8278731422       15.1854163045       22.5821968948
H    1.0       21.9915276642       15.8205280177       22.8966587843
O    8.0       23.7765912338       15.0685217480       23.6484743792
H    1.0       23.3745366912       14.4179266057       24.2688357054
C    6.0       23.4703221072       15.8315666821       21.3210785857
H    1.0       24.4473243449       15.3669281361       21.1371639409
C    6.0       22.5798624129       15.6699264723       20.0570619472
H    1.0       21.7022144406       16.3180377053       20.1754962775
O    8.0       22.1363853386       14.2977460774       19.9216085416
C    6.0       23.2805616063       16.0988615018       18.7441114243
H    1.0       23.3716323301       17.1933550224       18.7371452516
H    1.0       22.6371490240       15.8219858065       17.8985914354
O    8.0       24.5752840595       15.5059853752       18.5886447771
H    1.0       25.1831282890       15.9542670901       19.2149920195
C    6.0       19.9933088714       19.0970382429       19.8173395921
H    1.0       19.2760515423       18.3282241291       19.5042634553
H    1.0       19.8465296876       19.9742848224       19.1746990484
H    1.0       21.0081741629       18.7182839742       19.6395077559
C    6.0       19.7951497712       19.4688234584       21.3016309233
H    1.0       18.7818346280       19.8607003381       21.4538506800
H    1.0       20.4851599341       20.2825236100       21.5665432651
C    6.0       20.0247099989       18.2619368905       22.2368926244
H    1.0       19.3210552160       17.4562042322       21.9931479501
H    1.0       21.0297653626       17.8570005214       22.0742046308
C    6.0       19.8596280366       18.6704470669       23.7154875812
H    1.0       18.7995756744       18.8042002477       23.9482686580
H    1.0       20.3635054485       19.6272753749       23.8769430611
N    7.0       20.4499523279       17.6920550091       24.7167990417
H    1.0       20.3476034887       18.0699964578       25.6703212504
H    1.0       21.4764547654       17.6205752240       24.5735631613
C    6.0       19.7901583669       16.3211339552       24.6281463180
H    1.0       19.9641880537       15.8988141742       23.6365411156
H    1.0       20.2248630870       15.6645764564       25.3849715780
H    1.0       18.7169721297       16.4245883730       24.8016661785
 $end
