$$$$
! Edit this basic GAMESS input file as needed.
! Conformer was generated by a VeraChem VCPack run 
! and contains    146 atoms.
!
 $contrl scftyp=rhf runtyp=optimize nzvar=0
  maxit=200 icharg=0 $end
 $system mwords=50 $end
 $basis gbasis=pm3 $end
 $statpt nstep=200 $end
 $guess guess=huckel $end
 $data
FE Rank=1      G=500.820           E=312.438           -TS=188.382              
C1
C    6.0       16.4982068616       15.3081489770       20.3046656819
H    1.0       15.4924567873       15.2463454829       19.8706969957
O    8.0       16.8092226107       16.6585996891       20.7124451546
C    6.0       16.6496086644       14.3246221948       21.4977589976
H    1.0       16.4853555102       13.3167914340       21.0948312921
O    8.0       15.6820248723       14.5672660081       22.5307608664
H    1.0       15.9025510916       15.4497923074       22.9225247230
C    6.0       18.0811674306       14.3640470386       22.0858007389
H    1.0       18.2125122873       15.3238405100       22.6018921341
O    8.0       18.2208090957       13.2829288742       23.0137835848
H    1.0       17.4810854003       13.3879189045       23.6502483088
C    6.0       19.1756422950       14.2620353701       20.9897840915
H    1.0       19.2940848381       13.2093721029       20.7037612833
C    6.0       18.8610412416       15.1103761807       19.7251195263
H    1.0       19.0121976448       16.1639833458       19.9823311454
O    8.0       17.4827285822       14.9146592990       19.3241830079
C    6.0       19.7836127650       14.8284827107       18.5114457363
H    1.0       20.6857161879       15.4446143237       18.6116241907
H    1.0       19.2726415293       15.1662837488       17.5999482035
O    8.0       20.1523814788       13.4492319262       18.3864023685
H    1.0       20.7476438203       13.2357613117       19.1383933424
C    6.0       15.0497257868       20.2547672258       21.8571950819
H    1.0       14.3567222199       21.0283216947       22.2123670345
O    8.0       16.2498218680       20.8344651748       21.3121980583
C    6.0       15.4349749617       19.3090719885       23.0269056147
H    1.0       14.5040056124       18.8758943439       23.4142143332
O    8.0       16.0816088850       20.0494961332       24.0769002817
H    1.0       16.0383529271       21.0051100649       23.8333412483
C    6.0       16.3331940400       18.1430178813       22.5374890052
H    1.0       17.3054304020       18.5684278827       22.2646593743
O    8.0       16.4969250276       17.1639350133       23.5740413260
H    1.0       17.4446397979       17.2239687975       23.8723891635
C    6.0       15.7458733598       17.4509006247       21.2804876823
H    1.0       14.8894426653       16.8355110106       21.5841286479
C    6.0       15.2889989075       18.4705651882       20.2030990164
H    1.0       16.1831927595       18.9542802468       19.7869926663
O    8.0       14.4351557615       19.4686882580       20.8154611702
C    6.0       14.5221498370       17.8312938920       19.0207320358
H    1.0       15.2367361885       17.2627348829       18.4103283675
H    1.0       14.1222852791       18.6357554445       18.3890059915
O    8.0       13.4641411140       16.9697270051       19.4601728454
H    1.0       12.9704229850       16.6741294075       18.6645164846
C    6.0       18.3535668010       24.2885686733       20.8423163153
H    1.0       18.7940740302       25.2734888580       20.6408782435
O    8.0       19.3679866168       23.2782293430       21.0370944345
C    6.0       17.3997127498       24.3294264506       22.0637996758
H    1.0       16.5375416681       24.9465173957       21.7784230487
O    8.0       18.0167180487       24.9159419187       23.2177557411
H    1.0       18.7791852268       24.3340198748       23.4627703556
C    6.0       16.8802701127       22.9037978226       22.3675094245
H    1.0       17.7371814446       22.2844903860       22.6682594797
O    8.0       15.9296266817       22.9568773895       23.4367083026
H    1.0       16.3051073096       23.5995752209       24.0802679403
C    6.0       16.2359266181       22.2605817647       21.1089072924
H    1.0       15.2132870819       22.6426832273       20.9933057807
C    6.0       17.0222008245       22.5222850630       19.7891925380
H    1.0       17.8690384105       21.8269545425       19.7498639654
O    8.0       17.5348199516       23.8784208396       19.7300071361
C    6.0       16.1658308719       22.2700022552       18.5260077669
H    1.0       15.9259565223       21.1991466830       18.4796871863
H    1.0       16.7701097732       22.5108195665       17.6416386597
O    8.0       14.9567609918       23.0408088478       18.5250963408
H    1.0       14.4849094339       22.8533128943       17.6848687196
C    6.0       23.3299732255       22.5382033659       21.9623765343
H    1.0       24.3889206977       22.5964656826       22.2455154285
O    8.0       22.9831331172       21.2284340238       21.4728548803
C    6.0       22.4380504650       22.8595300761       23.1843975338
H    1.0       22.6741558215       23.8843745959       23.4992150468
O    8.0       22.7012428409       21.9609221225       24.2742330813
H    1.0       23.4042694766       21.3349010637       23.9723600145
C    6.0       20.9431466521       22.8095474320       22.7983102644
H    1.0       20.6911367937       21.7769835823       22.5334537793
O    8.0       20.1727586044       23.2156588782       23.9313936823
H    1.0       20.5708751525       22.7224362470       24.6845723731
C    6.0       20.6420193438       23.6988804972       21.5641892724
H    1.0       20.6355793441       24.7523930630       21.8735970312
C    6.0       21.6725551074       23.4809412371       20.4183321708
H    1.0       21.4748688565       22.4981286567       19.9716417632
O    8.0       23.0313525193       23.4991095601       20.9276524466
C    6.0       21.5559349263       24.5277997644       19.2852115918
H    1.0       20.6165868793       24.3498553343       18.7439728037
H    1.0       22.3778823478       24.3689738562       18.5743443275
O    8.0       21.5807074433       25.8705362868       19.7860228120
H    1.0       21.5703726399       26.4767119782       19.0134226309
C    6.0       24.8843280976       17.5569070243       20.7985498976
H    1.0       25.5891733377       16.7722783264       20.4952429937
O    8.0       23.5987857759       17.0032456485       21.1413532220
C    6.0       25.4397685168       18.3877625452       21.9900047757
H    1.0       26.3579786193       18.8731284249       21.6342480042
O    8.0       25.7718306264       17.5695568875       23.1211218640
H    1.0       24.9271320774       17.1688647385       23.4483381254
C    6.0       24.4445382534       19.5068341996       22.3895633426
H    1.0       23.5218685726       19.0404029266       22.7640073563
O    8.0       25.0346858375       20.3165141821       23.4121172275
H    1.0       25.4635296524       19.6789039221       24.0266191385
C    6.0       24.0925839976       20.3708371107       21.1503802784
H    1.0       24.9777613056       20.9530000866       20.8625274497
C    6.0       23.6578012116       19.4974888637       19.9445926844
H    1.0       22.7050716809       19.0154651113       20.1945574442
O    8.0       24.6656873514       18.4804583834       19.7056518592
C    6.0       23.4194871736       20.3024296330       18.6418077393
H    1.0       22.4074432748       20.7247505687       18.6813166562
H    1.0       23.4448749780       19.6096201031       17.7903045721
O    8.0       24.3684053789       21.3597086226       18.4523750604
H    1.0       24.1719718030       22.0492107158       19.1249096004
C    6.0       21.2790793165       13.8696509900       22.1847448804
H    1.0       20.7584551793       12.9539786849       22.4928431364
O    8.0       20.3867330677       14.8048302722       21.5455972751
C    6.0       21.9338653449       14.5485961311       23.4112573498
H    1.0       22.7194801807       13.8741045688       23.7748874031
O    8.0       20.9763501224       14.7541154772       24.4642230491
H    1.0       20.4035073436       15.5311180572       24.2261574769
C    6.0       22.6037298115       15.8735864003       22.9833287978
H    1.0       21.8020052116       16.5507001837       22.6778033585
O    8.0       23.3122308700       16.4556820910       24.0822134379
H    1.0       22.6055955878       16.8811858813       24.6396195431
C    6.0       23.5494799605       15.7028158576       21.7645962363
H    1.0       24.5338676745       15.3705159931       22.1189203016
C    6.0       23.0070134224       14.7282497039       20.6750158608
H    1.0       22.2753249337       15.2854525056       20.0787555713
O    8.0       22.3430267758       13.5739366857       21.2553569759
C    6.0       24.0952471634       14.2322631560       19.6939576855
H    1.0       24.4141468489       15.0785527387       19.0707197852
H    1.0       23.6491256047       13.4844807689       19.0245922146
O    8.0       25.2260319637       13.6776998694       20.3769893897
H    1.0       25.8381359117       13.3182521966       19.6980704987
C    6.0       18.3823090340       20.0752372135       17.2697553138
H    1.0       17.6565784708       19.2639592372       17.2823355448
H    1.0       18.2352862253       20.8685147462       16.5394449749
C    6.0       19.4187888630       20.0968013495       18.1112058656
H    1.0       20.1317330820       20.9193756036       18.0828628573
C    6.0       19.6872013206       19.0266113848       19.1447460708
H    1.0       20.6429581295       18.5356543545       18.9212213901
H    1.0       18.9106232961       18.2526593062       19.0929834954
C    6.0       19.7358212978       19.6068569946       20.5737024987
H    1.0       20.5026114191       20.3886423293       20.6300157913
H    1.0       18.7759864052       20.0804594323       20.8107204778
C    6.0       20.0316302174       18.5113171810       21.6173337063
H    1.0       20.9911256834       18.0379822989       21.3841376436
H    1.0       19.2699221039       17.7260212524       21.5447709002
C    6.0       20.0581776561       19.0599730428       23.0682537313
H    1.0       20.9312787097       19.7076525689       23.2033496501
H    1.0       19.1665119086       19.6654601153       23.2678120086
C    6.0       20.1159525082       17.9693892777       24.1346229144
O    8.0       19.2825786442       17.0828248234       24.0994614655
O    8.0       21.0785023565       17.9475761885       24.8768422575
 $end
$$$$
! Edit this basic GAMESS input file as needed.
! Conformer was generated by a VeraChem VCPack run 
! and contains    146 atoms.
!
 $contrl scftyp=rhf runtyp=optimize nzvar=0
  maxit=200 icharg=0 $end
 $system mwords=50 $end
 $basis gbasis=pm3 $end
 $statpt nstep=200 $end
 $guess guess=huckel $end
 $data
FE Rank=2      G=501.637           E=311.980           -TS=189.657              
C1
C    6.0       16.0987480446       15.1212641437       20.9087440429
H    1.0       15.0106215849       15.0168711536       20.8095876273
O    8.0       16.4787728143       16.4874937168       21.1800321245
C    6.0       16.6547815572       14.2008815411       22.0259865304
H    1.0       16.4649245787       13.1653027481       21.7149464017
O    8.0       16.0037445703       14.4299917181       23.2843122631
H    1.0       16.1737219966       15.3738680136       23.5326846195
C    6.0       18.1868584459       14.3837042824       22.1557782749
H    1.0       18.3803895718       15.4048297011       22.5083859835
O    8.0       18.6976370869       13.4416083828       23.1034846383
H    1.0       18.0725081198       13.4771619897       23.8617190881
C    6.0       18.8980633304       14.1950676477       20.7899437199
H    1.0       18.9398279215       13.1200546060       20.5733757556
C    6.0       18.1786714345       14.9376315873       19.6256316852
H    1.0       18.3641944945       16.0106174174       19.7364274060
O    8.0       16.7473504038       14.7137055278       19.6846190440
C    6.0       18.6869615602       14.5419341237       18.2180255499
H    1.0       19.7069077517       14.9294899115       18.0892110767
H    1.0       18.0559686948       15.0422512302       17.4715483001
O    8.0       18.6691002875       13.1251039817       18.0016169578
H    1.0       19.4875684510       12.7516081550       18.3894462718
C    6.0       15.1541697755       20.2282500826       22.2697244126
H    1.0       14.6184980359       21.1212932666       22.6138974070
O    8.0       16.4022143108       20.5684548619       21.6289474975
C    6.0       15.4531677435       19.2945743332       23.4690007925
H    1.0       14.4906261142       18.9446223584       23.8634967839
O    8.0       16.1430325327       20.0167530305       24.5022830137
H    1.0       16.9452897828       19.4969307930       24.7609747198
C    6.0       16.2471953780       18.0562942342       22.9840929643
H    1.0       17.2001234261       18.4062929910       22.5800159500
O    8.0       16.4902586626       17.1533174643       24.0706620767
H    1.0       17.2250385067       17.5558562770       24.6047275169
C    6.0       15.5055414909       17.3309927535       21.8313734603
H    1.0       14.6716203619       16.7542916400       22.2529075210
C    6.0       14.9884666925       18.3144862940       20.7404848497
H    1.0       15.8587045375       18.6439487367       20.1620817340
O    8.0       14.3531005611       19.4802615503       21.3283983299
C    6.0       14.0005682194       17.6647057486       19.7427114732
H    1.0       14.5570274317       16.9576048080       19.1125717554
H    1.0       13.6031065827       18.4467966854       19.0820086361
O    8.0       12.9306115526       16.9834426946       20.4094558732
H    1.0       12.3064366056       16.6637335265       19.7218579544
C    6.0       18.5643883573       23.8444473158       20.3131600675
H    1.0       18.9354813240       24.7538918482       19.8232298117
O    8.0       19.6284805524       23.1058064693       20.9447065181
C    6.0       17.5139495203       24.1878103395       21.3974739867
H    1.0       16.6877954842       24.7056694522       20.8930726132
O    8.0       18.0691128810       25.0564811081       22.3988756578
H    1.0       18.9157034582       24.6464095252       22.7104252793
C    6.0       16.9389461540       22.9048846120       22.0522852319
H    1.0       17.7276550139       22.4483328644       22.6665790658
O    8.0       15.8342072013       23.2862790121       22.8781447985
H    1.0       16.1713174265       24.0191789964       23.4385181248
C    6.0       16.4874633920       21.8581570476       20.9929361359
H    1.0       15.5199420202       22.1671811280       20.5778103232
C    6.0       17.5183517419       21.6907095143       19.8409142473
H    1.0       18.3978149798       21.1740996639       20.2436858117
O    8.0       17.9209001293       22.9888562757       19.3462025005
C    6.0       17.0123295195       20.8388493215       18.6491223320
H    1.0       17.1802321911       19.7811292389       18.8855756728
H    1.0       17.6309976351       21.0651095967       17.7704636834
O    8.0       15.6271551174       21.0541091949       18.3480146699
H    1.0       15.1071629029       20.7385042541       19.1187850696
C    6.0       23.6889084058       22.9340760201       21.4743510440
H    1.0       24.7755400270       23.0686036716       21.5509011377
O    8.0       23.3212093499       21.5375201478       21.5117637296
C    6.0       22.9445519148       23.6974944357       22.6001598720
H    1.0       23.1217992394       24.7684186710       22.4358842925
O    8.0       23.4318763678       23.3464206915       23.9032545152
H    1.0       23.2755796833       22.3750846416       24.0219169083
C    6.0       21.4212609357       23.4474362294       22.4898482829
H    1.0       21.2344741391       22.3842972486       22.6888406770
O    8.0       20.7307891089       24.2474050585       23.4558362976
H    1.0       21.2306009631       24.1251663685       24.2935820727
C    6.0       20.8960799914       23.7777292662       21.0688643849
H    1.0       20.7908373431       24.8678964333       20.9901368453
C    6.0       21.8137256007       23.2465586409       19.9269165037
H    1.0       21.6585278314       22.1657510285       19.8389404591
O    8.0       23.2111509449       23.4876938922       20.2300734375
C    6.0       21.4966051891       23.8574508874       18.5411294670
H    1.0       20.5374875010       23.4504766566       18.1929422853
H    1.0       22.2661994164       23.5286608007       17.8300113545
O    8.0       21.4331127631       25.2888368324       18.5809083946
H    1.0       21.3033201842       25.6066437384       17.6607588767
C    6.0       24.6585854642       17.7176473474       22.3594196247
H    1.0       25.2154183237       16.8271029726       22.6761574496
O    8.0       23.5450827868       17.3736098139       21.5082426348
C    6.0       24.1254778696       18.4919093253       23.5932416848
H    1.0       24.9961436731       18.7961312200       24.1882018055
O    8.0       23.2772329509       17.6567683284       24.3960314445
H    1.0       23.4691010265       16.7216112077       24.1494898711
C    6.0       23.3737705050       19.7722788114       23.1522762514
H    1.0       22.4739983962       19.4624056551       22.6127215804
O    8.0       23.0052436208       20.5453978358       24.3006793326
H    1.0       22.3004422551       20.0235903459       24.7733163098
C    6.0       24.2246355810       20.6337450375       22.1825767600
H    1.0       24.9864652180       21.1687582654       22.7648675467
C    6.0       24.9014410646       19.7864879173       21.0675334155
H    1.0       24.1228683872       19.4727199785       20.3600184377
O    8.0       25.5289248899       18.6068893735       21.6289842704
C    6.0       25.9627712130       20.5707481596       20.2591857889
H    1.0       25.4458492989       21.3138812711       19.6368629906
H    1.0       26.4713105533       19.8735219269       19.5799716792
O    8.0       26.9152315718       21.2257671432       21.1068310163
H    1.0       27.5938222810       21.6382304575       20.5289699858
C    6.0       21.3370264628       13.9544314437       20.5453920468
H    1.0       21.0196816601       12.9703783787       20.1793750533
O    8.0       20.2125903148       14.7739901473       20.9257665543
C    6.0       22.2605630606       13.7982389099       21.7789034154
H    1.0       23.1396977544       13.2264047645       21.4542008305
O    8.0       21.6047047548       13.0787574897       22.8347219078
H    1.0       20.6695908412       13.4033278254       22.8817628826
C    6.0       22.7564788337       15.1765837617       22.2821740651
H    1.0       21.8902008521       15.7375753639       22.6588819726
O    8.0       23.6935866780       14.9531168967       23.3415787473
H    1.0       23.3077731988       14.2117945459       23.8626577147
C    6.0       23.4024480046       15.9898328982       21.1235162747
H    1.0       24.3747409001       15.5478679969       20.8715546905
C    6.0       22.4998684468       15.9957261584       19.8585589895
H    1.0       21.6114198652       16.5910427907       20.0858509327
O    8.0       22.0887689779       14.6465456308       19.5255526673
C    6.0       23.1601235402       16.6441453792       18.6170615933
H    1.0       23.1668656219       17.7336271940       18.7565175876
H    1.0       22.5325624189       16.4371355157       17.7401272794
O    8.0       24.4958718145       16.1764501775       18.3925198651
H    1.0       25.0621210641       16.5645720446       19.0936862835
C    6.0       19.7671899478       18.8883328239       17.8963206035
H    1.0       19.0743193095       18.1360625896       18.2654996976
H    1.0       19.7730416878       19.0658430250       16.8226273495
C    6.0       20.5815611324       19.5747261480       18.7058103918
H    1.0       21.2543847931       20.3150196824       18.2752736794
C    6.0       20.6891144264       19.4383415554       20.2147981399
H    1.0       20.5870165276       20.4287964735       20.6717367683
H    1.0       21.7023549144       19.1030079052       20.4633191572
C    6.0       19.6598676998       18.4838439369       20.8611801498
H    1.0       18.6412059331       18.8523073036       20.6870681979
H    1.0       19.7234545608       17.5079681434       20.3758192453
C    6.0       19.8875362366       18.2765592303       22.3737874136
H    1.0       20.9022859043       17.9029339673       22.5571542488
H    1.0       19.2159753663       17.4839676030       22.7237828510
C    6.0       19.6374737207       19.5570970792       23.2118915180
H    1.0       20.4198350823       20.2984518386       23.0292433362
H    1.0       18.6916167306       20.0288317237       22.9286617990
C    6.0       19.5825988756       19.2725953734       24.7070748037
O    8.0       20.5436273773       19.5857807539       25.3828094959
O    8.0       18.5728624275       18.7444227290       25.1405909479
 $end
$$$$
! Edit this basic GAMESS input file as needed.
! Conformer was generated by a VeraChem VCPack run 
! and contains    146 atoms.
!
 $contrl scftyp=rhf runtyp=optimize nzvar=0
  maxit=200 icharg=0 $end
 $system mwords=50 $end
 $basis gbasis=pm3 $end
 $statpt nstep=200 $end
 $guess guess=huckel $end
 $data
FE Rank=3      G=501.673           E=314.269           -TS=187.404              
C1
C    6.0       16.1919929784       15.3273874947       22.0005865103
H    1.0       15.1360858756       15.1982935823       22.2712040976
O    8.0       16.4657417994       16.6859779034       21.6027196317
C    6.0       17.0895631050       14.9491078664       23.2070571659
H    1.0       16.9301726855       13.8829666336       23.4133625936
O    8.0       16.7101281928       15.7084883834       24.3657599919
H    1.0       17.5346524095       15.9669647949       24.8497579222
C    6.0       18.5833863559       15.1414798055       22.8524918420
H    1.0       18.7580075818       16.2142975800       22.7060887912
O    8.0       19.4201126036       14.6511973685       23.9093523978
H    1.0       19.3823241048       15.3292720308       24.6343171974
C    6.0       18.9504925867       14.4103554348       21.5361900051
H    1.0       19.0630321267       13.3380642006       21.7440836920
C    6.0       17.9096751097       14.6327368413       20.4023261539
H    1.0       18.0417749446       15.6609184431       20.0459887914
O    8.0       16.5522484328       14.4722171991       20.8939940876
C    6.0       18.1056208933       13.6998599288       19.1833513506
H    1.0       19.0166646135       14.0070967052       18.6522591016
H    1.0       17.2638639299       13.8416902743       18.4923369895
O    8.0       18.2074092668       12.3235935103       19.5682815528
H    1.0       18.2435580182       11.7857701533       18.7473911058
C    6.0       14.8235793526       20.2079047840       20.2903379447
H    1.0       14.2579001994       21.0386868907       19.8496329027
O    8.0       16.1360756196       20.6318409814       20.7174796384
C    6.0       14.0535850478       19.5695577925       21.4757701666
H    1.0       13.1226099568       19.1589271237       21.0636163804
O    8.0       13.7222255632       20.5310543648       22.4889349357
H    1.0       14.5784206760       20.8249881219       22.8907131061
C    6.0       14.8558551530       18.3953071497       22.0868832888
H    1.0       15.7325372199       18.8098685432       22.6038399703
O    8.0       14.0163387951       17.7083827006       23.0208452359
H    1.0       13.6668593452       18.4032506034       23.6196153900
C    6.0       15.3636557564       17.4000167995       21.0084175833
H    1.0       14.5345530804       16.7311370724       20.7445780041
C    6.0       15.8981939530       18.0897133118       19.7162852217
H    1.0       16.8790701603       18.5208274120       19.9401111651
O    8.0       15.0003117927       19.1555814303       19.3171780558
C    6.0       16.1140901860       17.1441916283       18.5043057034
H    1.0       17.1671323933       16.8378112710       18.4869054969
H    1.0       15.9445412620       17.7154752029       17.5818751471
O    8.0       15.2723628883       15.9838215335       18.5215086491
H    1.0       15.5594628270       15.4241801359       19.2804494239
C    6.0       18.4837859471       23.8200986421       21.8599348490
H    1.0       18.9011975989       24.7812326675       22.1864564216
O    8.0       19.5132521251       22.9182748869       21.4090272472
C    6.0       17.7089406853       23.1514281700       23.0220455107
H    1.0       16.8867681879       23.8261742859       23.2938737372
O    8.0       18.5504745705       22.9490597846       24.1689533279
H    1.0       19.4138267969       23.3890891748       23.9764665007
C    6.0       17.0973114755       21.8068663506       22.5697173249
H    1.0       17.9228906060       21.1082845524       22.3783076888
O    8.0       16.2702223191       21.3024181486       23.6231069106
H    1.0       16.8227885337       21.3934970594       24.4318008002
C    6.0       16.2762091880       21.9582659018       21.2624231080
H    1.0       15.3063659727       22.4127988507       21.5025650545
C    6.0       17.0068851690       22.8114898327       20.1857826160
H    1.0       17.8270460255       22.2085979022       19.7776878570
O    8.0       17.5572538931       24.0186999612       20.7720282785
C    6.0       16.1029867880       23.2107347212       18.9950592143
H    1.0       15.8959806318       22.3114695822       18.3992763091
H    1.0       16.6582907461       23.9067263007       18.3521070406
O    8.0       14.8707795633       23.8035058636       19.4242922815
H    1.0       14.3882274690       24.1018429687       18.6226090695
C    6.0       23.6710042476       22.7450147846       21.2346562158
H    1.0       24.7371262852       22.9431029747       21.0645860106
O    8.0       23.4310701585       21.3807138520       21.6212730431
C    6.0       23.1120099694       23.6421385026       22.3673235743
H    1.0       23.2363145695       24.6861832051       22.0517226368
O    8.0       23.8306918491       23.4305992085       23.5935896150
H    1.0       23.9231553994       22.4516967247       23.7168593634
C    6.0       21.5985828888       23.3812546477       22.5771472289
H    1.0       21.4757805373       22.3606822028       22.9655974027
O    8.0       21.0945303484       24.3246642318       23.5286582069
H    1.0       21.7856578340       24.3706908633       24.2279954425
C    6.0       20.8240227273       23.4864525836       21.2348449694
H    1.0       20.7678668177       24.5410987895       20.9363574198
C    6.0       21.5052561134       22.6751553324       20.0993954397
H    1.0       21.4010280450       21.6058755134       20.3263843772
O    8.0       22.9111070808       23.0162765654       20.0372988901
C    6.0       20.8764855841       22.9053217884       18.7016270468
H    1.0       19.9338956049       22.3465297159       18.6447074407
H    1.0       21.5476303158       22.4803843495       17.9435722776
O    8.0       20.6284746762       24.2886673790       18.4220480511
H    1.0       19.8624643579       24.5645084618       18.9706131771
C    6.0       25.0699892976       17.6379739113       21.8977442920
H    1.0       25.6950428675       16.7388014649       21.9750166779
O    8.0       23.6798226213       17.3043759056       21.7258060453
C    6.0       25.2030438527       18.4815550887       23.1868083666
H    1.0       26.2508209710       18.7969861684       23.2747564627
O    8.0       24.8410020938       17.6971835572       24.3342161039
H    1.0       24.2463980802       16.9794796981       24.0080846614
C    6.0       24.3231344962       19.7482324554       23.0963886768
H    1.0       23.2743785333       19.4286036050       23.0976917417
O    8.0       24.5689703396       20.5887918260       24.2285729614
H    1.0       24.5418225783       19.9834548245       25.0028277798
C    6.0       24.5819874402       20.5358541236       21.7891971746
H    1.0       25.5100318392       21.1111924851       21.9043719308
C    6.0       24.6584852784       19.6273423700       20.5295480285
H    1.0       23.6352711940       19.3083585818       20.2977411548
O    8.0       25.4757428841       18.4538509303       20.7795352943
C    6.0       25.2081065052       20.3491301879       19.2761976510
H    1.0       24.4583407750       21.0749703120       18.9340210021
H    1.0       25.3355413183       19.6108690699       18.4730521539
O    8.0       26.4477150043       21.0178803653       19.5402319198
H    1.0       26.7655825477       21.4008939891       18.6937064617
C    6.0       21.2178891709       14.1371889088       20.6045510747
H    1.0       20.8020047338       13.2139645861       20.1813448055
O    8.0       20.1805993715       15.0107273235       21.0897991915
C    6.0       22.2137736725       13.8311990268       21.7576301037
H    1.0       23.0313641018       13.2380319438       21.3278821406
O    8.0       21.5985767660       13.0755881708       22.8119172950
H    1.0       20.8559736830       13.6262061163       23.1687576502
C    6.0       22.8205832388       15.1426827967       22.3141683126
H    1.0       22.0154417694       15.7147534753       22.7935397239
O    8.0       23.8357348487       14.8372695165       23.2762671164
H    1.0       23.4496229360       14.1329685768       23.8429880812
C    6.0       23.4157825063       16.0040296043       21.1728723230
H    1.0       24.3297182281       15.5178132901       20.8069584087
C    6.0       22.4246987429       16.1760219362       19.9891763421
H    1.0       21.5821627934       16.7890697380       20.3337104128
O    8.0       21.9444488309       14.8667974953       19.5902867856
C    6.0       23.0120441451       16.8865350069       18.7414374388
H    1.0       22.8128993404       17.9616629171       18.8282238803
H    1.0       22.4657833077       16.5400441023       17.8540710579
O    8.0       24.4178860932       16.6669141408       18.5683574397