$$$$
! Edit this basic GAMESS input file as needed.
! Conformer was generated by a VeraChem VCPack run 
! and contains    151 atoms.
!
 $contrl scftyp=rhf runtyp=optimize nzvar=0
  maxit=200 icharg=0 $end
 $system mwords=50 $end
 $basis gbasis=pm3 $end
 $statpt nstep=200 $end
 $guess guess=huckel $end
 $data
FE Rank=1      G=588.088           E=386.348           -TS=201.740              
C1
C    6.0       16.3008705472       15.3433137558       20.4224740396
H    1.0       15.3149027859       15.2175886689       19.9567076616
O    8.0       16.4254063757       16.6225520612       21.0737438400
C    6.0       16.5436549275       14.2506649164       21.4954449673
H    1.0       16.4610164281       13.2754448208       20.9984141476
O    8.0       15.5609093434       14.3372548689       22.5408794440
H    1.0       15.4789409950       15.2924502456       22.7902638551
C    6.0       17.9691991074       14.3670871303       22.0901459673
H    1.0       18.0178051030       15.2924646543       22.6746823951
O    8.0       18.2316209317       13.2482905820       22.9433213043
H    1.0       17.4284371127       13.1572556650       23.5023817278
C    6.0       19.0457377107       14.4509721680       20.9809796707
H    1.0       19.1427820026       13.4622570215       20.5135180822
C    6.0       18.6842266443       15.5006133678       19.8931547285
H    1.0       18.7210249675       16.4997144824       20.3446650363
O    8.0       17.3404460994       15.2387516859       19.4252367085
C    6.0       19.6313654376       15.5282441557       18.6654466892
H    1.0       20.4489408729       16.2294008362       18.8713612256
H    1.0       19.0780546262       15.9337050612       17.8078793528
O    8.0       20.1725571861       14.2438490550       18.3356653349
H    1.0       20.8898068676       14.0595575263       18.9860076498
C    6.0       14.5947179963       20.3131375471       21.3444253965
H    1.0       13.9212867055       21.1799129721       21.3420474872
O    8.0       15.9732285585       20.7013864158       21.5058164769
C    6.0       14.2387527798       19.3333547064       22.4908193583
H    1.0       13.2211326669       18.9645823100       22.3077379618
O    8.0       14.2807166666       19.9892097144       23.7681982128
H    1.0       15.1316994083       20.4948387422       23.8168662554
C    6.0       15.1998072399       18.1207153281       22.4715906958
H    1.0       16.2053392005       18.4880734672       22.7103137576
O    8.0       14.7883502543       17.1579880823       23.4486342196
H    1.0       14.6021497108       17.6810565174       24.2595511245
C    6.0       15.2507675216       17.4557102679       21.0744941755
H    1.0       14.3317112180       16.8693835716       20.9428906987
C    6.0       15.3992726557       18.4862140359       19.9178418089
H    1.0       16.4265929205       18.8737011617       19.9353910137
O    8.0       14.4745419767       19.5868291843       20.1036688256
C    6.0       15.1573093941       17.8864978110       18.5113952723
H    1.0       16.0111864129       17.2471158937       18.2513552068
H    1.0       15.1330871851       18.7066560073       17.7814584843
O    8.0       13.9431640441       17.1272720775       18.4470319268
H    1.0       13.8221887703       16.8381927688       17.5162920531
C    6.0       18.5418684995       23.9041234299       21.7560437730
H    1.0       19.0326246884       24.8808267910       21.8536300291
O    8.0       19.4613874510       22.8869854483       21.3127079745
C    6.0       17.9460052878       23.4646372078       23.1158593286
H    1.0       17.1910127079       24.2105177595       23.3966260987
O    8.0       18.9635236245       23.4164201899       24.1306629730
H    1.0       19.7296545755       23.9376754739       23.7851247607
C    6.0       17.2439872294       22.0920182117       22.9780924487
H    1.0       18.0061912601       21.3355997335       22.7574343506
O    8.0       16.5890466342       21.7666316403       24.2077319811
H    1.0       17.2359350469       22.0086243129       24.9067444100
C    6.0       16.2261435036       22.0856313307       21.8106676369
H    1.0       15.3197816404       22.6124998729       22.1370542258
C    6.0       16.7862777065       22.7318572736       20.5107981667
H    1.0       17.5093129079       22.0324009195       20.0719488307
O    8.0       17.4609049266       23.9812525349       20.8041465607
C    6.0       15.7007948642       22.9994896221       19.4407259678
H    1.0       15.3635178253       22.0349509842       19.0377118727
H    1.0       16.1556629133       23.5579149152       18.6116640241
O    8.0       14.5824759672       23.7204902601       19.9736068042
H    1.0       13.9669123319       23.9059064098       19.2311139633
C    6.0       23.5423629411       22.4964805868       20.5386692386
H    1.0       24.5639868736       22.6178372421       20.1558535885
O    8.0       23.3731024760       21.2383377329       21.2186404061
C    6.0       23.1811614034       23.6296088929       21.5355267474
H    1.0       23.2649065034       24.5803541819       20.9931972794
O    8.0       24.0839080786       23.6452834565       22.6531899788
H    1.0       24.1252065445       22.7240627473       23.0162578782
C    6.0       21.7180613191       23.4880943052       22.0274323775
H    1.0       21.6552868487       22.5757703175       22.6311096489
O    8.0       21.3803623106       24.6222665434       22.8341770310
H    1.0       22.1727293146       24.7761597482       23.3972412373
C    6.0       20.7374234472       23.3459735267       20.8306945381
H    1.0       20.6492695140       24.3142859668       20.3214221228
C    6.0       21.2177351100       22.2772402763       19.8137262509
H    1.0       21.1511404689       21.2916271198       20.2936649674
O    8.0       22.5938720870       22.5430229500       19.4501469485
C    6.0       20.3594703114       22.2068454515       18.5252466104
H    1.0       19.4428472467       21.6459168101       18.7502035686
H    1.0       20.9104645175       21.6324033412       17.7688420108
O    8.0       20.0158458685       23.4992821078       18.0106808659
H    1.0       19.3642042320       23.8954505248       18.6294386858
C    6.0       25.1621332888       17.6802832676       22.1479684268
H    1.0       25.8113604418       16.8251282688       22.3754289409
O    8.0       23.7753725856       17.2964154421       22.0655407780
C    6.0       25.2925704216       18.7492980110       23.2570976120
H    1.0       26.3308827278       19.1055583867       23.2621187930
O    8.0       24.9726573285       18.1826307434       24.5382660358
H    1.0       24.3300239537       17.4475042540       24.3782249162
C    6.0       24.3701591724       19.9499288431       22.9525981050
H    1.0       23.3378753841       19.5958706361       23.0390560286
O    8.0       24.6025665355       20.9940085461       23.9033791275
H    1.0       24.5956597747       20.5463738265       24.7785550061
C    6.0       24.5679803502       20.4913505398       21.5153414691
H    1.0       25.4664863020       21.1224836134       21.5013649307
C    6.0       24.6752427828       19.3682218840       20.4423314337
H    1.0       23.6649227811       18.9719395633       20.2792001415
O    8.0       25.5351864237       18.2898882332       20.8954784620
C    6.0       25.1948874625       19.8656307470       19.0723257763
H    1.0       24.4145341310       20.4815266908       18.6052249337
H    1.0       25.3559811882       18.9956441432       18.4215847529
O    8.0       26.4036811139       20.6248429623       19.1970196654
H    1.0       26.7154299836       20.8400365271       18.2908840654
C    6.0       21.3530773019       13.9326047314       21.5826465673
H    1.0       20.9963196402       12.9053789723       21.4329187429
O    8.0       20.2602022937       14.8688438046       21.6299688157
C    6.0       22.1136545949       14.0303035388       22.9291314125
H    1.0       22.9517786611       13.3223949060       22.8918607759
O    8.0       21.2434439675       13.6832254941       24.0180221910
H    1.0       20.3221295073       13.8644224255       23.7116433105
C    6.0       22.6911452331       15.4500451336       23.1324872637
H    1.0       21.8480609415       16.1420823927       23.2463836526
O    8.0       23.5064687299       15.4799062640       24.3084239431
H    1.0       22.9801259243       15.0102553039       24.9931520110
C    6.0       23.5143683286       15.8923985344       21.9002817331
H    1.0       24.4364861583       15.2978253692       21.8588437924
C    6.0       22.7151881874       15.7022334528       20.5830134410
H    1.0       21.8582751282       16.3873360016       20.6114165129
O    8.0       22.2369981684       14.3340489826       20.5115361312
C    6.0       23.5053144425       16.0194385758       19.2864850653
H    1.0       23.3855554773       17.0855084448       19.0571711090
H    1.0       23.0513999161       15.4641871335       18.4547401837
O    8.0       24.8993568406       15.7065703714       19.3820728725
H    1.0       25.3259722539       16.4507040868       19.8668327144
C    6.0       18.4867872061       17.8283909787       24.1638698818
H    1.0       17.9013328491       18.6585808365       24.5731586111
H    1.0       17.7260800716       17.1209405196       23.8140183908
C    6.0       19.3006603122       18.2844068880       22.9247790172
H    1.0       19.4921388100       17.3964879442       22.3110820166
H    1.0       18.6763461433       18.9451341421       22.3084371618
C    6.0       20.6701118969       18.9602216617       23.1848140580
H    1.0       21.1465744033       19.1261979400       22.2092344770
H    1.0       21.3400357485       18.2721910759       23.7103336388
C    6.0       20.6339341220       20.3210595466       23.9236396889
H    1.0       21.6596345211       20.7044076837       23.9762439822
H    1.0       20.0792216966       21.0373847538       23.3117148379
C    6.0       20.0584425894       20.3324572663       25.3584120680
H    1.0       18.9668600240       20.2602165742       25.3138989289
C    6.0       20.6080249173       19.2057489562       26.2705140637
H    1.0       21.5671587551       18.8323677673       25.8918548398
H    1.0       20.8363303531       19.6365216111       27.2544748863
C    6.0       19.6236605149       18.0287526323       26.5051377363
H    1.0       18.6851537661       18.4202214742       26.9206210547
H    1.0       20.0493526237       17.3870851956       27.2882566957
C    6.0       19.3067348922       17.1319255655       25.2797457217
H    1.0       18.7126854046       16.2836457219       25.6460186319
H    1.0       20.2236912967       16.6842645106       24.8778762216
O    8.0       20.3799070537       21.5910573445       25.9377038962
H    1.0       19.9294291352       22.2717953584       25.3854605011
 $end
