$$$$
! Edit this basic GAMESS input file as needed.
! Conformer was generated by a VeraChem VCPack run 
! and contains    155 atoms.
!
 $contrl scftyp=rhf runtyp=optimize nzvar=0
  maxit=200 icharg=0 $end
 $system mwords=50 $end
 $basis gbasis=pm3 $end
 $statpt nstep=200 $end
 $guess guess=huckel $end
 $data
FE Rank=1      G=559.899           E=351.566           -TS=208.334              
C1
C    6.0       16.4077235110       15.2545420463       21.9104276179
H    1.0       15.3716544147       15.1183148812       22.2455178055
O    8.0       16.6174432383       16.5688562704       21.3558524883
C    6.0       17.3886906187       15.0434215882       23.0922968046
H    1.0       17.2388848026       14.0180134722       23.4547352733
O    8.0       17.1353083353       15.9626364110       24.1665615279
H    1.0       16.2151101155       16.3000610490       24.0481949483
C    6.0       18.8552573746       15.1784459830       22.6242287698
H    1.0       19.0263590421       16.2204535162       22.3304273834
O    8.0       19.7130838141       14.8436574710       23.7178984223
H    1.0       19.3339787169       15.3337083956       24.4825426013
C    6.0       19.1494120266       14.2826227694       21.3938772930
H    1.0       19.2342954719       13.2391836938       21.7250773800
C    6.0       18.0499219964       14.4033739291       20.3017142789
H    1.0       18.1428039261       15.3924326828       19.8351668750
O    8.0       16.7324827513       14.2826543767       20.8941498587
C    6.0       18.1825050101       13.3518138192       19.1741861921
H    1.0       19.0616097189       13.6037419136       18.5655807228
H    1.0       17.3020094858       13.4246719733       18.5218466768
O    8.0       18.3139586702       12.0205017447       19.6881445308
H    1.0       18.3112797450       11.4038299651       18.9237826459
C    6.0       14.6411397131       20.2316558893       21.2079926523
H    1.0       13.9142555110       21.0388667324       21.0517394152
O    8.0       15.9388938798       20.7398016581       21.5739783178
C    6.0       14.1788103505       19.3091218499       22.3602814189
H    1.0       13.1946953400       18.9068590143       22.0867313520
O    8.0       14.0658468826       20.0543203362       23.5839651907
H    1.0       14.7988728695       20.7189830031       23.5850241322
C    6.0       15.1506602745       18.1166180496       22.5463752012
H    1.0       16.0989054889       18.5122405814       22.9347890370
O    8.0       14.5783462122       17.2121805324       23.4972602174
H    1.0       14.1980558629       17.7910317864       24.1969812980
C    6.0       15.4463203063       17.3962970193       21.1983895714
H    1.0       14.5753179095       16.8017631897       20.8920417545
C    6.0       15.7860193430       18.4006641046       20.0675869133
H    1.0       16.7614397670       18.8491118474       20.2832809581
O    8.0       14.7642168041       19.4226549695       20.0217511234
C    6.0       15.8586403205       17.7277778249       18.6786034211
H    1.0       16.3704357884       16.7609590087       18.7726322801
H    1.0       14.8390992639       17.5297613234       18.3217640761
O    8.0       16.5688085528       18.5572743563       17.7519125833
H    1.0       16.4943338366       18.1444724364       16.8660758688
C    6.0       18.3359891004       24.1123061922       21.2419807557
H    1.0       18.7269133517       25.1270575114       21.0951165653
O    8.0       19.3934841396       23.1470846324       21.4244772967
C    6.0       17.4245867331       24.0666438478       22.4939983088
H    1.0       16.5891822431       24.7575882605       22.3212883881
O    8.0       18.1412694875       24.4768192322       23.6694845540
H    1.0       19.0699786880       24.1423619545       23.5831171308
C    6.0       16.8396189466       22.6481526536       22.6828423461
H    1.0       17.6706462850       21.9707185299       22.9141501084
O    8.0       15.9035110784       22.6480694588       23.7662611269
H    1.0       16.3424637577       23.1606873769       24.4810918664
C    6.0       16.1471081171       22.1525365348       21.3899110599
H    1.0       15.2002289033       22.6972728754       21.2802046614
C    6.0       17.0262708567       22.3644370546       20.1238435527
H    1.0       17.8655152057       21.6593951617       20.1632169330
O    8.0       17.5441347120       23.7166808563       20.1039831133
C    6.0       16.2771268975       22.1269605907       18.7907532612
H    1.0       16.1128377871       21.0498128795       18.6660740621
H    1.0       16.9230863805       22.4493839949       17.9634252583
O    8.0       15.0242362218       22.8221467912       18.7430238913
H    1.0       14.6015991870       22.6092600658       17.8829783792
C    6.0       23.5157694672       22.7049988630       21.0433246172
H    1.0       24.5866310675       22.8640236935       20.8680496092
O    8.0       23.2099415482       21.2985475387       21.1678539065
C    6.0       23.0405778402       23.4769033456       22.3048318598
H    1.0       23.1983800569       24.5446166066       22.1034862420
O    8.0       23.7885094324       23.1197339295       23.4761354351
H    1.0       23.5673250669       22.1768060361       23.6822489096
C    6.0       21.5255340053       23.2588493764       22.5269908018
H    1.0       21.3525946631       22.1942622427       22.7324657334
O    8.0       21.0845625629       24.0486774623       23.6360097615
H    1.0       21.7715439721       23.9275705171       24.3287730412
C    6.0       20.7341691703       23.6486334077       21.2557875604
H    1.0       20.7575768653       24.7424463874       21.1641031035
C    6.0       21.3276367761       23.0122763783       19.9681280365
H    1.0       21.1185630166       21.9364470783       19.9872360135
O    8.0       22.7629332104       23.2178134456       19.9240441172
C    6.0       20.7151058978       23.5806848504       18.6657889406
H    1.0       19.6769014326       23.2320548240       18.5875815188
H    1.0       21.2637545004       23.1661511940       17.8096358628
O    8.0       20.7501019376       25.0133270992       18.6336393685
H    1.0       20.3604642623       25.3016010132       17.7798397005
C    6.0       24.7785158008       17.5751479856       22.0670163926
H    1.0       25.3887852396       16.7201025870       22.3847261129
O    8.0       23.6425592593       17.1573998163       21.2835387792
C    6.0       24.2841933068       18.3752231879       23.2996434270
H    1.0       25.1756540792       18.7334548231       23.8309337822
O    8.0       23.4992011282       17.5643552526       24.1888456878
H    1.0       23.6987514692       16.6205191129       23.9780078057
C    6.0       23.4580330241       19.6026408339       22.8587671778
H    1.0       22.5342864530       19.2295449912       22.4055184417
O    8.0       23.1447508653       20.3823245922       24.0155987595
H    1.0       22.8701096149       19.7187516562       24.6884748366
C    6.0       24.2016852785       20.4609138011       21.8028371688
H    1.0       24.9738491987       21.0485190539       22.3150146770
C    6.0       24.8531099258       19.5991146884       20.6834729879
H    1.0       24.0499574140       19.2244491212       20.0351883544
O    8.0       25.5642894346       18.4732000044       21.2569012993
C    6.0       25.8364800553       20.3867906763       19.7835041477
H    1.0       25.2739792890       21.1466938581       19.2244127348
H    1.0       26.2596445577       19.6928771049       19.0451134947
O    8.0       26.8935857440       21.0054691461       20.5296900853
H    1.0       26.5061159754       21.6939509047       21.1077643394
C    6.0       21.4008606596       13.7934124850       20.5194577889
H    1.0       20.9712102175       12.8293060178       20.2184370381
O    8.0       20.3711291281       14.7673343051       20.8018204275
C    6.0       22.3414190465       13.6356142487       21.7434419181
H    1.0       23.1878912000       13.0174985437       21.4164575315
O    8.0       21.6994689872       12.9809317952       22.8467513833
H    1.0       20.9888515249       13.5921298175       23.1661775114
C    6.0       22.9008804974       15.0136411850       22.1722515160
H    1.0       22.0639839381       15.6267245983       22.5346755484
O    8.0       23.8516961813       14.8173635998       23.2251784065
H    1.0       23.4629696637       14.1109386389       23.7900122810
C    6.0       23.5585196611       15.7521623960       20.9723932533
H    1.0       24.5515105951       15.3225502713       20.7897750781
C    6.0       22.7180879769       15.6659602859       19.6671475596
H    1.0       21.8619434768       16.3414801060       19.7780272311
O    8.0       22.2192576319       14.3225118773       19.4559706635
C    6.0       23.4936909269       16.1150618148       18.4034094140
H    1.0       23.6487963327       17.2009994219       18.4538303650
H    1.0       22.8694768552       15.9155723332       17.5229194495
O    8.0       24.7569173555       15.4542494820       18.2628336897
H    1.0       25.3755724727       15.8515720229       18.9122988135
C    6.0       18.6485615714       19.4160211536       24.6720310717
H    1.0       17.9772033635       20.2693462896       24.5142080058
H    1.0       18.0399875355       18.5030992040       24.6930122450
H    1.0       19.1148580437       19.5311166747       25.6587436739
C    6.0       19.7245287713       19.3370865826       23.5691225042
H    1.0       20.3854629242       18.4809042010       23.7669446931
H    1.0       20.3499888992       20.2388504241       23.6051871387
C    6.0       19.0929689276       19.1978797824       22.1686751768
H    1.0       18.4259114878       18.3286892756       22.1555743071
H    1.0       18.4686084238       20.0740677644       21.9619843094
C    6.0       20.1565350200       19.0591351501       21.0596963469
H    1.0       20.8227001831       18.2160424101       21.2905778179
H    1.0       20.7752537410       19.9647923024       21.0399291942
C    6.0       19.5135813826       18.8278835058       19.6768878701
H    1.0       19.0024545514       17.8571067686       19.6926942349
H    1.0       18.7442708657       19.5877640688       19.4881537833
C    6.0       20.5538207182       18.8841848601       18.5345132309
H    1.0       21.4054795137       18.2365415206       18.7652377079
H    1.0       20.9524705523       19.9057717209       18.4830862118
C    6.0       19.9651470583       18.5024117051       17.1583410794
H    1.0       19.0436284805       19.0743966571       17.0089019237
C    6.0       19.6284103487       17.0016477909       17.0708422776
H    1.0       19.2656939932       16.7458223886       16.0678849780
H    1.0       18.8381343622       16.7272246277       17.7777796380
H    1.0       20.5060911823       16.3799492196       17.2839181450
N    7.0       20.8935906266       18.8908095949       16.0413421254
H    1.0       21.0972991173       19.8940752025       16.0530021124
H    1.0       20.4834387216       18.6745812461       15.1282802727
H    1.0       21.7842730982       18.3913998993       16.1023397992
 $end
