$$$$
! Edit this basic GAMESS input file as needed.
! Conformer was generated by a VeraChem VCPack run 
! and contains    149 atoms.
!
 $contrl scftyp=rhf runtyp=optimize nzvar=0
  maxit=200 icharg=0 $end
 $system mwords=50 $end
 $basis gbasis=pm3 $end
 $statpt nstep=200 $end
 $guess guess=huckel $end
 $data
FE Rank=1      G=568.108           E=369.359           -TS=198.749              
C1
C    6.0       16.2048321153       15.3651815624       21.6779259587
H    1.0       15.1225802874       15.2674485226       21.8322357313
O    8.0       16.5427770725       16.6108233598       21.0338506750
C    6.0       16.9545165755       15.2755254778       23.0315946860
H    1.0       16.7537112313       14.2788842401       23.4461172807
O    8.0       16.4968130088       16.2721200781       23.9621525278
H    1.0       15.6467215129       16.6250281294       23.5989643286
C    6.0       18.4784412346       15.4078097455       22.8110683701
H    1.0       18.6788622581       16.4232143371       22.4513468215
O    8.0       19.1462136551       15.1965519606       24.0573020149
H    1.0       18.5669624846       15.6326822123       24.7190420290
C    6.0       18.9925427333       14.4080915994       21.7444830247
H    1.0       19.0456467003       13.4116027242       22.2031328320
C    6.0       18.0910390327       14.3615345286       20.4765131252
H    1.0       18.2634233713       15.2828120808       19.9048544071
O    8.0       16.6901386670       14.2912085597       20.8461122842
C    6.0       18.4087707062       13.1749342281       19.5351038126
H    1.0       19.3779307147       13.3622821843       19.0531476276
H    1.0       17.6505085312       13.1452037785       18.7411764366
O    8.0       18.4477731050       11.9244034040       20.2342481470
H    1.0       18.5715672768       11.2140202890       19.5673412193
C    6.0       14.8689891634       20.2876983394       20.1567850410
H    1.0       14.2748738827       21.1390039944       19.8004616060
O    8.0       16.1714780841       20.7101861338       20.6158366810
C    6.0       14.1251128625       19.5105750106       21.2770537395
H    1.0       13.2121347280       19.1007308172       20.8254757080
O    8.0       13.7506202461       20.3542906709       22.3755527008
H    1.0       14.5912885269       20.6451486261       22.8104913878
C    6.0       14.9801198121       18.3202158957       21.7742910763
H    1.0       15.8761675385       18.7228800206       22.2661698611
O    8.0       14.2091756398       17.5604287599       22.7119773551
H    1.0       13.7233849472       18.2314478683       23.2437289577
C    6.0       15.4393381764       17.4243840866       20.5909132816
H    1.0       14.5940429363       16.8086988604       20.2582846077
C    6.0       15.9745069699       18.2472932060       19.3856878422
H    1.0       16.9545251323       18.6532116517       19.6625062495
O    8.0       15.0788875484       19.3462972728       19.0827120810
C    6.0       16.1891381205       17.4057619630       18.1033948518
H    1.0       17.0663478903       16.7616716402       18.2509163068
H    1.0       16.4244735891       18.0880369418       17.2758219923
O    8.0       15.0509449295       16.6023273253       17.7686498872
H    1.0       15.0293312771       15.8453168383       18.3926987390
C    6.0       18.4175041423       23.8252652014       22.1116562696
H    1.0       18.8021586429       24.7595639416       22.5403180666
O    8.0       19.4787984100       23.0110120116       21.5733179456
C    6.0       17.6509328823       23.0163166504       23.1884078277
H    1.0       16.8151711571       23.6426968306       23.5268252912
O    8.0       18.4849779672       22.6947059890       24.3133394300
H    1.0       19.2743177442       23.2869167746       24.2698394877
C    6.0       17.0687164083       21.7172791804       22.5911233522
H    1.0       17.9077907273       21.0599284338       22.3341997166
O    8.0       16.2518004891       21.0892706641       23.5836875265
H    1.0       16.7555147545       21.2089115211       24.4196275219
C    6.0       16.2599857584       21.9785505904       21.2957548088
H    1.0       15.2732669995       22.3766575176       21.5660467961
C    6.0       16.9788989021       22.9592079553       20.3248609002
H    1.0       17.8192990760       22.4246652373       19.8645006327
O    8.0       17.4914321859       24.1106052057       21.0427639765
C    6.0       16.0743525375       23.4598696251       19.1734880966
H    1.0       15.8953451690       22.6243478897       18.4833183726
H    1.0       16.6159126856       24.2345430843       18.6141978209
O    8.0       14.8236403330       23.9717258531       19.6502861985
H    1.0       14.3400065742       24.3425919766       18.8800283899
C    6.0       23.6303343671       22.8467783951       21.6106006259
H    1.0       24.7036798181       23.0662635450       21.5457324370
O    8.0       23.3846252422       21.4421704355       21.8147947015
C    6.0       23.0151870127       23.6037088006       22.8109280929
H    1.0       23.1767958748       24.6766860226       22.6438697101
O    8.0       23.6620871046       23.2082434263       24.0312562849
H    1.0       23.9327689326       22.2640200849       23.9180316063
C    6.0       21.4905569152       23.3567019102       22.9061889624
H    1.0       21.3347721189       22.3064747372       23.1853084899
O    8.0       20.9530420144       24.2110846237       23.9212155600
H    1.0       21.6065729374       24.1696269003       24.6563263530
C    6.0       20.7892433513       23.6104073877       21.5428779842
H    1.0       20.7328189792       24.6917431610       21.3635279272
C    6.0       21.5370180311       22.9382985257       20.3595009657
H    1.0       21.4156931408       21.8527264017       20.4579735209
O    8.0       22.9484222635       23.2623186856       20.4090280915
C    6.0       20.9811692581       23.3304034748       18.9674379956
H    1.0       20.0259850489       22.8113350091       18.8132401361
H    1.0       21.6747207719       22.9665060084       18.1979797636
O    8.0       20.7885942239       24.7423720896       18.8243233638
H    1.0       19.9998874745       24.9875550764       19.3545658828
C    6.0       25.0825977956       17.7028396416       21.1200344720
H    1.0       25.7545481978       16.8785242725       20.8486752101
O    8.0       23.7599591779       17.2334747875       21.4551535501
C    6.0       25.6280753253       18.4676158625       22.3527915662
H    1.0       26.6159781434       18.8646960495       22.0854617400
O    8.0       25.7606334309       17.5915462417       23.4839071141
H    1.0       24.9618072269       17.0054707959       23.5010675045
C    6.0       24.7085867544       19.6640350168       22.6995691037
H    1.0       23.7431017123       19.2663189921       23.0404324668
O    8.0       25.3023642190       20.4445408129       23.7425602985
H    1.0       25.6115208699       19.7897135374       24.4075037504
C    6.0       24.4578553167       20.5526829202       21.4563168858
H    1.0       25.3863299962       21.0936744081       21.2310536255
C    6.0       24.0298287873       19.7179362592       20.2147327328
H    1.0       23.0398708920       19.2893451465       20.4051750274
O    8.0       24.9754016677       18.6397648948       20.0259146697
C    6.0       23.9241916492       20.5115400998       18.8872932662
H    1.0       22.9139697617       20.9313318113       18.8110157401
H    1.0       24.0390361926       19.8088215747       18.0512122800
O    8.0       24.8873024849       21.5647358990       18.7776876240
H    1.0       24.4928451572       22.3534631847       19.2154811095
C    6.0       21.3278075108       13.8807139414       21.2272174809
H    1.0       20.9096860940       12.8738136791       21.1002016280
O    8.0       20.2888043280       14.8781000704       21.3202664780
C    6.0       22.2224608518       13.9579297219       22.4927630573
H    1.0       23.0571417604       13.2606889335       22.3430551469
O    8.0       21.5083102148       13.5770783272       23.6783354007
H    1.0       20.7244270950       14.1776786967       23.7567099971
C    6.0       22.8123834498       15.3801563632       22.6431206345
H    1.0       21.9843121157       16.0773909752       22.8197141887
O    8.0       23.7184561570       15.4121162869       23.7506320864
H    1.0       23.2633396716       14.9169327120       24.4679706866
C    6.0       23.5457222279       15.8131219245       21.3507622278
H    1.0       24.4904693401       15.2564874450       21.2941675675
C    6.0       22.7033898435       15.5534166731       20.0700258057
H    1.0       21.8774434058       16.2762889451       20.0486819529
O    8.0       22.1590013937       14.2101251796       20.0945038607
C    6.0       23.5058229036       15.7264252674       18.7578948718
H    1.0       23.7051893098       16.7956877689       18.6085369902
H    1.0       22.8812782378       15.3921826326       17.9187011102
O    8.0       24.7415552513       15.0001639589       18.7794686884
H    1.0       25.1730536514       15.1216315266       17.9057659193
N    7.0       17.5235262904       17.9488710758       26.1434960204
H    1.0       17.0067957209       18.8265971343       26.2507273972
H    1.0       17.5037510533       17.4681058397       27.0481301425
H    1.0       16.9930772327       17.3654046781       25.4758105788
C    6.0       18.9359464294       18.1802674767       25.6502505104
H    1.0       19.4257821558       17.2063981525       25.5735898178
H    1.0       19.4719086102       18.7770054981       26.3930679052
C    6.0       18.9737551742       18.8844799722       24.2846388305
H    1.0       18.2296084549       18.4262156793       23.6229385949
H    1.0       18.6858290906       19.9346967571       24.4127394601
C    6.0       20.3764975700       18.8011874700       23.6440554724
H    1.0       20.6777110759       17.7502228150       23.5485578822
H    1.0       21.1046835696       19.2725781031       24.3186932355
C    6.0       20.4584503863       19.4918698254       22.2634216002
H    1.0       20.1097353897       20.5272865698       22.3533995107
H    1.0       21.5124258263       19.5473048127       21.9727207969
C    6.0       19.6688177079       18.7628005003       21.1505507528
H    1.0       18.6076049904       18.6887256979       21.4211701965
H    1.0       20.0444084374       17.7356495893       21.0449204996
C    6.0       19.7837935843       19.4924964192       19.7964072955
H    1.0       20.8300085306       19.5802554283       19.4806317712
H    1.0       19.3538212239       20.5001854420       19.8603960898
H    1.0       19.2434574314       18.9450246248       19.0139701019
 $end
