$$$$
! Edit this basic GAMESS input file as needed.
! Conformer was generated by a VeraChem VCPack run 
! and contains    152 atoms.
!
 $contrl scftyp=rhf runtyp=optimize nzvar=0
  maxit=200 icharg=0 $end
 $system mwords=50 $end
 $basis gbasis=pm3 $end
 $statpt nstep=200 $end
 $guess guess=huckel $end
 $data
FE Rank=1      G=553.343           E=348.592           -TS=204.752              
C1
C    6.0       16.2825249428       15.2683385506       20.4998441618
H    1.0       15.2945097284       15.0307479342       20.0848418143
O    8.0       16.3725101108       16.6448673348       20.9199008357
C    6.0       16.5880317116       14.3824792099       21.7370841764
H    1.0       16.5672907148       13.3358845948       21.4064621319
O    8.0       15.6027229867       14.5709241243       22.7657091701
H    1.0       15.4257124107       15.5431097060       22.8380285722
C    6.0       18.0048714395       14.6827097628       22.2862025719
H    1.0       18.0026704567       15.7106149230       22.6663334851
O    8.0       18.3084451231       13.7784119748       23.3542856130
H    1.0       17.4748384526       13.7119666066       23.8727507091
C    6.0       19.0607376436       14.5780696958       21.1529819682
H    1.0       19.1744080896       13.5241321450       20.8672896493
C    6.0       18.6502803306       15.3999693988       19.9041251334
H    1.0       18.6675231975       16.4638648418       20.1707407589
O    8.0       17.3085321346       15.0289077321       19.5104976387
C    6.0       19.6033568421       15.2211789162       18.6944986163
H    1.0       20.4620444186       15.8911222967       18.8296952165
H    1.0       19.0816788701       15.5472456550       17.7849015818
O    8.0       20.0710006125       13.8754602908       18.5412660847
H    1.0       20.6701559814       13.6862003447       19.2969732725
C    6.0       14.5356115540       20.3051179132       20.7940200347
H    1.0       13.8959803107       21.1907240171       20.6873692653
O    8.0       15.9248969460       20.6730820846       20.9602764667
C    6.0       14.0685455646       19.4095128843       21.9723937035
H    1.0       13.0810322448       19.0123089565       21.7030432711
O    8.0       13.9459699451       20.1391360005       23.2011751602
H    1.0       14.8580092986       20.4275862307       23.4548890983
C    6.0       15.0339961564       18.2118989320       22.1293656102
H    1.0       16.0215845678       18.6028263386       22.4029570547
O    8.0       14.5620428161       17.3377399671       23.1594590870
H    1.0       14.2613715287       17.9313311762       23.8829803745
C    6.0       15.1711647321       17.4299486523       20.7991201032
H    1.0       14.2780558540       16.8017567329       20.6838305870
C    6.0       15.3398551499       18.3477674209       19.5509986173
H    1.0       16.3696605909       18.7220227011       19.5384446642
O    8.0       14.4380907789       19.4828346912       19.6118173151
C    6.0       15.1120551667       17.6097857826       18.2101342274
H    1.0       15.9505836732       16.9200203752       18.0447134350
H    1.0       15.1318537631       18.3474054755       17.3967353511
O    8.0       13.8760587092       16.8844118785       18.1950132440
H    1.0       13.7703593671       16.4948717081       17.2996460958
C    6.0       18.5308729741       23.6421997757       22.2132497959
H    1.0       18.9923848742       24.5495131151       22.6226348517
O    8.0       19.4802226666       22.8558905354       21.4637637500
C    6.0       17.9504556287       22.7731283221       23.3573211568
H    1.0       17.2087341282       23.3872061746       23.8846467446
O    8.0       18.9684310191       22.3583390120       24.2843316933
H    1.0       19.7123685290       23.0025806722       24.2030948967
C    6.0       17.2348862855       21.5274831681       22.7930815803
H    1.0       17.9947276810       20.8864340832       22.3369615384
O    8.0       16.6151553113       20.8394182647       23.8810416469
H    1.0       17.2748953474       20.8980622863       24.6083415708
C    6.0       16.2051552249       21.8865402911       21.6916356191
H    1.0       15.3062775316       22.3024809894       22.1656443667
C    6.0       16.7795773148       22.8994246655       20.6604708660
H    1.0       17.5128877095       22.3721291036       20.0369641449
O    8.0       17.4422005366       23.9982911859       21.3350657055
C    6.0       15.7057053183       23.4809600474       19.7100761553
H    1.0       15.3802572194       22.6858552313       19.0255802488
H    1.0       16.1672390701       24.2687287648       19.0996977858
O    8.0       14.5755485866       23.9996254202       20.4227122359
H    1.0       13.9753783021       24.4167942411       19.7666347037
C    6.0       23.6226885560       22.7438512957       20.9362426279
H    1.0       24.6657469238       22.9880552814       20.7002624116
O    8.0       23.4462765224       21.3377498882       21.2091433613
C    6.0       23.1512791116       23.5418666950       22.1775265921
H    1.0       23.2215939673       24.6078199795       21.9241739864
O    8.0       23.9852267658       23.2810922599       23.3170228592
H    1.0       24.2146146776       22.3173067120       23.3079160706
C    6.0       21.6699371748       23.2321161020       22.5023563867
H    1.0       21.5969425643       22.1776821210       22.7996785258
O    8.0       21.2595895868       24.0719525903       23.5869512608
H    1.0       22.0331086641       24.0864053845       24.1963766302
C    6.0       20.7757278863       23.4537230885       21.2493146315
H    1.0       20.6880833798       24.5310487340       21.0588488428
C    6.0       21.3650092284       22.7625550695       19.9889295920
H    1.0       21.2801085210       21.6804021131       20.1265421700
O    8.0       22.7638721552       23.1061271704       19.8336847167
C    6.0       20.6132593168       23.1070593570       18.6793205453
H    1.0       19.6564810657       22.5679989372       18.6743234384
H    1.0       21.2002695700       22.7316097480       17.8307203717
O    8.0       20.3745009175       24.5115607462       18.5298561243
H    1.0       19.6754098266       24.7610358465       19.1719545800
C    6.0       25.2190371785       17.6185358434       21.1770741330
H    1.0       25.8571551366       16.7298433643       21.0878696536
O    8.0       23.8303200247       17.2619447906       21.3584012978
C    6.0       25.6736484558       18.5254617212       22.3492542887
H    1.0       26.6753032210       18.8993141064       22.0996456309
O    8.0       25.7471883988       17.8086357721       23.5897213010
H    1.0       24.8382958146       17.4669354474       23.7832020930
C    6.0       24.7275235485       19.7443110017       22.4690668742
H    1.0       23.7285875352       19.3791132037       22.7421324427
O    8.0       25.2125750068       20.6237424947       23.4869590692
H    1.0       25.4764128984       20.0350682073       24.2294429223
C    6.0       24.6200220590       20.5038868502       21.1210022665
H    1.0       25.5374162401       21.0913501196       20.9881202870
C    6.0       24.4247955706       19.5559771420       19.9006404618
H    1.0       23.3965546252       19.1809307519       19.9172487696
O    8.0       25.3229608121       18.4211586071       19.9814756383
C    6.0       24.6239601607       20.2502279587       18.5312302575
H    1.0       23.7940268463       20.9506395176       18.3657034425
H    1.0       24.5626335875       19.4855894286       17.7455357549
O    8.0       25.8747507587       20.9437944989       18.4398081951
H    1.0       25.7583320667       21.8287432631       18.8444088239
C    6.0       21.2064498633       14.2126893763       22.2467299285
H    1.0       20.6994608240       13.2834095054       22.5365758644
O    8.0       20.3032512252       15.1368626927       21.6109435826
C    6.0       21.8035284833       14.9050210744       23.4940806596
H    1.0       22.5379709643       14.2158560681       23.9311746416
O    8.0       20.7806084798       15.1963157170       24.4641303786
H    1.0       20.0000853452       14.6357987223       24.2303084845
C    6.0       22.5309091985       16.2059972080       23.0867575728
H    1.0       21.7736360663       16.8991603337       22.7095403182
O    8.0       23.1635580341       16.7647309568       24.2420887565
H    1.0       22.6595333054       16.4071936381       25.0056051412
C    6.0       23.5562722013       15.9728549743       21.9466733425
H    1.0       24.4573056258       15.5098685772       22.3705548187
C    6.0       22.9846992589       15.0881815668       20.8009793060
H    1.0       22.2744446551       15.6994992879       20.2305049361
O    8.0       22.2857522636       13.9331655742       21.3309991161
C    6.0       24.0637985512       14.5975540441       19.8064720855
H    1.0       24.4151944566       15.4584415059       19.2215619798
H    1.0       23.5991228050       13.8932294783       19.1034465668
O    8.0       25.1715109817       13.9794419857       20.4732430457
H    1.0       25.7757241862       13.6273322468       19.7835802629
C    6.0       19.5264877818       19.2559855095       18.5945359869
H    1.0       18.6403921135       19.5689205862       18.0271778746
H    1.0       20.3748541833       19.8660559646       18.2588533493
H    1.0       19.7374902140       18.2105914075       18.3398080355
C    6.0       19.2875206408       19.4228788954       20.1090004024
H    1.0       18.4141931601       18.8298971647       20.4052849499
H    1.0       19.0422385578       20.4712066437       20.3192564862
C    6.0       20.5206463438       18.9980179478       20.9384031337
H    1.0       20.7404439294       17.9355634345       20.7663089704
H    1.0       21.3951828119       19.5514276889       20.5851362492
C    6.0       20.3644285615       19.2612410912       22.4539732803
H    1.0       20.1375971757       20.3207852402       22.6274296218
H    1.0       21.3320777099       19.0812596240       22.9379612506
C    6.0       19.2736800182       18.3720918759       23.0993352891
H    1.0       18.2982072932       18.6175279603       22.6652978079
H    1.0       19.4673230398       17.3230301796       22.8542432127
C    6.0       19.1888431611       18.5266539347       24.6293459254
H    1.0       19.1181519680       19.5924406779       24.8697184497
C    6.0       17.9371187540       17.8129664877       25.1652075032
H    1.0       17.9765741160       16.7356442347       24.9606838006
H    1.0       17.0265826804       18.2123501152       24.7023043441
H    1.0       17.8462059010       17.9510369525       26.2493067508
N    7.0       20.4166908141       17.9924293879       25.3110715287
H    1.0       21.2674512589       18.4551502158       24.9772602876
H    1.0       20.3663049731       18.1112863039       26.3261298706
H    1.0       20.5188567821       16.9836370793       25.1171397253
 $end
