$$$$
! Edit this basic GAMESS input file as needed.
! Conformer was generated by a VeraChem VCPack run 
! and contains    148 atoms.
!
 $contrl scftyp=rhf runtyp=optimize nzvar=0
  maxit=200 icharg=0 $end
 $system mwords=50 $end
 $basis gbasis=pm3 $end
 $statpt nstep=200 $end
 $guess guess=huckel $end
 $data
FE Rank=1      G=506.792           E=313.859           -TS=192.933              
C1
C    6.0       16.2800231441       15.1054153174       20.3240199200
H    1.0       15.2861189238       15.0151135938       19.8674771801
O    8.0       16.5745925028       16.4769137928       20.6732714207
C    6.0       16.4129953198       14.1836177503       21.5650034151
H    1.0       16.3040954028       13.1524401542       21.2043971539
O    8.0       15.3931796514       14.4355553266       22.5430304622
H    1.0       15.5736283575       15.3369840611       22.9112751598
C    6.0       17.8182057998       14.3115755191       22.2015585367
H    1.0       17.8960804566       15.3046743900       22.6651021099
O    8.0       17.9621830319       13.2943610540       23.1981351128
H    1.0       17.1736113112       13.3802242031       23.7762638120
C    6.0       18.9585505773       14.1836305148       21.1555165922
H    1.0       19.1322378097       13.1167954419       20.9655543872
C    6.0       18.6610721245       14.9091181052       19.8098579911
H    1.0       18.7862221319       15.9813328277       19.9805320688
O    8.0       17.2940303140       14.6623906371       19.3956903420
C    6.0       19.6114114436       14.5459042893       18.6372004951
H    1.0       20.4084674460       15.2978990638       18.5904331500
H    1.0       19.0517176823       14.6291783033       17.6960030130
O    8.0       20.1893231010       13.2390842710       18.7470136594
H    1.0       20.8320083854       13.2664909856       19.4942491406
C    6.0       14.9658923786       20.1578656926       21.6845393663
H    1.0       14.3231889121       20.9965679671       21.9813853795
O    8.0       16.2549067703       20.6139391976       21.2289206573
C    6.0       15.1626559536       19.1865954407       22.8757949677
H    1.0       14.1688658209       18.8092408592       23.1498867121
O    8.0       15.7411585696       19.8465806588       24.0128609624
H    1.0       15.7670258165       20.8123008207       23.8071350714
C    6.0       16.0349134366       17.9791350653       22.4662657925
H    1.0       17.0496627663       18.3465785919       22.2618255221
O    8.0       16.0616635050       17.0509996530       23.5552314406
H    1.0       16.2553903642       17.6071647366       24.3434392092
C    6.0       15.5001733607       17.2944523931       21.1819324591
H    1.0       14.6139569409       16.6999853414       21.4387661911
C    6.0       15.1389603979       18.3197397208       20.0688300593
H    1.0       16.0742729629       18.7228723440       19.6630534056
O    8.0       14.3521822195       19.4116706616       20.6119452877
C    6.0       14.3627150810       17.6956932991       18.8847008676
H    1.0       15.0502382260       17.0515578862       18.3199888930
H    1.0       14.0443100190       18.5024606591       18.2109969593
O    8.0       13.2299806058       16.9330627639       19.3200250489
H    1.0       12.7451301061       16.6359376134       18.5193159202
C    6.0       18.4971478080       24.1232087912       21.0927214002
H    1.0       18.8642174947       25.1448414996       20.9304610624
O    8.0       19.5570473177       23.2254791036       21.4697516050
C    6.0       17.4340146102       24.0867390887       22.2189607589
H    1.0       16.6003903047       24.7265433047       21.9014168110
O    8.0       17.9698723711       24.5911664850       23.4530342830
H    1.0       18.8479689664       24.1541320687       23.5953743529
C    6.0       16.8849735241       22.6504949068       22.4157267382
H    1.0       17.6956748126       22.0243231618       22.8137358316
O    8.0       15.8036314096       22.7001457925       23.3524370698
H    1.0       16.1080192052       23.3179557435       24.0557703903
C    6.0       16.4136054911       22.0375770197       21.0677295694
H    1.0       15.4717147035       22.5141822485       20.7677273919
C    6.0       17.4605520057       22.2332816574       19.9377710057
H    1.0       18.3294457966       21.6030068248       20.1631381933
O    8.0       17.8797615561       23.6180268085       19.8900095028
C    6.0       16.9494133731       21.8215798171       18.5340563040
H    1.0       16.9245282539       20.7259085572       18.4764366789
H    1.0       17.6747032869       22.1663213082       17.7852626003
O    8.0       15.6485502619       22.3453822713       18.2395654596
H    1.0       15.0004582463       21.8328211949       18.7691843822
C    6.0       23.6248294567       22.8326150207       21.8461215547
H    1.0       24.7118630211       22.9405617889       21.9528501813
O    8.0       23.2460958158       21.4658441382       21.5829856875
C    6.0       22.9141290819       23.2943115281       23.1416772242
H    1.0       23.1375340563       24.3602089115       23.2795689839
O    8.0       23.3915456560       22.5600948448       24.2803693788
H    1.0       23.8496876773       21.7547211869       23.9340448598
C    6.0       21.3823151888       23.1409501091       23.0013947359
H    1.0       21.1597927140       22.0704718494       22.9430763636
O    8.0       20.7352213739       23.7048454552       24.1467544828
H    1.0       21.2340759396       23.3492654651       24.9159174996
C    6.0       20.8494930231       23.8107648088       21.7109906547
H    1.0       20.7897783486       24.8936737025       21.8820443007
C    6.0       21.7232132193       23.5096393733       20.4601575428
H    1.0       21.5315442313       22.4717603522       20.1620527911
O    8.0       23.1321166393       23.6571014271       20.7695458116
C    6.0       21.3902384253       24.4031085591       19.2415893585
H    1.0       20.4118753889       24.1002145690       18.8446928687
H    1.0       22.1334702207       24.2135164216       18.4556113569
O    8.0       21.3672491691       25.7955168960       19.5810314708
H    1.0       21.2130864550       26.3011139556       18.7533918024
C    6.0       24.7951475239       17.6894904331       20.8265332145
H    1.0       25.3984169442       16.8290739377       20.5100009253
O    8.0       23.4709433840       17.2848806008       21.2289792629
C    6.0       25.4831406864       18.4577995001       21.9873874120
H    1.0       26.4401670747       18.8327923263       21.6018945149
O    8.0       25.7420052014       17.6077470276       23.1145118724
H    1.0       24.8674738897       17.2542075169       23.4183999300
C    6.0       24.6316079629       19.6803108020       22.4077332540
H    1.0       23.6850708049       19.3100316438       22.8235803533
O    8.0       25.3328514258       20.4361408377       23.4005025784
H    1.0       25.7070730243       19.7650405392       24.0145419906
C    6.0       24.3076454041       20.5770281057       21.1859201575
H    1.0       25.2114319859       21.1254159186       20.8894577222
C    6.0       23.7933228154       19.7590267539       19.9700864559
H    1.0       22.7775855541       19.4097381599       20.1973225614
O    8.0       24.6534880383       18.6159759559       19.7308407202
C    6.0       23.7271841336       20.5898907244       18.6658860423
H    1.0       22.9411377132       21.3474719568       18.7750017774
H    1.0       23.4296501519       19.9262593975       17.8432013658
O    8.0       24.9755443935       21.2267594944       18.3635440444
H    1.0       24.8645630488       21.7158250324       17.5198909459
C    6.0       21.1788783186       13.9579612219       22.1537035582
H    1.0       20.7972109075       12.9685305651       22.4367068781
O    8.0       20.1097821769       14.8283239750       21.7355523735
C    6.0       21.9170235496       14.5964826248       23.3581799044
H    1.0       22.7807691099       13.9592471332       23.5872484599
O    8.0       21.0555055590       14.6355956415       24.5068018269
H    1.0       21.1255815875       15.5361741125       24.9140654912
C    6.0       22.4544424138       15.9986878258       22.9813160321
H    1.0       21.5956917303       16.6488439853       22.7743236278
O    8.0       23.2360214506       16.5398834528       24.0546385211
H    1.0       22.5866276663       16.8523862646       24.7385578184
C    6.0       23.3207079440       15.9294091353       21.6996396393
H    1.0       24.2864865835       15.4718351167       21.9524973066
C    6.0       22.6316042898       15.1244690826       20.5616041061
H    1.0       21.7981340670       15.7351072346       20.1942062821
O    8.0       22.1140134428       13.8596119382       21.0566917255
C    6.0       23.5575878900       14.8364071935       19.3558202217
H    1.0       23.7470863763       15.7812806559       18.8285281735
H    1.0       23.0296091705       14.1739213810       18.6568674168
O    8.0       24.7997659286       14.2469426469       19.7594006213
H    1.0       25.2991638845       14.0172306729       18.9456984983
C    6.0       20.0834802430       17.9949016249       25.4907590118
O    8.0       19.5628540541       18.5454755918       26.4405537969
O    8.0       21.0262453703       17.2304406853       25.5842052660
C    6.0       19.5419324062       18.2906517165       24.0957870990
H    1.0       18.5359748729       18.7125845948       24.2037313721
H    1.0       19.4392418647       17.3336399355       23.5731431452
C    6.0       20.4423797567       19.2719031048       23.2995872451
H    1.0       20.5514457148       20.1865416388       23.8956591622
H    1.0       21.4508273764       18.8544422091       23.1956132416
C    6.0       19.8874403147       19.6435608157       21.9036095376
H    1.0       20.5181898109       20.4332047990       21.4792172095
H    1.0       18.8834635504       20.0706769007       22.0180909050
C    6.0       19.8374349451       18.4514595388       20.9187868975
H    1.0       20.8427112402       18.0334015225       20.7834450567
H    1.0       19.2244377151       17.6561576970       21.3575452721
C    6.0       19.2325631142       18.8241950592       19.5454185233
H    1.0       18.2550127934       19.2917244750       19.7025014360
H    1.0       19.0452025740       17.9099439171       18.9694211421
C    6.0       20.1317297306       19.7505995166       18.7010141905
H    1.0       20.3268273459       20.7001110877       19.2115392665
H    1.0       19.6526244340       19.9783443861       17.7404984229
H    1.0       21.0911985840       19.2642091392       18.4896928464
 $end
