$$$$
! Edit this basic GAMESS input file as needed.
! Conformer was generated by a VeraChem VCPack run 
! and contains    143 atoms.
!
 $contrl scftyp=rhf runtyp=optimize nzvar=0
  maxit=200 icharg=0 $end
 $system mwords=50 $end
 $basis gbasis=pm3 $end
 $statpt nstep=200 $end
 $guess guess=huckel $end
 $data
FE Rank=1      G=494.785           E=312.454           -TS=182.331              
C1
C    6.0       16.3883890164       15.6251944978       22.2536710946
H    1.0       15.3501756483       15.6194180261       22.6041956774
O    8.0       16.6406298129       16.6929428317       21.3176899841
C    6.0       17.3578148089       15.7915743003       23.4496670366
H    1.0       17.2196559201       14.9187363680       24.1004650735
O    8.0       17.0517841615       16.9794999001       24.2001276517
H    1.0       17.7663469396       17.6464116529       24.0224052849
C    6.0       18.8260257729       15.7901775502       22.9561846784
H    1.0       18.9755303837       16.6735257081       22.3226120934
O    8.0       19.7065393700       15.8433021717       24.0839786271
H    1.0       19.6701922056       16.7800238408       24.4074140794
C    6.0       19.1352698969       14.5436410817       22.0869673686
H    1.0       19.2413225138       13.6703355002       22.7440475834
C    6.0       18.0323394144       14.2808367784       21.0213773218
H    1.0       18.1274817223       15.0486281473       20.2425304413
O    8.0       16.7093316010       14.3721210458       21.6103040255
C    6.0       18.1686588031       12.9050887595       20.3261898728
H    1.0       19.0550954630       12.9300726788       19.6778502029
H    1.0       17.2948432285       12.7513102979       19.6789801043
O    8.0       18.2870508277       11.8314423297       21.2684096401
H    1.0       18.2960964015       10.9901481817       20.7616589982
C    6.0       14.9465970256       20.1950343651       20.0593913668
H    1.0       14.3935504039       21.0218413283       19.5954584730
O    8.0       16.1680400958       20.6487885577       20.6821761159
C    6.0       14.0853400681       19.4827748878       21.1280750497
H    1.0       13.2178095220       19.0550385073       20.6087032901
O    8.0       13.6194962544       20.4047940863       22.1257128397
H    1.0       14.4093220104       20.9004568639       22.4616676387
C    6.0       14.8661846819       18.3145911114       21.7817995879
H    1.0       15.6730511296       18.7416598029       22.3942204494
O    8.0       13.9521698728       17.5903687364       22.6118037881
H    1.0       13.5130823272       18.2728036619       23.1657472467
C    6.0       15.5110233341       17.3664065107       20.7244366739
H    1.0       14.7583844870       16.6490608614       20.3751473033
C    6.0       16.1203519774       18.1225727992       19.5096188829
H    1.0       17.0712004827       18.5491115808       19.8404414094
O    8.0       15.2650620388       19.2011315261       19.0657098910
C    6.0       16.4419396481       17.2103792139       18.3007165363
H    1.0       17.2817281665       16.5560581828       18.5687508570
H    1.0       16.7801961522       17.8435343392       17.4698551917
O    8.0       15.3199729984       16.4188115659       17.8899108365
H    1.0       15.1825536409       15.7224141064       18.5664994975
C    6.0       18.4350801054       24.0537084637       21.3990718082
H    1.0       18.8383377801       25.0700941874       21.4947294114
O    8.0       19.4671435602       23.0560872422       21.5452917940
C    6.0       17.3143509965       23.7895951610       22.4383865167
H    1.0       16.4901929340       24.4750115451       22.2010487563
O    8.0       17.7499059820       24.0513092853       23.7799185885
H    1.0       18.5324299254       23.4694459329       23.9529550092
C    6.0       16.7771540060       22.3431593135       22.2949926125
H    1.0       17.5852690521       21.6400978416       22.5432558608
O    8.0       15.6786250979       22.1618036627       23.1941242805
H    1.0       15.9841328918       22.5408723988       24.0484675003
C    6.0       16.3187072315       22.0751058065       20.8377490932
H    1.0       15.3710611798       22.6056010424       20.6756245163
C    6.0       17.3678240056       22.5440111229       19.7892501557
H    1.0       18.2205881774       21.8569995416       19.8319724374
O    8.0       17.8350649642       23.8823482441       20.0970740979
C    6.0       16.8355532766       22.5275637622       18.3364742094
H    1.0       16.7155746741       21.4816457332       18.0224716161
H    1.0       17.5916411136       22.9801793513       17.6811557713
O    8.0       15.5862588863       23.2192678767       18.2103903661
H    1.0       15.3409918902       23.2190160669       17.2595330018
C    6.0       23.3655447340       22.2743467241       22.6059507685
H    1.0       24.3997773348       22.2750461902       22.9720652174
O    8.0       23.0870521280       21.1054392707       21.8089759783
C    6.0       22.3844805210       22.3295053410       23.8030041048
H    1.0       22.5638009469       23.2849894626       24.3127179343
O    8.0       22.6196708949       21.2643329808       24.7401305407
H    1.0       22.3172046638       20.4062675984       24.3385973156
C    6.0       20.9192862886       22.3303376610       23.3129261697
H    1.0       20.7203859006       21.3696018246       22.8324941275
O    8.0       20.0498005113       22.4964983352       24.4361572580
H    1.0       20.3211489545       21.8011614513       25.0770527488
C    6.0       20.6652026784       23.4343217102       22.2551287852
H    1.0       20.5584477929       24.3997539735       22.7672176632
C    6.0       21.7932067813       23.5104854718       21.1849885864
H    1.0       21.6666609840       22.6502735146       20.5172337755
O    8.0       23.1108057604       23.4401658335       21.7922001538
C    6.0       21.7199617549       24.7825297558       20.3075181562
H    1.0       20.8356889414       24.7076707158       19.6599816657
H    1.0       22.6021021600       24.8096496728       19.6539241144
O    8.0       21.6450714041       25.9775118013       21.0950395271
H    1.0       21.6718686829       26.7422745567       20.4793601621
C    6.0       24.8460304718       17.7859894975       20.1847136258
H    1.0       25.4182758628       17.0123874503       19.6566769531
O    8.0       23.5902271445       17.2720715214       20.6831235929
C    6.0       25.6607020321       18.3854718209       21.3568614480
H    1.0       26.5278659998       18.8941639735       20.9156919829
O    8.0       26.1338248054       17.3718611467       22.2557717346
H    1.0       25.3359002219       16.9131923155       22.6222428733
C    6.0       24.8245450985       19.4493110605       22.1101779907
H    1.0       23.9971838533       18.9377604505       22.6234676929
O    8.0       25.6704690392       20.0916284556       23.0696128532
H    1.0       26.1089631958       19.3609259308       23.5581715501
C    6.0       24.2170642795       20.5060578026       21.1413209569
H    1.0       24.9878650950       21.2524275096       20.9127907531
C    6.0       23.6774136676       19.9023182765       19.8073399629
H    1.0       22.7111906843       19.4336617780       20.0081938641
O    8.0       24.5724392895       18.8869294515       19.2935750580
C    6.0       23.4220498756       20.9456576785       18.6906589941
H    1.0       22.4752694619       21.4580251637       18.8989662628
H    1.0       23.2886256754       20.4097203095       17.7414733767
O    8.0       24.4765540940       21.9078629735       18.5659325196
H    1.0       24.4300645080       22.5013487929       19.3463158239
C    6.0       21.4083889898       13.8422818996       21.4176871607
H    1.0       21.0099527730       12.8281986233       21.5504840490
O    8.0       20.3483665206       14.8233332029       21.3543741626
C    6.0       22.4072265399       14.2087232742       22.5458553149
H    1.0       23.2702957969       13.5391770553       22.4353208748
O    8.0       21.8489473130       14.0084889109       23.8518942472
H    1.0       21.0915651760       14.6393512602       23.9417898647
C    6.0       22.9166807886       15.6602348324       22.3583326791
H    1.0       22.0691000971       16.3503355915       22.4756246627
O    8.0       23.9080835251       15.9360003227       23.3523921795
H    1.0       23.4860091599       15.6999280160       24.2080738610
C    6.0       23.5171594150       15.8530247815       20.9383780575
H    1.0       24.5100663060       15.3845077551       20.9184152803
C    6.0       22.6255702701       15.2401565605       19.8174963503
H    1.0       21.7518555386       15.8867545402       19.6863517088
O    8.0       22.1588176669       13.9177293116       20.1868656090
C    6.0       23.3336808295       15.1530230272       18.4447305034
H    1.0       23.4514029707       16.1716116348       18.0502122811
H    1.0       22.6823022131       14.6073801264       17.7490002513
O    8.0       24.6139952937       14.5149347574       18.5352425782
H    1.0       24.9692119408       14.4298052925       17.6236256266
C    6.0       20.3783800863       18.8169330618       23.4756749208
O    8.0       21.4042088086       18.7772154120       24.1252083886
O    8.0       19.2698343655       18.6986536558       23.9651352764
C    6.0       20.5217312123       18.9931677865       22.0099693436
H    1.0       21.5414784043       18.9728055462       21.6499621883
C    6.0       19.4957241722       19.2073266541       21.1573699136
H    1.0       18.4702106550       19.2481159064       21.5227059033
C    6.0       19.6854652757       19.4479302686       19.6743831253
H    1.0       20.3972181722       20.2689758624       19.5219215649
H    1.0       18.7417911947       19.7742491721       19.2231928834
C    6.0       20.1846130150       18.1833357586       18.9511314369
H    1.0       21.1782184168       17.9229877232       19.3312815330
H    1.0       19.5223408462       17.3378552402       19.1809795072
C    6.0       20.2622285342       18.3872142771       17.4259450290
H    1.0       19.2746620682       18.6253462767       17.0104800014
H    1.0       20.9469397778       19.2074004069       17.1749185006
H    1.0       20.6277892791       17.4772111325       16.9332315806
 $end
$$$$
! Edit this basic GAMESS input file as needed.
! Conformer was generated by a VeraChem VCPack run 
! and contains    143 atoms.
!
 $contrl scftyp=rhf runtyp=optimize nzvar=0
  maxit=200 icharg=0 $end
 $system mwords=50 $end
 $basis gbasis=pm3 $end
 $statpt nstep=200 $end
 $guess guess=huckel $end
 $data
FE Rank=2      G=496.193           E=314.688           -TS=181.505              
C1
C    6.0       16.2599954281       15.0354058696       21.6356129487
H    1.0       15.1904130534       14.8555732961       21.8026162617
O    8.0       16.5837707789       16.4381322548       21.6825459787
C    6.0       17.0904589018       14.3154681755       22.7237289858
H    1.0       16.9006600806       13.2385411236       22.6270281100
O    8.0       16.6954383449       14.7498164936       24.0348574415
H    1.0       16.3907010319       15.6882650931       23.9511430399
C    6.0       18.6014075819       14.5555106258       22.5043070668
H    1.0       18.8062165573       15.6190335564       22.6861973694
O    8.0       19.3401462559       13.7592419395       23.4358234870
H    1.0       18.8978443951       13.9114393869       24.3010189691
C    6.0       19.0270823012       14.2144753772       21.0521267322
H    1.0       19.1048670526       13.1236223330       20.9534913173
C    6.0       18.0485550157       14.7855729775       19.9838348016
H    1.0       18.2039815771       15.8715098296       19.9342112792
O    8.0       16.6682716092       14.5242561334       20.3502934644
C    6.0       18.2944723833       14.2272430937       18.5621177992
H    1.0       19.2405680559       14.6395218292       18.1856424510
H    1.0       17.4951913446       14.5876359015       17.9007550422
O    8.0       18.3477745739       12.7952272170       18.5458028557
H    1.0       18.4315932373       12.5107569177       17.6096217243
C    6.0       14.7971739693       20.2039539540       21.5940337173
H    1.0       14.0721596354       21.0260616776       21.5391597781
O    8.0       16.1497970481       20.6946826714       21.6666278899
C    6.0       14.5414864419       19.3701005790       22.8735380507
H    1.0       13.5166888033       18.9806104725       22.8173013404
O    8.0       14.6726005717       20.1965956704       24.0412111994
H    1.0       15.3260741130       20.9036301885       23.8170565171
C    6.0       15.5089486395       18.1653901554       22.9499527261
H    1.0       16.5286628994       18.5484465366       23.0942362664
O    8.0       15.1441952418       17.3310820452       24.0540765045
H    1.0       15.0040230038       17.9508872922       24.8044516360
C    6.0       15.4733110991       17.3506558817       21.6346544754
H    1.0       14.5090197251       16.8293774873       21.5736871053
C    6.0       15.6460644061       18.2564631823       20.3839093564
H    1.0       16.6553100226       18.6804385186       20.4041658488
O    8.0       14.6822601411       19.3392195878       20.4400534429
C    6.0       15.5082893630       17.5200592123       19.0264152821
H    1.0       16.4920698226       17.1183037785       18.7504243049
H    1.0       15.2347030559       18.2529448016       18.2557520141
O    8.0       14.5521060355       16.4546372676       19.0543966066
H    1.0       15.0111184948       15.6721927228       19.4370386621
C    6.0       18.4919215842       23.9956814064       20.6739099293
H    1.0       18.8542125606       24.9632893570       20.3038779020
O    8.0       19.5726801993       23.1511824088       21.1197132704
C    6.0       17.5263348774       24.1956811254       21.8702003026
H    1.0       16.6771474865       24.7917215698       21.5115358836
O    8.0       18.1709415276       24.8974430189       22.9450948570
H    1.0       19.0849529983       24.5255889745       23.0376328003
C    6.0       16.9784876077       22.8322981366       22.3584968188
H    1.0       17.8156222447       22.2538741449       22.7718011284
O    8.0       15.9886212047       23.0437685125       23.3709293081
H    1.0       16.3879885768       23.6998065512       23.9846049261
C    6.0       16.3637714506       22.0332823514       21.1832664974
H    1.0       15.4254862935       22.5228728131       20.8916872507
C    6.0       17.3145775910       21.9683948959       19.9554628759
H    1.0       18.1792248713       21.3499580608       20.2228335230
O    8.0       17.7674636447       23.3053125498       19.6324105227
C    6.0       16.6856425374       21.3512261802       18.6793131183
H    1.0       16.7996116725       20.2626747314       18.7232002169
H    1.0       17.2577395651       21.6952007382       17.8073783699
O    8.0       15.2996114543       21.6723553745       18.5172505560
H    1.0       14.7952463127       21.0302365529       19.0670625010
C    6.0       23.6910216599       22.7634989201       21.1392991540
H    1.0       24.7798804317       22.8703571820       21.0517745670
O    8.0       23.3116759380       21.3921462563       21.3809670643
C    6.0       23.1216241687       23.6739985714       22.2594929812
H    1.0       23.2959406198       24.7119250236       21.9469809732
O    8.0       23.7773809625       23.4639218780       23.5180467448
H    1.0       23.5959912509       22.5284249042       23.7867067750
C    6.0       21.5914199922       23.4708563709       22.3817402395
H    1.0       21.3977928094       22.4373324596       22.7025296983
O    8.0       21.0643473441       24.3866925569       23.3471806170
H    1.0       21.6690606105       24.3221460841       24.1195568842
C    6.0       20.9009823548       23.7000262337       21.0132981799
H    1.0       20.8845154034       24.7807790765       20.8209374628
C    6.0       21.6198911590       22.9720736193       19.8401698126
H    1.0       21.4141521719       21.8981733157       19.9234123110
O    8.0       23.0543478208       23.1816406100       19.9127660271
C    6.0       21.1276609316       23.4235810574       18.4444925116
H    1.0       20.1065692742       23.0468762348       18.2974781816
H    1.0       21.7612283987       22.9532759953       17.6807146451
O    8.0       21.1456785551       24.8496839316       18.2990041106
H    1.0       20.8613347849       25.0584300854       17.3826063936
C    6.0       24.5316240544       17.6616611295       22.5817642213
H    1.0       25.0353160905       16.7692532326       22.9723922175
O    8.0       23.3475578323       17.3140723567       21.8339466486
C    6.0       24.1312072754       18.5908649756       23.7547543364
H    1.0       25.0576857147       18.9071428229       24.2509878767
O    8.0       23.3206564152       17.8706475273       24.6996898446
H    1.0       22.6033217652       18.4710142642       25.0278988214
C    6.0       23.4229186639       19.8642280003       23.2282621710
H    1.0       22.4592874276       19.5697732319       22.7984266190
O    8.0       23.2171522168       20.7859001337       24.3061788341
H    1.0       22.5008142670       20.4043937814       24.8773174949
C    6.0       24.2402870535       20.5592806232       22.1068940753
H    1.0       25.0487159993       21.1427988360       22.5669502542
C    6.0       24.8263117389       19.5632129169       21.0662728783
H    1.0       23.9963542502       19.2324590817       20.4336000178
O    8.0       25.4126578647       18.4040146612       21.7111705416
C    6.0       25.8835702401       20.1975899982       20.1313824677
H    1.0       25.3753151955       20.9021584206       19.4591333376
H    1.0       26.3192002154       19.4071626100       19.5056393612
O    8.0       26.9113453315       20.8785551255       20.8615828137
H    1.0       27.5819442008       21.1883395574       20.2143125702
C    6.0       21.3516295079       14.1067086072       20.2303514620
H    1.0       20.9684542128       13.2312884633       19.6903311069
O    8.0       20.2905691570       14.8689444164       20.8394856490
C    6.0       22.3615978700       13.6978420462       21.3298743072
H    1.0       23.2154231153       13.2292734192       20.8232558509
O    8.0       21.7896859079       12.7513216052       22.2456848703
H    1.0       20.9760372441       13.1686441155       22.6273617123
C    6.0       22.8869017419       14.9442289604       22.0881105057
H    1.0       22.0617979839       15.3544885737       22.6876416000
O    8.0       23.9527450556       14.5264259785       22.9473298190
H    1.0       23.6014187401       13.7496710563       23.4354832538
C    6.0       23.3788556644       16.0613139908       21.1204498631
H    1.0       24.3935608682       15.8134743024       20.7851281194
C    6.0       22.4540498560       16.2562810179       19.8827035545
H    1.0       21.5532275588       16.7790495465       20.2219246311
O    8.0       22.0665495797       14.9761238013       19.3282099565
C    6.0       23.0601121014       17.1229883749       18.7489723025
H    1.0       22.8662630049       18.1782419068       18.9762362291
H    1.0       22.5226911909       16.9022317673       17.8171341163
O    8.0       24.4663241744       16.9138574223       18.5655025655
H    1.0       24.9187943115       17.2152008458       19.3830824446
C    6.0       20.0876683108       19.9715397258       25.1742312140
O    8.0       19.5392218108       20.8479137263       25.8120130433
O    8.0       21.1134289562       19.4240462537       25.5404436648
C    6.0       19.5268499524       19.6418993359       23.8371210572
H    1.0       18.6844169389       20.2471113943       23.5134608350
C    6.0       20.0203830529       18.6746983429       23.0320522051
H    1.0       20.8559627183       18.0508261428       23.3469507842
C    6.0       19.5004785808       18.4067717627       21.6415691310
H    1.0       18.4285563799       18.6207819709       21.6033965347
H    1.0       19.6220111565       17.3462592594       21.3994170477
C    6.0       20.2437981209       19.2686259520       20.6035413350
H    1.0       20.0776871221       20.3277201835       20.8349732619
H    1.0       21.3250492757       19.0993199140       20.6887227385
C    6.0       19.7824153093       18.9616263881       19.1645847835
H    1.0       19.9872754758       17.9171340493       18.8985885433
H    1.0       18.7062253531       19.1287568569       19.0551999432
H    1.0       20.3039931769       19.6057458294       18.4452806270
 $end
$$$$
! Edit this basic GAMESS input file as needed.
! Conformer was generated by a VeraChem VCPack run 
! and contains    143 atoms.
!
 $contrl scftyp=rhf runtyp=optimize nzvar=0
  maxit=200 icharg=0 $end
 $system mwords=50 $end
 $basis gbasis=pm3 $end
 $statpt nstep=200 $end
 $guess guess=huckel $end
 $data
FE Rank=3      G=496.631           E=315.138           -TS=181.493              
C1
C    6.0       16.2703037704       15.2966781769       21.6131965324
H    1.0       15.2049832782       15.1403965423       21.8260249740
O    8.0       16.5250896793       16.6312408485       21.1327527572
C    6.0       17.1202224122       15.0389950545       22.8852112116
H    1.0       16.9580625846       13.9920414763       23.1729518561
O    8.0       16.7281545338       15.8878853033       23.9756838015
H    1.0       15.8982247942       16.3489766461       23.7031469881
C    6.0       18.6255798947       15.2242602104       22.5886235333
H    1.0       18.7944121729       16.2838072573       22.3592971970
O    8.0       19.3703326388       14.8563285364       23.7534895311
H    1.0       18.9110951959       15.3189464454       24.4906309550
C    6.0       19.0719627699       14.3820661591       21.3652524607
H    1.0       19.1311955137       13.3274552388       21.6647143826
C    6.0       18.0966101358       14.5345905384       20.1631039592
H    1.0       18.2254709209       15.5431618128       19.7488158304
O    8.0       16.7211442177       14.3729848755       20.5993403122
C    6.0       18.3692726621       13.5309131446       19.0173941690
H    1.0       19.3080743290       13.8151449760       18.5229540578
H    1.0       17.5673897136       13.6235208896       18.2727434968
O    8.0       18.4585683110       12.1804279323       19.4894087869
H    1.0       18.5524117682       11.5965038465       18.7053554266
C    6.0       14.7057823383       20.3452755303       20.8709668303
H    1.0       14.0533080231       21.2058715339       20.6750820583
O    8.0       16.0131792149       20.7507808415       21.3248172852
C    6.0       14.0990196947       19.4272176903       21.9599034942
H    1.0       13.1389448143       19.0570227628       21.5772343013
O    8.0       13.8708010132       20.1507561856       23.1797735679
H    1.0       14.6890878325       20.6770444909       23.3696604387
C    6.0       15.0134053314       18.2031900278       22.2192565385
H    1.0       15.9439553573       18.5617823864       22.6819314609
O    8.0       14.3367402180       17.3117860579       23.1119311895
H    1.0       13.9178800776       17.8980604210       23.7829584684
C    6.0       15.3803576323       17.4747655956       20.8960355560
H    1.0       14.5155684095       16.8911707330       20.5559561730
C    6.0       15.8022109306       18.4602870979       19.7698391803
H    1.0       16.7840637284       18.8740940664       20.0218123503
O    8.0       14.8557386747       19.5505066955       19.6752287639
C    6.0       15.9467960068       17.7935072890       18.3796416190
H    1.0       16.8593125437       17.1821757295       18.3806382766
H    1.0       16.0870294634       18.5821646179       17.6286906153
O    8.0       14.8202998379       16.9785602677       18.0333649283
H    1.0       14.8789732848       16.1556251000       18.5647176838
C    6.0       18.4658536768       24.0457265558       21.8479622126
H    1.0       18.8961622079       25.0476532828       21.9748051627
O    8.0       19.4979355178       23.0456611745       21.7481934543
C    6.0       17.5289155771       23.7229296727       23.0404819396
H    1.0       16.6946355116       24.4342757180       22.9846448288
O    8.0       18.1812892247       23.9006218686       24.3070505474
H    1.0       18.9115344712       23.2288142583       24.3886370837
C    6.0       16.9357540982       22.3031459153       22.8987127160
H    1.0       17.7560014102       21.5732499104       22.9444385781
O    8.0       16.0066615161       22.0622805277       23.9609789736
H    1.0       16.4718072257       22.3549810371       24.7766896927
C    6.0       16.2184625513       22.1604008279       21.5343722801
H    1.0       15.2713796552       22.7141545660       21.5805433572
C    6.0       17.0817884344       22.6759817450       20.3492207200
H    1.0       17.8832413657       21.9446615505       20.2030381933
O    8.0       17.6705370872       23.9734005225       20.6431894011
C    6.0       16.2997039579       22.7822603309       19.0179519768
H    1.0       16.0734015009       21.7676478143       18.6636865083
H    1.0       16.9453434036       23.2524357609       18.2643007977
O    8.0       15.0847922359       23.5272548075       19.1675466850
H    1.0       14.6701786826       23.6019273080       18.2805375061
C    6.0       23.5051639559       22.5357855562       20.7811342305
H    1.0       24.5219622631       22.6109983707       20.3752231218
O    8.0       23.2911442227       21.2806272418       21.4509359611
C    6.0       23.2330952813       23.6761133058       21.7936072730
H    1.0       23.4018850562       24.6233964157       21.2652743317
O    8.0       24.1356085799       23.5880604934       22.9091974357
H    1.0       24.0782016912       22.6627752031       23.2577653419
C    6.0       21.7654717932       23.6661939001       22.2946720577
H    1.0       21.6555006478       22.8277505365       22.9941623256
O    8.0       21.5078980724       24.8973422880       22.9775506526
H    1.0       22.1969282606       24.9597585398       23.6739447944
C    6.0       20.7351792130       23.4818051916       21.1447305365
H    1.0       20.6200776235       24.4442536571       20.6294285199
C    6.0       21.1639534275       22.4030143640       20.1076035970
H    1.0       21.0840356569       21.4150866983       20.5784687126
O    8.0       22.5363944312       22.6426702325       19.7196044224
C    6.0       20.3096771923       22.3506756108       18.8136788994
H    1.0       19.5126848568       21.6105297478       18.9490566516
H    1.0       20.9395790282       21.9746572767       17.9964499282
O    8.0       19.7470847284       23.6179858455       18.4498738556
H    1.0       19.0927410945       23.8620139686       19.1455144322
C    6.0       25.0807188876       17.6210219042       22.0898259571
H    1.0       25.7639581458       16.7804686380       22.2670371139
O    8.0       23.7250451552       17.1675223190       21.9145964405
C    6.0       25.1152598071       18.5827332964       23.3024285066
H    1.0       26.1440804380       18.9514718866       23.4054066760
O    8.0       24.7373384084       17.8824730243       24.4974725068
H    1.0       24.0805090821       17.1997333170       24.2224533593
C    6.0       24.1903069203       19.8006764086       23.0739487623
H    1.0       23.1516241840       19.4448495243       23.0898253026
O    8.0       24.3882682162       20.7598274148       24.1193704740
H    1.0       24.3153871316       20.2465244890       24.9539999006
C    6.0       24.4545726245       20.4732245357       21.7055990292
H    1.0       25.3658281596       21.0807865939       21.7865065051
C    6.0       24.5888727275       19.4505937194       20.5395719752
H    1.0       23.5880434747       19.0518561231       20.3335391687
O    8.0       25.4683986570       18.3584035633       20.9130828311
C    6.0       25.1188871306       20.0619998596       19.2200407521
H    1.0       24.3303472947       20.6878718230       18.7812398773
H    1.0       25.3169395092       19.2470207724       18.5109381813
O    8.0       26.3040626799       20.8409927769       19.4239288209
H    1.0       26.6331609940       21.1201121401       18.5418015761
C    6.0       21.4117827629       13.9433739464       20.7016367042
H    1.0       21.0173413239       12.9971220501       20.3098066262
O    8.0       20.3517716583       14.8956854044       20.9397311884
C    6.0       22.2312778163       13.7155654618       22.0013890637
H    1.0       23.0877987602       13.0839272656       21.7320196492
O    8.0       21.4690111385       13.0442653401       23.0148517457
H    1.0       20.7332313463       13.6562614061       23.2698920926
C    6.0       22.7851532021       15.0596817205       22.5326135118
H    1.0       21.9353634395       15.6807759271       22.8467612894
O    8.0       23.6441988724       14.8165570373       23.6518655606
H    1.0       23.1578442261       14.1763639558       24.2168581116
C    6.0       23.5653056909       15.8198326787       21.4296184145
H    1.0       24.5299339437       15.3155897970       21.2871670093
C    6.0       22.8019245173       15.8617084435       20.0710903734
H    1.0       21.9445116696       16.5338861682       20.1768027178
O    8.0       22.3203736745       14.5329358463       19.7448224232
C    6.0       23.6222464569       16.3910098711       18.8657425344
H    1.0       23.4605258775       17.4722714390       18.7822297375
H    1.0       23.2189428479       15.9437700606       17.9473986726
O    8.0       25.0252863020       16.1209733907       18.9653065883
H    1.0       25.3979815129       16.7774226097       19.5993832464
C    6.0       19.9749883836       20.7168976769       24.9290921699
O    8.0       19.6900325041       19.9305412854       25.8122999869
O    8.0       19.9841460170       21.9229944641       25.0813428280
C    6.0       20.2991715296       20.2147319197       23.5704969996
H    1.0       20.5503413552       20.9705918508       22.8376512271