$$$$
! Edit this basic GAMESS input file as needed.
! Conformer was generated by a VeraChem VCPack run 
! and contains    148 atoms.
!
 $contrl scftyp=rhf runtyp=optimize nzvar=0
  maxit=200 icharg=0 $end
 $system mwords=50 $end
 $basis gbasis=pm3 $end
 $statpt nstep=200 $end
 $guess guess=huckel $end
 $data
FE Rank=1      G=506.792           E=313.859           -TS=192.933              
C1
C    6.0       16.2800231441       15.1054153174       20.3240199200
H    1.0       15.2861189238       15.0151135938       19.8674771801
O    8.0       16.5745925028       16.4769137928       20.6732714207
C    6.0       16.4129953198       14.1836177503       21.5650034151
H    1.0       16.3040954028       13.1524401542       21.2043971539
O    8.0       15.3931796514       14.4355553266       22.5430304622
H    1.0       15.5736283575       15.3369840611       22.9112751598
C    6.0       17.8182057998       14.3115755191       22.2015585367
H    1.0       17.8960804566       15.3046743900       22.6651021099
O    8.0       17.9621830319       13.2943610540       23.1981351128
H    1.0       17.1736113112       13.3802242031       23.7762638120
C    6.0       18.9585505773       14.1836305148       21.1555165922
H    1.0       19.1322378097       13.1167954419       20.9655543872
C    6.0       18.6610721245       14.9091181052       19.8098579911
H    1.0       18.7862221319       15.9813328277       19.9805320688
O    8.0       17.2940303140       14.6623906371       19.3956903420
C    6.0       19.6114114436       14.5459042893       18.6372004951
H    1.0       20.4084674460       15.2978990638       18.5904331500
H    1.0       19.0517176823       14.6291783033       17.6960030130
O    8.0       20.1893231010       13.2390842710       18.7470136594
H    1.0       20.8320083854       13.2664909856       19.4942491406
C    6.0       14.9658923786       20.1578656926       21.6845393663
H    1.0       14.3231889121       20.9965679671       21.9813853795
O    8.0       16.2549067703       20.6139391976       21.2289206573
C    6.0       15.1626559536       19.1865954407       22.8757949677
H    1.0       14.1688658209       18.8092408592       23.1498867121
O    8.0       15.7411585696       19.8465806588       24.0128609624
H    1.0       15.7670258165       20.8123008207       23.8071350714
C    6.0       16.0349134366       17.9791350653       22.4662657925
H    1.0       17.0496627663       18.3465785919       22.2618255221
O    8.0       16.0616635050       17.0509996530       23.5552314406
H    1.0       16.2553903642       17.6071647366       24.3434392092
C    6.0       15.5001733607       17.2944523931       21.1819324591
H    1.0       14.6139569409       16.6999853414       21.4387661911
C    6.0       15.1389603979       18.3197397208       20.0688300593
H    1.0       16.0742729629       18.7228723440       19.6630534056
O    8.0       14.3521822195       19.4116706616       20.6119452877
C    6.0       14.3627150810       17.6956932991       18.8847008676
H    1.0       15.0502382260       17.0515578862       18.3199888930
H    1.0       14.0443100190       18.5024606591       18.2109969593
O    8.0       13.2299806058       16.9330627639       19.3200250489
H    1.0       12.7451301061       16.6359376134       18.5193159202
C    6.0       18.4971478080       24.1232087912       21.0927214002
H    1.0       18.8642174947       25.1448414996       20.9304610624
O    8.0       19.5570473177       23.2254791036       21.4697516050
C    6.0       17.4340146102       24.0867390887       22.2189607589
H    1.0       16.6003903047       24.7265433047       21.9014168110
O    8.0       17.9698723711       24.5911664850       23.4530342830
H    1.0       18.8479689664       24.1541320687       23.5953743529
C    6.0       16.8849735241       22.6504949068       22.4157267382
H    1.0       17.6956748126       22.0243231618       22.8137358316
O    8.0       15.8036314096       22.7001457925       23.3524370698
H    1.0       16.1080192052       23.3179557435       24.0557703903
C    6.0       16.4136054911       22.0375770197       21.0677295694
H    1.0       15.4717147035       22.5141822485       20.7677273919
C    6.0       17.4605520057       22.2332816574       19.9377710057
H    1.0       18.3294457966       21.6030068248       20.1631381933
O    8.0       17.8797615561       23.6180268085       19.8900095028
C    6.0       16.9494133731       21.8215798171       18.5340563040
H    1.0       16.9245282539       20.7259085572       18.4764366789
H    1.0       17.6747032869       22.1663213082       17.7852626003
O    8.0       15.6485502619       22.3453822713       18.2395654596
H    1.0       15.0004582463       21.8328211949       18.7691843822
C    6.0       23.6248294567       22.8326150207       21.8461215547
H    1.0       24.7118630211       22.9405617889       21.9528501813
O    8.0       23.2460958158       21.4658441382       21.5829856875
C    6.0       22.9141290819       23.2943115281       23.1416772242
H    1.0       23.1375340563       24.3602089115       23.2795689839
O    8.0       23.3915456560       22.5600948448       24.2803693788
H    1.0       23.8496876773       21.7547211869       23.9340448598
C    6.0       21.3823151888       23.1409501091       23.0013947359
H    1.0       21.1597927140       22.0704718494       22.9430763636
O    8.0       20.7352213739       23.7048454552       24.1467544828
H    1.0       21.2340759396       23.3492654651       24.9159174996
C    6.0       20.8494930231       23.8107648088       21.7109906547
H    1.0       20.7897783486       24.8936737025       21.8820443007
C    6.0       21.7232132193       23.5096393733       20.4601575428
H    1.0       21.5315442313       22.4717603522       20.1620527911
O    8.0       23.1321166393       23.6571014271       20.7695458116
C    6.0       21.3902384253       24.4031085591       19.2415893585
H    1.0       20.4118753889       24.1002145690       18.8446928687
H    1.0       22.1334702207       24.2135164216       18.4556113569
O    8.0       21.3672491691       25.7955168960       19.5810314708
H    1.0       21.2130864550       26.3011139556       18.7533918024
C    6.0       24.7951475239       17.6894904331       20.8265332145
H    1.0       25.3984169442       16.8290739377       20.5100009253
O    8.0       23.4709433840       17.2848806008       21.2289792629
C    6.0       25.4831406864       18.4577995001       21.9873874120
H    1.0       26.4401670747       18.8327923263       21.6018945149
O    8.0       25.7420052014       17.6077470276       23.1145118724
H    1.0       24.8674738897       17.2542075169       23.4183999300
C    6.0       24.6316079629       19.6803108020       22.4077332540
H    1.0       23.6850708049       19.3100316438       22.8235803533
O    8.0       25.3328514258       20.4361408377       23.4005025784
H    1.0       25.7070730243       19.7650405392       24.0145419906
C    6.0       24.3076454041       20.5770281057       21.1859201575
H    1.0       25.2114319859       21.1254159186       20.8894577222
C    6.0       23.7933228154       19.7590267539       19.9700864559
H    1.0       22.7775855541       19.4097381599       20.1973225614
O    8.0       24.6534880383       18.6159759559       19.7308407202
C    6.0       23.7271841336       20.5898907244       18.6658860423
H    1.0       22.9411377132       21.3474719568       18.7750017774
H    1.0       23.4296501519       19.9262593975       17.8432013658
O    8.0       24.9755443935       21.2267594944       18.3635440444
H    1.0       24.8645630488       21.7158250324       17.5198909459
C    6.0       21.1788783186       13.9579612219       22.1537035582
H    1.0       20.7972109075       12.9685305651       22.4367068781
O    8.0       20.1097821769       14.8283239750       21.7355523735
C    6.0       21.9170235496       14.5964826248       23.3581799044
H    1.0       22.7807691099       13.9592471332       23.5872484599
O    8.0       21.0555055590       14.6355956415       24.5068018269
H    1.0       21.1255815875       15.5361741125       24.9140654912
C    6.0       22.4544424138       15.9986878258       22.9813160321
H    1.0       21.5956917303       16.6488439853       22.7743236278
O    8.0       23.2360214506       16.5398834528       24.0546385211
H    1.0       22.5866276663       16.8523862646       24.7385578184
C    6.0       23.3207079440       15.9294091353       21.6996396393
H    1.0       24.2864865835       15.4718351167       21.9524973066
C    6.0       22.6316042898       15.1244690826       20.5616041061
H    1.0       21.7981340670       15.7351072346       20.1942062821
O    8.0       22.1140134428       13.8596119382       21.0566917255
C    6.0       23.5575878900       14.8364071935       19.3558202217
H    1.0       23.7470863763       15.7812806559       18.8285281735
H    1.0       23.0296091705       14.1739213810       18.6568674168
O    8.0       24.7997659286       14.2469426469       19.7594006213
H    1.0       25.2991638845       14.0172306729       18.9456984983
C    6.0       20.0834802430       17.9949016249       25.4907590118
O    8.0       19.5628540541       18.5454755918       26.4405537969
O    8.0       21.0262453703       17.2304406853       25.5842052660
C    6.0       19.5419324062       18.2906517165       24.0957870990
H    1.0       18.5359748729       18.7125845948       24.2037313721
H    1.0       19.4392418647       17.3336399355       23.5731431452
C    6.0       20.4423797567       19.2719031048       23.2995872451
H    1.0       20.5514457148       20.1865416388       23.8956591622
H    1.0       21.4508273764       18.8544422091       23.1956132416
C    6.0       19.8874403147       19.6435608157       21.9036095376
H    1.0       20.5181898109       20.4332047990       21.4792172095
H    1.0       18.8834635504       20.0706769007       22.0180909050
C    6.0       19.8374349451       18.4514595388       20.9187868975
H    1.0       20.8427112402       18.0334015225       20.7834450567
H    1.0       19.2244377151       17.6561576970       21.3575452721
C    6.0       19.2325631142       18.8241950592       19.5454185233
H    1.0       18.2550127934       19.2917244750       19.7025014360
H    1.0       19.0452025740       17.9099439171       18.9694211421
C    6.0       20.1317297306       19.7505995166       18.7010141905
H    1.0       20.3268273459       20.7001110877       19.2115392665
H    1.0       19.6526244340       19.9783443861       17.7404984229
H    1.0       21.0911985840       19.2642091392       18.4896928464
 $end
$$$$
! Edit this basic GAMESS input file as needed.
! Conformer was generated by a VeraChem VCPack run 
! and contains    148 atoms.
!
 $contrl scftyp=rhf runtyp=optimize nzvar=0
  maxit=200 icharg=0 $end
 $system mwords=50 $end
 $basis gbasis=pm3 $end
 $statpt nstep=200 $end
 $guess guess=huckel $end
 $data
FE Rank=2      G=507.385           E=314.407           -TS=192.978              
C1
C    6.0       16.0602867837       15.1131600737       20.9538424096
H    1.0       14.9929554604       14.9363110163       20.7688234907
O    8.0       16.3224968299       16.4711850625       21.3515319381
C    6.0       16.5885748178       14.1951618904       22.0825476704
H    1.0       16.4592567544       13.1574371220       21.7485217317
O    8.0       15.8481954218       14.3958200292       23.2975371800
H    1.0       15.7626611147       15.3737625319       23.4329922407
C    6.0       18.1005203389       14.4350353856       22.3264808327
H    1.0       18.2232954582       15.4403948312       22.7533804554
O    8.0       18.5718388895       13.4516701319       23.2540458641
H    1.0       17.8643868456       13.3894333792       23.9357880982
C    6.0       18.9134299353       14.3689643082       21.0029204614
H    1.0       19.0212955649       13.3190777808       20.7026497250
C    6.0       18.2383631155       15.1557686979       19.8456706972
H    1.0       18.3400361916       16.2273207342       20.0560980820
O    8.0       16.8307910040       14.8271811066       19.7685184159
C    6.0       18.8832438201       14.8957024647       18.4607742810
H    1.0       19.8728204154       15.3704297662       18.4368538290
H    1.0       18.2699913873       15.3878800666       17.6944608941
O    8.0       19.0153065946       13.5001264257       18.1635039861
H    1.0       19.7632468067       13.1551019967       18.6965931504
C    6.0       14.7408274939       20.2468741617       21.6543486405
H    1.0       14.1201370557       21.1491437317       21.7311547863
O    8.0       16.1375096845       20.5758081684       21.5339359183
C    6.0       14.5593440522       19.3773087858       22.9206570229
H    1.0       13.5049675604       19.0759770943       22.9711925706
O    8.0       14.8975598612       20.1320177543       24.0947017725
H    1.0       15.5072560370       20.8499390061       23.7997615576
C    6.0       15.4222556149       18.0985755128       22.8310375257
H    1.0       16.4760446609       18.3994893322       22.8702832167
O    8.0       15.1278418173       17.2401850686       23.9380539179
H    1.0       15.1425615548       17.8295622839       24.7248824829
C    6.0       15.1878043227       17.3417929242       21.5014137600
H    1.0       14.2426261992       16.7879108307       21.5747394843
C    6.0       15.1725002747       18.2780443275       20.2602106091
H    1.0       16.2079797908       18.5849285954       20.0729963448
O    8.0       14.3653497792       19.4597078703       20.5049661668
C    6.0       14.6579667777       17.5908111766       18.9730355671
H    1.0       15.4062290187       16.8563838669       18.6461393443
H    1.0       14.5756137896       18.3460783850       18.1798845396
O    8.0       13.3966190655       16.9419852240       19.1768921549
H    1.0       13.1058921063       16.5779287342       18.3124558490
C    6.0       18.6450027823       23.7592409486       20.5699114788
H    1.0       19.0796415435       24.6852834032       20.1723443115
O    8.0       19.6581725430       22.8960140093       21.1246671480
C    6.0       17.5752948728       24.0610744482       21.6554009778
H    1.0       16.7809975501       24.6435923544       21.1708627218
O    8.0       18.1144699203       24.8301081519       22.7407770988
H    1.0       18.8439116649       24.2928229261       23.1427014623
C    6.0       16.9464481291       22.7458807614       22.1780761623
H    1.0       17.7251015600       22.1796007256       22.7058952177
O    8.0       15.8737583889       23.0463732286       23.0770477364
H    1.0       16.2209089302       23.7542862087       23.6640840037
C    6.0       16.4250928167       21.8812727795       21.0031272693
H    1.0       15.5300539368       22.3619822612       20.5868254221
C    6.0       17.4824883179       21.7195822514       19.8761675847
H    1.0       18.3056749480       21.1073911815       20.2629409328
O    8.0       17.9858424015       23.0290734272       19.5113594144
C    6.0       16.9639867135       21.0174320625       18.5936912736
H    1.0       17.1419138638       19.9403211205       18.6904443265
H    1.0       17.5671876876       21.3579061043       17.7415163178
O    8.0       15.5734716910       21.2527038914       18.3371162411
H    1.0       15.0625631858       20.7533854854       19.0162027130
C    6.0       23.6230779566       22.7416452174       22.3022929543
H    1.0       24.6513802935       22.9497797010       22.6243765503
O    8.0       23.4369330382       21.3376345421       22.0325190744
C    6.0       22.6305745815       23.1822775898       23.4078641576
H    1.0       22.7198001297       24.2716150154       23.5078850778
O    8.0       22.9679708725       22.5786682087       24.6665309736
H    1.0       22.2403490803       21.9464001672       24.9010720304
C    6.0       21.1788638967       22.8638968410       22.9747347646
H    1.0       21.0897491251       21.7771730953       22.8512425238
O    8.0       20.2470725752       23.3136915668       23.9657742994
H    1.0       20.2969322042       22.6350821928       24.6896663405
C    6.0       20.8633363151       23.5203240062       21.6094791136
H    1.0       20.7413137640       24.6021279429       21.7533799427
C    6.0       21.9711857473       23.2356260826       20.5563429730
H    1.0       21.8865924193       22.1763860247       20.2846666541
O    8.0       23.2962178408       23.4792268202       21.1033376608
C    6.0       21.8178523850       24.0615191417       19.2566966527
H    1.0       20.9426917472       23.6882104960       18.7076576932
H    1.0       22.6980729022       23.8885897679       18.6231344741
O    8.0       21.6643393997       25.4608575221       19.5235348719
H    1.0       21.6563624590       25.9301817099       18.6610100401
C    6.0       25.0808346238       17.8170174445       20.7305200546
H    1.0       25.6629590493       16.9839967474       20.3163138718
O    8.0       23.7091791820       17.4313168877       20.9711636202
C    6.0       25.7293565350       18.3625131354       22.0287878868
H    1.0       26.7165093093       18.7535230609       21.7497445678
O    8.0       25.9057037304       17.3386888738       23.0190158664
H    1.0       24.9979795539       17.0548346595       23.2953840043
C    6.0       24.9029548103       19.5387110901       22.6021260841
H    1.0       23.9498250801       19.1367217788       22.9726330277
O    8.0       25.6354804567       20.1283849394       23.6810316656
H    1.0       25.8924659833       19.3797958112       24.2619797214
C    6.0       24.5839169569       20.6191377252       21.5320708119
H    1.0       25.4647782439       21.2651380215       21.4267374130
C    6.0       24.1970079552       20.0238007570       20.1437336900
H    1.0       23.1714427802       19.6502381067       20.2258513847
O    8.0       25.0737090354       18.9210949353       19.8031301669
C    6.0       24.2131690012       21.0216998029       18.9541238081
H    1.0       23.1941745985       21.3880757009       18.7879076254
H    1.0       24.4921538007       20.4730238663       18.0445447205
O    8.0       25.1009339276       22.1299418980       19.1420670748
H    1.0       24.6782248950       22.7285317138       19.8019835761
C    6.0       21.2522656815       14.1343384675       21.6966404261
H    1.0       20.8749507986       13.1316977058       21.9353146150
O    8.0       20.1978320327       14.9913632098       21.2161590793
C    6.0       21.9070385661       14.7696315082       22.9518971784
H    1.0       22.7222141723       14.1012755947       23.2583603132
O    8.0       20.9763135319       14.8965389252       24.0385762481
H    1.0       20.1756801429       14.3696624217       23.8005949491
C    6.0       22.5212383634       16.1491632509       22.6264835613
H    1.0       21.7004786485       16.8366659370       22.3850258538
O    8.0       23.2292825140       16.6133896178       23.7803278317
H    1.0       22.5995475184       16.4751987197       24.5236745664
C    6.0       23.4652969585       16.0755077955       21.4010751534
H    1.0       24.3911615497       15.5644977668       21.6959841241
C    6.0       22.8064927460       15.3211365754       20.2128056309
H    1.0       21.9943089600       15.9465668015       19.8216614923
O    8.0       22.2593833568       14.0547518157       20.6646358745
C    6.0       23.7789497573       15.0463637731       19.0411530711
H    1.0       24.0007341352       16.0003963912       18.5437858214
H    1.0       23.2708594214       14.4063468240       18.3074804192
O    8.0       24.9975807961       14.4324975221       19.4803985427
H    1.0       25.5272168665       14.2172432873       18.6819916237
C    6.0       20.5786332635       19.7741660108       25.3605433415
O    8.0       20.7916442572       20.9716224777       25.4057966895
O    8.0       20.3465546664       19.0925780793       26.3393828260
C    6.0       20.5834911014       19.0960529361       23.9936680474
H    1.0       20.6714120325       18.0157476118       24.1551643140
H    1.0       21.4829146515       19.4225416944       23.4600320423
C    6.0       19.3086397335       19.3996435365       23.1657895547
H    1.0       18.4334660182       19.1205333751       23.7665308067
H    1.0       19.2281367522       20.4790455168       22.9910581129
C    6.0       19.2510933464       18.6497092858       21.8149202462
H    1.0       18.2636893507       18.8189444790       21.3688812601
H    1.0       19.3298700573       17.5690244316       21.9912413792
C    6.0       20.3375697087       19.0971507318       20.8099469471
H    1.0       20.3307364399       20.1903171739       20.7172868799
H    1.0       21.3274771565       18.8176289625       21.1882265891
C    6.0       20.1109441259       18.4530806869       19.4263099723
H    1.0       19.0941583414       18.6749143247       19.0787035728
H    1.0       20.1870808064       17.3656810831       19.5239823320
C    6.0       21.1219223478       18.9304425068       18.3671516207
H    1.0       21.1359489443       20.0256684860       18.3007392264
H    1.0       20.8564739867       18.5342602005       17.3787747473
H    1.0       22.1322782759       18.5763002490       18.6039798369
 $end
$$$$
! Edit this basic GAMESS input file as needed.
! Conformer was generated by a VeraChem VCPack run 
! and contains    148 atoms.
!
 $contrl scftyp=rhf runtyp=optimize nzvar=0
  maxit=200 icharg=0 $end
 $system mwords=50 $end
 $basis gbasis=pm3 $end
 $statpt nstep=200 $end
 $guess guess=huckel $end
 $data
FE Rank=3      G=507.690           E=313.656           -TS=194.034              
C1
C    6.0       16.3456415942       15.2029461685       20.7206688603
H    1.0       15.3109375432       15.0595509468       20.3840418518
O    8.0       16.6381105059       16.6001154154       20.9360140539
C    6.0       16.6324394200       14.3936856776       22.0165533956
H    1.0       16.4947562089       13.3334315659       21.7675853493
O    8.0       15.7312145254       14.7335992245       23.0799741163
H    1.0       15.8880709219       15.6877477489       23.2951127173
C    6.0       18.1032347037       14.5857798407       22.4610142448
H    1.0       18.2436362288       15.6382302128       22.7437704903
O    8.0       18.3855939669       13.7407831353       23.5819342977
H    1.0       17.6188581860       13.8511116082       24.1868987793
C    6.0       19.0732399406       14.2557964514       21.2996503074
H    1.0       19.0722159520       13.1687091047       21.1467654569
C    6.0       18.6689564842       14.9617440938       19.9751239978
H    1.0       18.8330410886       16.0380728048       20.1011740888
O    8.0       17.2629909169       14.7183463331       19.7138331644
C    6.0       19.4832519210       14.5254514740       18.7284362284
H    1.0       20.3563736895       15.1811956930       18.6334798440
H    1.0       18.8673876619       14.6916125079       17.8345668510
O    8.0       19.9184729297       13.1615480128       18.7794632132
H    1.0       20.7006826197       13.1339048133       19.3779486424
C    6.0       14.9393453866       20.3406988980       21.5513795154
H    1.0       14.2694368550       21.1832192380       21.7656782891
O    8.0       16.1958509426       20.7906217651       21.0066881657
C    6.0       15.1982925378       19.5178702461       22.8404561094
H    1.0       14.2229215416       19.1498031457       23.1844559989
O    8.0       15.7883589813       20.3141393014       23.8803321273
H    1.0       15.6945283099       21.2604205557       23.6146682576
C    6.0       16.0932838011       18.2925587822       22.5491151170
H    1.0       17.0922909600       18.6595282041       22.2794410234
O    8.0       16.1656588844       17.4934582060       23.7337684776
H    1.0       16.3489528867       18.1404267839       24.4519054877
C    6.0       15.5546350803       17.4511733330       21.3656582036
H    1.0       14.6880255674       16.8716744761       21.7102094994
C    6.0       15.1510386688       18.3364838118       20.1518859924
H    1.0       16.0691896492       18.7249085687       19.6930632264
O    8.0       14.3325663671       19.4532992229       20.5874126865
C    6.0       14.3832789888       17.5630766226       19.0534151825
H    1.0       15.0858899582       16.8838865259       18.5517169154
H    1.0       14.0306854586       18.2814254748       18.3012584223
O    8.0       13.2815086674       16.8161010108       19.5851412038
H    1.0       12.7979100493       16.4190763027       18.8281881409
C    6.0       18.5151106415       24.1791333559       20.6573067903
H    1.0       18.9835304172       25.1492917492       20.4472963636
O    8.0       19.4879223527       23.1934152362       21.0656705959
C    6.0       17.4096533192       24.3025968252       21.7374387602
H    1.0       16.6148357573       24.9278839534       21.3100064615
O    8.0       17.8887430914       24.9317734252       22.9342427666
H    1.0       18.6119467487       24.3583613182       23.2938240487
C    6.0       16.7997719759       22.9120991994       22.0458750923
H    1.0       17.5779272497       22.2907353663       22.5114326349
O    8.0       15.7040036992       23.0816776410       22.9518430650
H    1.0       16.0084950397       23.7648069615       23.5919828093
C    6.0       16.3233561605       22.2039680611       20.7453739230
H    1.0       15.3667627575       22.6404233053       20.4320013859
C    6.0       17.3425089515       22.3280931352       19.5766362970
H    1.0       18.1795452333       21.6548974598       19.7891184180
O    8.0       17.8559517354       23.6797890337       19.4749103354
C    6.0       16.7652020694       21.9051999975       18.2032980412
H    1.0       16.6138151201       20.8173274814       18.2076683547
H    1.0       17.5135312536       22.1248041535       17.4303557936
O    8.0       15.5307659736       22.5639315029       17.8933677543
H    1.0       14.8277320781       22.1443648014       18.4338972482
C    6.0       23.3230716856       22.5173543245       22.4023347332
H    1.0       24.3447875875       22.5667030767       22.7996254532
O    8.0       23.0328257630       21.2089084638       21.8704136498
C    6.0       22.3094649909       22.8491864172       23.5264020036
H    1.0       22.5040630216       23.8807000841       23.8468433798
O    8.0       22.5128944539       21.9711919232       24.6451899710
H    1.0       21.6290975403       21.7423295256       25.0294771115
C    6.0       20.8562537423       22.7914914389       22.9914338749
H    1.0       20.6254503437       21.7521610976       22.7265235271
O    8.0       19.9434456655       23.2554393220       23.9941540009
H    1.0       19.8835356410       22.5373951685       24.6776828664
C    6.0       20.6882474169       23.6567574542       21.7156070945
H    1.0       20.6202782493       24.7132586529       22.0071342995
C    6.0       21.8397517510       23.4551480708       20.6908622684
H    1.0       21.6897252185       22.4727193399       20.2308414808
O    8.0       23.1387628964       23.4774521066       21.3386862496
C    6.0       21.8380899077       24.4985588673       19.5482883204
H    1.0       20.9680438786       24.3084104892       18.9051820921
H    1.0       22.7360166589       24.3494680650       18.9337219239
O    8.0       21.7906343498       25.8419298448       20.0447136540
H    1.0       21.8676443136       26.4471195861       19.2750965609
C    6.0       24.8796817408       17.6755425847       20.7517041428
H    1.0       25.5160347727       16.8849034134       20.3336993771
O    8.0       23.6304473239       17.1500371006       21.2407696771
C    6.0       25.5911887592       18.4129301759       21.9135367877
H    1.0       26.4971831870       18.8702866057       21.4950620944
O    8.0       25.9713025218       17.5039631309       22.9586835633
H    1.0       25.1514011705       17.0282746938       23.2474877358
C    6.0       24.7047867716       19.5533459393       22.4776783797
H    1.0       23.8480038235       19.1028452580       22.9983435701
O    8.0       25.4920969732       20.3188403722       23.3957169114
H    1.0       25.8843125002       19.6620644138       24.0113570106
C    6.0       24.1572463871       20.4724053918       21.3498522208
H    1.0       24.9649366945       21.1422486195       21.0287517010
C    6.0       23.6295247848       19.6798157284       20.1205927541
H    1.0       22.6875060276       19.1935655670       20.4049180126
O    8.0       24.5891947265       18.6642637125       19.7405383911
C    6.0       23.3246509197       20.5601824082       18.8795571102
H    1.0       22.2819834389       20.8942643980       18.9413225710
H    1.0       23.3996067578       19.9346818572       17.9800920065
O    8.0       24.1880940655       21.6986677619       18.7587565462
H    1.0       24.0155286296       22.2813561753       19.5324989449
C    6.0       21.4043524227       13.7602015805       21.8470514020
H    1.0       20.9906260696       12.7554982403       22.0021801098
O    8.0       20.3663040491       14.7472653620       21.6928160144
C    6.0       22.2627716266       14.1682937250       23.0657938104
H    1.0       23.0997039804       13.4616971994       23.1389126278
O    8.0       21.4782368482       14.1078611547       24.2676684291
H    1.0       20.5438532647       14.2959558657       24.0064475490
C    6.0       22.8441723245       15.5868739490       22.8680044458
H    1.0       22.0072743372       16.2942976723       22.8869938284
O    8.0       23.7475591970       15.8821204492       23.9377414625
H    1.0       23.2637433764       15.6248119040       24.7541785952
C    6.0       23.5647550573       15.7347398889       21.5034966383
H    1.0       24.5613457718       15.2799531065       21.5794772486
C    6.0       22.7691635644       15.1035976667       20.3242039152
H    1.0       21.9270693630       15.7701447586       20.1086320597
O    8.0       22.2468643523       13.7960672737       20.6768820320