$$$$
! Edit this basic GAMESS input file as needed.
! Conformer was generated by a VeraChem VCPack run 
! and contains    151 atoms.
!
 $contrl scftyp=rhf runtyp=optimize nzvar=0
  maxit=200 icharg=0 $end
 $system mwords=50 $end
 $basis gbasis=pm3 $end
 $statpt nstep=200 $end
 $guess guess=huckel $end
 $data
FE Rank=1      G=514.375           E=317.646           -TS=196.729              
C1
C    6.0       16.2858118941       15.2989489719       20.5831692011
H    1.0       15.2387030393       15.2021220429       20.2693301321
O    8.0       16.6120508909       16.6697339015       20.9011617366
C    6.0       16.6011433869       14.3659009640       21.7884303030
H    1.0       16.4408149297       13.3365262368       21.4423158244
O    8.0       15.7421072464       14.6062076434       22.9123686510
H    1.0       15.9668623446       15.5088306279       23.2528011944
C    6.0       18.0867422377       14.4961544741       22.2025869704
H    1.0       18.2523268101       15.5144100486       22.5786720702
O    8.0       18.3897507247       13.5432068272       23.2270209114
H    1.0       17.6379127983       13.5961011151       23.8581286291
C    6.0       19.0169432519       14.2736757058       20.9867819262
H    1.0       18.9980058736       13.2079928515       20.7238348979
C    6.0       18.5815651664       15.1153363268       19.7571114247
H    1.0       18.7431616385       16.1706266109       19.9992613725
O    8.0       17.1681150699       14.8982109054       19.5075212660
C    6.0       19.3836924335       14.8360929623       18.4598165565
H    1.0       20.2688285449       15.4856693282       18.4549015933
H    1.0       18.7687163684       15.1292707957       17.5985915027
O    8.0       19.7973982332       13.4710160406       18.3308309476
H    1.0       20.6186579718       13.3731273366       18.8647957006
C    6.0       15.1960585728       20.3377240032       22.1328812417
H    1.0       14.6300896025       21.1860320968       22.5369167203
O    8.0       16.3617259409       20.7808347571       21.4066497789
C    6.0       15.6341886182       19.4042432104       23.2917509572
H    1.0       14.7211713039       19.0534102813       23.7896803438
O    8.0       16.4322119321       20.1374421010       24.2370110622
H    1.0       16.9322433122       19.4963633592       24.8027897414
C    6.0       16.3856312789       18.1597719376       22.7563826149
H    1.0       17.3577669023       18.4901319074       22.3713919193
O    8.0       16.5651942592       17.2073503028       23.8141913897
H    1.0       17.1792435827       17.6138932362       24.4791275213
C    6.0       15.6293147740       17.4711741725       21.5893231298
H    1.0       14.8126070684       16.8650583178       22.0016987167
C    6.0       15.0595692430       18.4777586844       20.5519754322
H    1.0       15.9044860824       18.8760281577       19.9768133368
O    8.0       14.3804400706       19.5694404741       21.2229016019
C    6.0       14.0817171270       17.8377713574       19.5376032342
H    1.0       14.6575236942       17.1948761678       18.8582624244
H    1.0       13.6357411935       18.6365885850       18.9300560091
O    8.0       13.0570108101       17.0696135481       20.1807286876
H    1.0       12.4329871800       16.7641460171       19.4866431989
C    6.0       18.4647967280       24.0646518653       20.3336564392
H    1.0       18.9403936894       24.9775461030       19.9527370626
O    8.0       19.4412347747       23.1212330478       20.8273817945
C    6.0       17.4303685914       24.3850585271       21.4400419421
H    1.0       16.6249900980       24.9604545872       20.9649791682
O    8.0       17.9977297711       25.1763862376       22.4941765857
H    1.0       18.6895198757       24.6172180078       22.9294223150
C    6.0       16.8100031552       23.0811852829       22.0003014695
H    1.0       17.5844061466       22.5543386613       22.5760459472
O    8.0       15.7213451513       23.4338284006       22.8607353991
H    1.0       16.0881131318       24.0964068020       23.4858183592
C    6.0       16.3132798503       22.1219956326       20.8773457187
H    1.0       15.2903204111       22.4038888489       20.5997372715
C    6.0       17.2069216457       22.1050781213       19.5996627209
H    1.0       18.0616448162       21.4500057376       19.7973272318
O    8.0       17.7149298287       23.4237471720       19.2834497208
C    6.0       16.4966714702       21.5370743858       18.3455026552
H    1.0       16.3795218421       20.4530351108       18.4680856089
H    1.0       17.1523773962       21.6920644631       17.4783535314
O    8.0       15.2193715951       22.1404342842       18.1035928089
H    1.0       14.5920346908       21.7903351189       18.7715024277
C    6.0       23.3195341165       22.6602092381       22.1838627677
H    1.0       24.3455330982       22.7899519616       22.5522791848
O    8.0       23.0409593080       21.2847723738       21.8672730455
C    6.0       22.3133418844       23.1154345778       23.2651102953
H    1.0       22.4960323102       24.1805560013       23.4580748608
O    8.0       22.5093646504       22.3744728284       24.4801410334
H    1.0       23.0504066014       21.5810894942       24.2476941405
C    6.0       20.8590885720       22.9630852176       22.7632975798
H    1.0       20.6450268871       21.8932195169       22.6434611754
O    8.0       19.9794115415       23.5241053840       23.7415938364
H    1.0       20.2723892430       23.1293680933       24.5937597502
C    6.0       20.6586131979       23.6515037823       21.3876266336
H    1.0       20.6069865081       24.7382701680       21.5359835118
C    6.0       21.7911351311       23.3032830115       20.3794210429
H    1.0       21.6530508614       22.2588476464       20.0758351216
O    8.0       23.0985040398       23.4462452833       20.9938515299
C    6.0       21.7552052136       24.1587250224       19.0909343451
H    1.0       20.8777698796       23.8610715320       18.5007073536
H    1.0       22.6456051591       23.9275922124       18.4908238176
O    8.0       21.6954709278       25.5617063248       19.3766218314
H    1.0       21.7524560283       26.0426626634       18.5223619730
C    6.0       25.0258987849       17.6534584827       21.3636973636
H    1.0       25.7622516969       16.8685574208       21.1488630184
O    8.0       23.7112091056       17.1126343526       21.5916263601
C    6.0       25.4180940782       18.4523376272       22.6348626365
H    1.0       26.3896202747       18.9246985287       22.4399444569
O    8.0       25.5378106064       17.5875491079       23.7752961370
H    1.0       24.7722989654       16.9584917494       23.7518036027
C    6.0       24.3871284892       19.5767896531       22.9101663352
H    1.0       23.4226872720       19.1113383181       23.1579298119
O    8.0       24.8319327492       20.3813075024       24.0069807972
H    1.0       25.1379082303       19.7387107356       24.6855799273
C    6.0       24.1938343406       20.4548271890       21.6494398972
H    1.0       25.1035515132       21.0482176043       21.4885679983
C    6.0       23.9181260857       19.6021818854       20.3841207804
H    1.0       22.9447335758       19.1166635982       20.5105361605
O    8.0       24.9452616160       18.5878862230       20.2629423033
C    6.0       23.8510437783       20.4153406546       19.0653893477
H    1.0       22.8164608439       20.7450946476       18.9179448432
H    1.0       24.0925254291       19.7476702911       18.2277609177
O    8.0       24.7188446002       21.5562150580       19.0564968438
H    1.0       24.3375500783       22.2164946382       19.6801525634
C    6.0       21.3670504389       13.7235773201       21.3609836982
H    1.0       20.9627267802       12.7067826252       21.2777880765
O    8.0       20.3248656792       14.7159193091       21.3867806522
C    6.0       22.1811192407       13.8604382476       22.6692716434
H    1.0       23.0176639471       13.1515187393       22.6173180164
O    8.0       21.3644647117       13.5494489082       23.8098268413
H    1.0       20.4309207605       13.7759088280       23.5702732470
C    6.0       22.7662955068       15.2848005340       22.7947948930
H    1.0       21.9299971464       15.9854423388       22.9155633835
O    8.0       23.6179714797       15.3482955007       23.9427616925
H    1.0       23.1106471023       14.9013634560       24.6567914445
C    6.0       23.5537263931       15.6847006978       21.5226109833
H    1.0       24.5177046710       15.1592980334       21.5254118857
C    6.0       22.7731187171       15.3694540690       20.2138923614
H    1.0       21.9414820116       16.0821207655       20.1369188656
O    8.0       22.2382498137       14.0196513028       20.2495413186
C    6.0       23.6294035648       15.5251056625       18.9350262328
H    1.0       23.8347247256       16.5930943080       18.7815852687
H    1.0       23.0413876592       15.1791246728       18.0744652412
O    8.0       24.8628859128       14.8002554391       19.0207106610
H    1.0       25.3325674967       14.9099026963       18.1655452308
C    6.0       19.4651685544       18.4219359675       25.5739905616
O    8.0       20.2120879412       18.7406839284       26.4775700153
O    8.0       18.2501617481       18.4818623734       25.6371799348
C    6.0       20.0743669458       17.9085271462       24.2743482653
H    1.0       19.4939393311       17.0307782905       23.9691312307
H    1.0       21.0964512343       17.5663495976       24.4743324231
C    6.0       20.0764361900       18.9747652107       23.1508838787
H    1.0       19.1298908077       19.5307544796       23.1744844882
H    1.0       20.8696634698       19.7079863711       23.3471060948
C    6.0       20.2693847306       18.3434666809       21.7558039346
H    1.0       19.5653700190       17.5119667697       21.6299606288
H    1.0       21.2772256934       17.9233592840       21.6831919776
C    6.0       20.0396748008       19.3716561438       20.6308553428
H    1.0       19.0041040254       19.7266712599       20.6910834713
H    1.0       20.6869901614       20.2420631128       20.7930717156
C    6.0       20.3027892132       18.7804089222       19.2288934201
H    1.0       19.6411897601       17.9239857873       19.0599030879
H    1.0       21.3303099660       18.4014479459       19.1715445460
C    6.0       20.0669118384       19.8166519142       18.1119452967
H    1.0       19.0035400197       20.0821455545       18.0809613801
H    1.0       20.6174146463       20.7412178598       18.3276037291
C    6.0       20.4947123997       19.2703918387       16.7359394447
H    1.0       19.9339721230       18.3609800345       16.4836940731
H    1.0       20.3075744881       20.0134168307       15.9500835990
H    1.0       21.5651928317       19.0277057843       16.7250229249
 $end
$$$$
! Edit this basic GAMESS input file as needed.
! Conformer was generated by a VeraChem VCPack run 
! and contains    151 atoms.
!
 $contrl scftyp=rhf runtyp=optimize nzvar=0
  maxit=200 icharg=0 $end
 $system mwords=50 $end
 $basis gbasis=pm3 $end
 $statpt nstep=200 $end
 $guess guess=huckel $end
 $data
FE Rank=2      G=515.041           E=316.645           -TS=198.396              
C1
C    6.0       16.1331240810       14.9840049286       20.8059560902
H    1.0       15.0726320105       14.8433445284       20.5612600908
O    8.0       16.4369367681       16.3556768266       21.1343843634
C    6.0       16.5358928310       14.1148470828       22.0227196948
H    1.0       16.3923724764       13.0634525158       21.7416585574
O    8.0       15.7191419349       14.4136327630       23.1659355845
H    1.0       15.6197943753       15.3988496138       23.2095068091
C    6.0       18.0331737812       14.3228374347       22.3540244960
H    1.0       18.1663433775       15.3592381516       22.6930129319
O    8.0       18.4264437092       13.4224766560       23.3949256409
H    1.0       17.7093089499       13.4807287753       24.0649659472
C    6.0       18.9243555586       14.1043288022       21.1056219789
H    1.0       18.9965260857       13.0256256576       20.9168958248
C    6.0       18.3790723852       14.8312885467       19.8419430420
H    1.0       18.5270991560       15.9086035727       19.9716275192
O    8.0       16.9611252337       14.5780599020       19.6949062360
C    6.0       19.0902263426       14.4382106422       18.5240230229
H    1.0       20.0888050819       14.8944820768       18.5117379510
H    1.0       18.5285505956       14.8733145182       17.6868123649
O    8.0       19.2007450022       13.0198723625       18.3543110762
H    1.0       20.0240971996       12.7319596199       18.8016995347
C    6.0       14.8701451396       20.1988161670       21.1016012952
H    1.0       14.2305405462       21.0864374828       21.0174909417
O    8.0       16.2640346626       20.5624964714       21.2046947884
C    6.0       14.4590786271       19.3320125271       22.3227677351
H    1.0       13.4300334841       18.9944481940       22.1431392373
O    8.0       14.4880749167       20.0753563102       23.5499033479
H    1.0       15.4219412593       20.3796429316       23.6824642438
C    6.0       15.3562770908       18.0749075160       22.4190368381
H    1.0       16.3851547894       18.3988938581       22.6252588380
O    8.0       14.8886682623       17.2362487863       23.4805415540
H    1.0       14.7246362396       17.8464023650       24.2338144177
C    6.0       15.3435541745       17.2907001137       21.0831636371
H    1.0       14.3730404550       16.7860916900       20.9895819457
C    6.0       15.5765565565       18.2109247670       19.8533529643
H    1.0       16.6226555778       18.5399022646       19.8673931713
O    8.0       14.7143189889       19.3739768830       19.9273672860
C    6.0       15.3307368520       17.5020582850       18.5001351090
H    1.0       16.1351633580       16.7719104442       18.3392527838
H    1.0       15.4014262674       18.2470028733       17.6963933007
O    8.0       14.0590244168       16.8412974073       18.4586605537
H    1.0       13.9605196448       16.4424791220       17.5668941770
C    6.0       18.7232067792       23.8314041677       21.9562463247
H    1.0       19.1377609926       24.8018078062       22.2543189131
O    8.0       19.6542093394       23.0800637330       21.1466578677
C    6.0       18.3425404353       23.0025387123       23.2134865679
H    1.0       17.5869037836       23.5769004540       23.7645019775
O    8.0       19.4952110586       22.8294129157       24.0513120473
H    1.0       19.3177910610       22.1236455605       24.7234548113
C    6.0       17.7027008467       21.6467131010       22.8142437103
H    1.0       18.4737788717       21.0249932498       22.3426609923
O    8.0       17.1698314372       20.9937460109       23.9751511700
H    1.0       17.9276115509       20.7854655703       24.5822414682
C    6.0       16.5508410207       21.8493409168       21.7938951172
H    1.0       15.6827533096       22.2513074398       22.3331741779
C    6.0       16.9313229741       22.8147563520       20.6370590398
H    1.0       17.6599822840       22.3046049726       19.9931932763
O    8.0       17.5256253974       24.0226085513       21.1742319343
C    6.0       15.7338641527       23.2188838443       19.7432846208
H    1.0       15.4337414725       22.3459263904       19.1479068486
H    1.0       16.0689443123       23.9927973227       19.0398360977
O    8.0       14.6184169001       23.6916803376       20.5096350308
H    1.0       13.9361997332       24.0083539009       19.8782079990
C    6.0       23.6633718733       22.7883228380       20.5022756185
H    1.0       24.7225524248       22.8219383678       20.2168046347
O    8.0       23.2870934658       21.4865226768       20.9965831495
C    6.0       23.3344940576       23.8623906980       21.5665155457
H    1.0       23.5125768655       24.8386391463       21.0970333613
O    8.0       24.1811128353       23.7449985570       22.7204643583
H    1.0       23.9742736896       22.8715960908       23.1412873011
C    6.0       21.8411425908       23.8013354556       21.9743704268
H    1.0       21.6893562520       22.8915755139       22.5726364337
O    8.0       21.5540268054       24.9644696081       22.7595656036
H    1.0       22.1701723041       24.9221448954       23.5221865660
C    6.0       20.8777977131       23.7378188060       20.7494088409
H    1.0       20.6790290294       24.7598804905       20.4049624058
C    6.0       21.4153633732       22.8904030703       19.5585250142
H    1.0       21.2434834953       21.8330409752       19.7929894991
O    8.0       22.8356362601       23.0909663677       19.3624660428
C    6.0       20.6844598248       23.1696591893       18.2223913075
H    1.0       19.6525794262       22.8023669005       18.3051959110
H    1.0       21.1740532838       22.5849212969       17.4324017647
O    8.0       20.6803419036       24.5590978094       17.8698640187
H    1.0       20.0445338692       25.0154322175       18.4609448220
C    6.0       24.7365356581       17.8872003675       22.3803750789
H    1.0       25.3235358160       17.0488607528       22.7776516503
O    8.0       23.4461276586       17.4541432969       21.9097975585
C    6.0       24.5182758749       18.9482253075       23.4853653020
H    1.0       25.5045157231       19.3280980048       23.7810646456
O    8.0       23.8907698564       18.3396755200       24.6235637449
H    1.0       23.4607868900       17.5119424953       24.3049403385
C    6.0       23.6936421055       20.1432844878       22.9427727702
H    1.0       22.6844584178       19.7921437430       22.7059320653
O    8.0       23.6126274523       21.1788365203       23.9296509693
H    1.0       22.9559328014       20.8559075659       24.6077439715
C    6.0       24.3131588707       20.7018369220       21.6344499187
H    1.0       25.1965375430       21.3021748311       21.8892059942
C    6.0       24.6979188628       19.5860307770       20.6204104841
H    1.0       23.7658571571       19.1859371580       20.2027581152
O    8.0       25.4208364399       18.5127992012       21.2759174934
C    6.0       25.5467224029       20.0927119152       19.4300176819
H    1.0       24.9075332612       20.7103432028       18.7845721715
H    1.0       25.8693993561       19.2271956545       18.8357631947
O    8.0       26.6821725438       20.8532711050       19.8611028835
H    1.0       27.2157124151       21.0695463692       19.0655230534
C    6.0       21.3722474513       13.8872476974       21.2169323995
H    1.0       21.1205925593       12.8497654268       20.9644245884
O    8.0       20.1967324120       14.6875107266       21.4348612526
C    6.0       22.1995118329       13.9356038301       22.5273766942
H    1.0       23.1146703364       13.3521733278       22.3627697512
O    8.0       21.4607179788       13.3583987882       23.6162907258
H    1.0       20.5102465340       13.6059163988       23.4892149686
C    6.0       22.6134655398       15.3897880549       22.8637529275
H    1.0       21.7050979135       15.9627942888       23.0953968804
O    8.0       23.4859404076       15.3850921961       23.9970439884
H    1.0       23.0676170709       14.7666591124       24.6369309559
C    6.0       23.3100571520       16.0479098172       21.6467019777
H    1.0       24.2848783855       15.5678232626       21.4887868867
C    6.0       22.4604900472       15.9002460409       20.3573605649
H    1.0       21.5300713780       16.4635663669       20.4935384811
O    8.0       22.1478938907       14.4984098492       20.1606288386
C    6.0       23.1390662085       16.4575460408       19.0793056276
H    1.0       22.8773372118       17.5190445027       18.9875019224
H    1.0       22.7133753208       15.9493775620       18.2039679621
O    8.0       24.5657709932       16.3170666382       19.0897114258
H    1.0       24.9124220545       16.9140620209       19.7919886454
C    6.0       20.2864335005       19.9573822355       25.6254549505
O    8.0       19.2739026198       20.6191949379       25.7663638944
O    8.0       21.4027778543       20.4371032697       25.5767213474
C    6.0       20.1282791018       18.4577740761       25.3822765829
H    1.0       19.5733085880       18.0402643188       26.2297895629
H    1.0       21.1248138536       18.0004886433       25.3957486898
C    6.0       19.4029841917       18.1085394793       24.0558202768
H    1.0       19.3202653970       17.0178122912       23.9650290586
H    1.0       18.3797066032       18.5047479386       24.0798224771
C    6.0       20.1556497438       18.6738840320       22.8350791126
H    1.0       21.1720007029       18.2687883114       22.8373089327
H    1.0       20.2484674314       19.7644172796       22.9245096210
C    6.0       19.4813764440       18.3224890695       21.4971476660
H    1.0       19.5142131558       17.2373241736       21.3670089357
H    1.0       18.4240858947       18.6140322027       21.5187632697
C    6.0       20.1852006893       19.0300309670       20.3199280128
H    1.0       21.2732894695       18.9199426740       20.4176957752
H    1.0       19.9691592490       20.1042680231       20.3797166482
C    6.0       19.7358617709       18.4846290316       18.9492168906
H    1.0       19.9883051805       17.4197714517       18.8745351872
H    1.0       18.6457702780       18.5641500129       18.8553026616
C    6.0       20.4038720372       19.2478830812       17.7892922073
H    1.0       21.4978455633       19.2047380740       17.8638683937
H    1.0       20.1106369307       18.8171279941       16.8233925507
H    1.0       20.1013029768       20.3017030651       17.7941928235
 $end
$$$$
! Edit this basic GAMESS input file as needed.
! Conformer was generated by a VeraChem VCPack run 
! and contains    151 atoms.
!
 $contrl scftyp=rhf runtyp=optimize nzvar=0
  maxit=200 icharg=0 $end
 $system mwords=50 $end
 $basis gbasis=pm3 $end
 $statpt nstep=200 $end
 $guess guess=huckel $end
 $data
FE Rank=3      G=515.604           E=316.897           -TS=198.707              
C1
C    6.0       16.2503720959       15.2883352152       20.6644505983
H    1.0       15.2395727825       15.1423242606       20.2622973875
O    8.0       16.4624867905       16.6515387548       21.0884078244
C    6.0       16.5180882415       14.3453856102       21.8659921117
H    1.0       16.4544001687       13.3142307936       21.4958734571
O    8.0       15.5253439259       14.5314111449       22.8868199479
H    1.0       15.6091354657       15.4628746327       23.2100955668
C    6.0       17.9591215724       14.5712765095       22.3983923521
H    1.0       18.0245643604       15.6006209598       22.7773524856
O    8.0       18.2658181172       13.6571163323       23.4550407604
H    1.0       18.8372352662       14.1834073998       24.0728733251
C    6.0       18.9971879127       14.4093550472       21.2550352357
H    1.0       19.0356508766       13.3488992117       20.9740437330
C    6.0       18.6103476655       15.2551560623       20.0072687442
H    1.0       18.7089631722       16.3137592718       20.2731042216
O    8.0       17.2324226599       14.9814632445       19.6520412151
C    6.0       19.4783601093       15.0140374373       18.7446496119
H    1.0       20.3350923648       15.6961505325       18.7683195027
H    1.0       18.8878895126       15.2883460953       17.8602675724
O    8.0       19.9408520052       13.6639637758       18.6237144918
H    1.0       20.6904394248       13.5611652652       19.2559856461
C    6.0       14.6794856159       20.3150830310       21.6353988483
H    1.0       14.0207810417       21.1831129084       21.7679467139
O    8.0       16.0569308920       20.7049396228       21.4900120766
C    6.0       14.5831487792       19.3860655971       22.8664042740
H    1.0       13.5515928267       19.0154036961       22.9267475914
O    8.0       14.9020685377       20.1093765890       24.0663959539
H    1.0       15.4658308823       20.8755321087       23.7969893782
C    6.0       15.5236172822       18.1713235251       22.6984737221
H    1.0       16.5549741543       18.5426299299       22.7216041729
O    8.0       15.3159346601       17.2697479197       23.7888758055
H    1.0       15.3161378505       17.8405236974       24.5893979190
C    6.0       15.2910341156       17.4509732137       21.3429307003
H    1.0       14.3825140443       16.8392939105       21.4222428717
C    6.0       15.1731549785       18.4374091744       20.1448514540
H    1.0       16.1806083615       18.8181017837       19.9348800926
O    8.0       14.3049789901       19.5553156966       20.4679964169
C    6.0       14.6586414401       17.7746423784       18.8449806494
H    1.0       15.4409628889       17.1050663610       18.4623126297
H    1.0       14.5015454070       18.5571108584       18.0904045925
O    8.0       13.4488152510       17.0369147616       19.0583298160
H    1.0       13.1423275977       16.7079774744       18.1852847760
C    6.0       18.4904888385       23.9765465408       20.7164192159
H    1.0       18.9075580690       24.9426487528       20.4046203290
O    8.0       19.5319446048       23.0389011012       21.0612855737
C    6.0       17.5221531357       24.1424344218       21.9207184705
H    1.0       16.6943129058       24.7788677826       21.5820274944
O    8.0       18.1569232258       24.7723958791       23.0430954520
H    1.0       18.8913883388       24.1738964352       23.3326008844
C    6.0       16.9298819344       22.7710631081       22.3277819850
H    1.0       17.7482942455       22.1381894994       22.6995686696
O    8.0       15.9500965221       22.9503428042       23.3560936432
H    1.0       16.3537093414       23.5866526933       23.9875846430
C    6.0       16.2890613252       22.0684917173       21.1058213003
H    1.0       15.3601308152       22.5917171703       20.8435135801
C    6.0       17.2335369612       22.0524664319       19.8741174367
H    1.0       18.0758492256       21.3945418097       20.1084806056
O    8.0       17.7256727528       23.3952483303       19.6350043784
C    6.0       16.6000061478       21.5036758069       18.5688480071
H    1.0       16.8000247063       20.4261720230       18.5143251686
H    1.0       17.1127244384       21.9613399831       17.7123247921
O    8.0       15.1884377795       21.7340441873       18.4794073793
H    1.0       14.7528429745       21.1036529984       19.0991853662
C    6.0       23.5392708255       22.6607675833       22.0020285496
H    1.0       24.5899032800       22.7995266478       22.2878920995
O    8.0       23.2981299185       21.3385459489       21.4827389521
C    6.0       22.6139926912       22.8982176871       23.2222982551
H    1.0       22.7576600462       23.9388694226       23.5409641372
O    8.0       22.9417745241       22.0238948222       24.3142558949
H    1.0       23.7164737069       21.4797489851       24.0307888528
C    6.0       21.1312771075       22.7198359442       22.8256151491
H    1.0       20.9783257237       21.6630587414       22.5763895754
O    8.0       20.3072409913       23.0747179442       23.9400373964
H    1.0       20.7166000473       22.6089490216       24.7037928444
C    6.0       20.7642575275       23.5735676645       21.5835441358
H    1.0       20.6601775723       24.6215574467       21.8941623774
C    6.0       21.8210128724       23.4576048183       20.4476410583
H    1.0       21.7229146630       22.4607139696       19.9977931163
O    8.0       23.1624984387       23.6083215080       20.9809922717
C    6.0       21.6249912760       24.4898979259       19.3117735550
H    1.0       20.7269549273       24.2138565066       18.7425613431
H    1.0       22.4796143174       24.4213293444       18.6254491345
O    8.0       21.4921100769       25.8267596462       19.8112038318
H    1.0       21.4535218181       26.4311939534       19.0381265767
C    6.0       25.1054957757       17.6569633443       21.0272603427
H    1.0       25.7522363641       16.7990306746       20.8031102542
O    8.0       23.7649424003       17.2486160971       21.3704932055
C    6.0       25.6757897043       18.4939996683       22.1995924415
H    1.0       26.6394556469       18.9028852858       21.8688179307
O    8.0       25.8913811166       17.6911585574       23.3693400829
H    1.0       25.0591847159       17.1778232277       23.5333311848
C    6.0       24.7379022682       19.6851562737       22.5138137839
H    1.0       23.7826787718       19.2851419475       22.8831709421
O    8.0       25.3428925335       20.5035540113       23.5202333846
H    1.0       25.7249169625       19.8663782915       24.1661088717
C    6.0       24.4566404872       20.5208703735       21.2358578084
H    1.0       25.3393995185       21.1308074447       21.0063497765
C    6.0       24.1112895050       19.6435860213       19.9991426306
H    1.0       23.0979686307       19.2447729414       20.1316595558
O    8.0       25.0357179026       18.5348349778       19.8847871428
C    6.0       24.1239340996       20.4340716369       18.6666899874
H    1.0       23.2776682945       21.1332644889       18.6645263414
H    1.0       23.9632233584       19.7269216005       17.8421442569
O    8.0       25.3431129454       21.1590768700       18.4621526970
H    1.0       25.3185835323       21.9497518950       19.0421942855
C    6.0       21.3328001407       13.9033086516       21.8061517087
H    1.0       20.9360885082       12.8845841307       21.9015833076
O    8.0       20.2678094660       14.8769355398       21.7574070270
C    6.0       22.2672026054       14.2091046308       23.0044584008
H    1.0       23.1262747106       13.5313044123       22.9198893940
O    8.0       21.6174438385       13.9486193801       24.2563981301
H    1.0       20.9990130698       14.7057277479       24.4377804052
C    6.0       22.8027404477       15.6573628427       22.8987038909
H    1.0       21.9521806819       16.3482475338       22.9061912493
O    8.0       23.6607674979       15.9625659030       24.0020252559