$$$$
! Edit this basic GAMESS input file as needed.
! Conformer was generated by a VeraChem VCPack run 
! and contains    142 atoms.
!
 $contrl scftyp=rhf runtyp=optimize nzvar=0
  maxit=200 icharg=0 $end
 $system mwords=50 $end
 $basis gbasis=pm3 $end
 $statpt nstep=200 $end
 $guess guess=huckel $end
 $data
FE Rank=1      G=555.109           E=370.695           -TS=184.413              
C1
C    6.0       16.1161286549       15.1589439697       20.9491856383
H    1.0       15.0333652063       15.0466392250       20.8079656564
O    8.0       16.4725408883       16.5151850409       21.2851997734
C    6.0       16.6397762234       14.2119194102       22.0603301000
H    1.0       16.4629391602       13.1829278120       21.7210342211
O    8.0       15.9498716257       14.4152366486       23.3024922970
H    1.0       16.0353607403       15.3744774435       23.5355955419
C    6.0       18.1656595558       14.3966558142       22.2422520201
H    1.0       18.3452803389       15.4133108848       22.6139129193
O    8.0       18.6595901784       13.4426966552       23.1884486335
H    1.0       18.0131912255       13.4587812446       23.9289955975
C    6.0       18.9110825224       14.2316426699       20.8947628062
H    1.0       18.9372986625       13.1617604757       20.6499278116
C    6.0       18.2442534603       15.0219875181       19.7325715168
H    1.0       18.4477073657       16.0903116536       19.8826289076
O    8.0       16.8098307381       14.8079170335       19.7336663898
C    6.0       18.7886178586       14.6392993908       18.3352484778
H    1.0       19.8123249024       15.0244286155       18.2413027657
H    1.0       18.1807246016       15.1438939875       17.5724731383
O    8.0       18.7806794592       13.2219423103       18.1205975611
H    1.0       19.1050610975       13.0577440056       17.2083987088
C    6.0       15.0243899077       20.2632161083       22.1826304569
H    1.0       14.4454188112       21.1538117795       22.4587409856
O    8.0       16.3395202091       20.6159761490       21.7150776995
C    6.0       15.1650036596       19.3248130600       23.4056679951
H    1.0       14.1543215485       19.0024058471       23.6876310700
O    8.0       15.7676590956       20.0032169435       24.5170522541
H    1.0       16.6653830150       20.2999482401       24.2212879931
C    6.0       15.9849810532       18.0689692110       23.0408860113
H    1.0       17.0115568050       18.3873242745       22.8199019182
O    8.0       15.9831538511       17.1734145185       24.1565912922
H    1.0       16.1818069392       17.7417258600       24.9342011704
C    6.0       15.4180138047       17.3616573688       21.7857938160
H    1.0       14.5274702148       16.7888051032       22.0768740550
C    6.0       15.0709526506       18.3527773715       20.6385807546
H    1.0       16.0204547295       18.6748202858       20.1990575204
O    8.0       14.3638253510       19.5218188988       21.1328909519
C    6.0       14.2358446981       17.7130621499       19.5037581645
H    1.0       14.8724501873       17.0004170208       18.9618837805
H    1.0       13.9475772363       18.4983648361       18.7921145213
O    8.0       13.0728536683       17.0421680440       20.0042432794
H    1.0       12.5555527604       16.7258692114       19.2315591566
C    6.0       18.5391145650       23.8625823434       20.3813863041
H    1.0       18.9175812001       24.7703479340       19.8939101105
O    8.0       19.5945877701       23.1102714995       21.0105845572
C    6.0       17.4989071847       24.2127082224       21.4732136489
H    1.0       16.6717246575       24.7386624029       20.9790989206
O    8.0       18.0733972293       25.0708512065       22.4727151536
H    1.0       18.9283844453       24.6591828906       22.7584295579
C    6.0       16.9257017605       22.9293183467       22.1265149476
H    1.0       17.7222076457       22.4657347593       22.7240382665
O    8.0       15.8309809857       23.2980710306       22.9713824427
H    1.0       16.1791611336       24.0132037944       23.5473767532
C    6.0       16.4576313129       21.8960119963       21.0646413512
H    1.0       15.4980379821       22.2313202210       20.6505166891
C    6.0       17.4805161230       21.7150240926       19.9067881696
H    1.0       18.3595683672       21.1900742203       20.3008455673
O    8.0       17.8869978414       23.0127250496       19.4144038167
C    6.0       16.9623716741       20.8759120876       18.7094701388
H    1.0       17.2214152600       19.8248771681       18.8859246736
H    1.0       17.5059726847       21.1823365382       17.8057841711
O    8.0       15.5496644764       20.9996706882       18.4966750783
H    1.0       15.0979197374       20.6429806561       19.2951097568
C    6.0       23.6814674226       22.8616631500       21.4086978977
H    1.0       24.7697380406       23.0028923747       21.4345723026
O    8.0       23.3188166995       21.4728374825       21.5538556717
C    6.0       22.9826817136       23.6793410762       22.5252515855
H    1.0       23.1766390936       24.7406044668       22.3219642867
O    8.0       23.4984645038       23.3531046089       23.8247489833
H    1.0       23.4106835013       22.3731974563       23.9418766928
C    6.0       21.4521488466       23.4566632535       22.4713508861
H    1.0       21.2499494548       22.4074431404       22.7208271597
O    8.0       20.8080018408       24.3125767985       23.4210683046
H    1.0       21.3357580706       24.2233929561       24.2455866706
C    6.0       20.8911373411       23.7312889943       21.0539804587
H    1.0       20.8324557212       24.8186837488       20.9128675761
C    6.0       21.7441788068       23.0877786398       19.9229362515
H    1.0       21.5622230440       22.0048461826       19.9331779800
O    8.0       23.1548460209       23.3308616011       20.1502596232
C    6.0       21.3830777786       23.5993357558       18.5073973591
H    1.0       20.4026486946       23.1907173924       18.2280828331
H    1.0       22.1164848753       23.2006820771       17.7937687464
O    8.0       21.3499593670       25.0307838079       18.4404121957
H    1.0       21.1850228130       25.2811069828       17.5051078785
C    6.0       24.7945499952       17.6909131821       22.2559613057
H    1.0       25.3769987854       16.7945301023       22.5041569132
O    8.0       23.5724904897       17.3618423257       21.5664051289
C    6.0       24.4402710686       18.4803441593       23.5407615274
H    1.0       25.3863017003       18.8009153878       23.9962696442
O    8.0       23.7175756638       17.6676095879       24.4793564707
H    1.0       23.7654410982       16.7363104850       24.1542086416
C    6.0       23.6206925971       19.7429219103       23.1899757848
H    1.0       22.6509786827       19.4173428184       22.7946280438
O    8.0       23.4214787430       20.5118942855       24.3791937128
H    1.0       23.1999606789       19.8430864837       25.0655348172
C    6.0       24.3226016926       20.5975631502       22.1046489529
H    1.0       25.1418506923       21.1546626043       22.5783640654
C    6.0       24.8681965972       19.7462400874       20.9212857328
H    1.0       24.0118175320       19.4273111503       20.3131689559
O    8.0       25.5628876717       18.5692172598       21.4075265593
C    6.0       25.8227337274       20.5297732497       19.9885875795
H    1.0       25.2329752963       21.2664461209       19.4262535265
H    1.0       26.2520734165       19.8303116715       19.2588201344
O    8.0       26.8642598340       21.1944515427       20.7150247801
H    1.0       27.4690341417       21.6054684886       20.0592243477
C    6.0       21.3328447692       13.9678455744       20.6340527299
H    1.0       20.9990423722       12.9906874403       20.2623272673
O    8.0       20.2301979869       14.7745134455       21.0936388443
C    6.0       22.2995204138       13.7913181792       21.8317785832
H    1.0       23.1588496382       13.2071756349       21.4775640929
O    8.0       21.6582559282       13.0840836840       22.9058944491
H    1.0       20.7231763316       13.4076734948       22.9552705566
C    6.0       22.8252639868       15.1623088361       22.3267794341
H    1.0       21.9801430174       15.7175824736       22.7528607302
O    8.0       23.8146057439       14.9386732632       23.3368500351
H    1.0       23.4520581853       14.2054979963       23.8848313782
C    6.0       23.4084574734       15.9933865958       21.1505312535
H    1.0       24.3637907071       15.5534091234       20.8368713495
C    6.0       22.4408226974       16.0323847853       19.9369060751
H    1.0       21.5542639037       16.6146234370       20.2187975238
O    8.0       22.0346573054       14.6865019121       19.5965688180
C    6.0       23.0407599777       16.7094541847       18.6790757285
H    1.0       23.0209496189       17.7972277688       18.8275662151
H    1.0       22.3920301570       16.4894512328       17.8209106311
O    8.0       24.3819952582       16.2868607826       18.4045337989
H    1.0       24.9599952678       16.6847710711       19.0911645600
C    6.0       20.0111075480       18.0325490864       22.4447899442
H    1.0       19.3815373823       17.5073424180       21.7149140412
H    1.0       21.0592233248       17.8526069512       22.1828436864
C    6.0       19.7567994062       17.5519465730       23.8807624895
H    1.0       18.6941006545       17.3192910280       24.0141701064
H    1.0       20.3343200978       16.6527870212       24.1318898977
C    6.0       20.1310414952       18.7508796884       24.7658848667
H    1.0       21.2022277475       18.7103204710       24.9967030376
H    1.0       19.5839639718       18.7393780050       25.7173531347
C    6.0       19.8412169016       20.0120779492       23.9311603607
H    1.0       20.6639655832       20.7301673516       24.0498125280
C    6.0       19.7408135071       19.5497194087       22.4627845753
H    1.0       18.7388076726       19.7506996664       22.0712694457
H    1.0       20.4572211359       20.0881218345       21.8294371313
O    8.0       18.6108052788       20.5933583365       24.3468913211
H    1.0       18.7487645987       20.8963519903       25.2666703677
 $end
$$$$
! Edit this basic GAMESS input file as needed.
! Conformer was generated by a VeraChem VCPack run 
! and contains    142 atoms.
!
 $contrl scftyp=rhf runtyp=optimize nzvar=0
  maxit=200 icharg=0 $end
 $system mwords=50 $end
 $basis gbasis=pm3 $end
 $statpt nstep=200 $end
 $guess guess=huckel $end
 $data
FE Rank=2      G=556.663           E=372.340           -TS=184.323              
C1
C    6.0       16.3751688994       15.2366435412       20.3907036443
H    1.0       15.4134571218       15.0777712558       19.8860022716
O    8.0       16.4771966580       16.5602417149       20.9507159716
C    6.0       16.5590529983       14.2295456699       21.5512700425
H    1.0       16.5195629332       13.2209695049       21.1197719284
O    8.0       15.5054736342       14.3733923467       22.5185765772
H    1.0       15.4075294644       15.3418260141       22.7032199239
C    6.0       17.9418481389       14.4062403714       22.2287786960
H    1.0       17.9330290663       15.3597839738       22.7728794266
O    8.0       18.1450999990       13.3230087398       23.1417603570
H    1.0       17.3420643992       13.3077378822       23.7067049229
C    6.0       19.0984197267       14.4560703909       21.1926653406
H    1.0       19.2934097507       13.4357510361       20.8380621197
C    6.0       18.7765668587       15.3689959133       19.9748000466
H    1.0       18.7820646686       16.4127458146       20.3132728119
O    8.0       17.4638180610       15.0432782209       19.4642216828
C    6.0       19.7893117410       15.2737216634       18.8036826724
H    1.0       20.5606203963       16.0395933270       18.9489054922
H    1.0       19.2702812850       15.5306036197       17.8705673170
O    8.0       20.4001664476       13.9819451092       18.6830494097
H    1.0       20.9157435778       13.8199540078       19.5059435205
C    6.0       14.7047319469       20.2831648006       20.8916072879
H    1.0       14.0512018861       21.1585003678       20.7841287206
O    8.0       16.0724057004       20.6693594239       21.1442236645
C    6.0       14.2136169812       19.3528074205       22.0321350292
H    1.0       13.2217213043       18.9819303588       21.7425592480
O    8.0       14.0987157199       20.0494674231       23.2816017815
H    1.0       14.9944343175       20.4124031996       23.4988751281
C    6.0       15.1552011215       18.1323138804       22.1670242720
H    1.0       16.1409731116       18.4921084501       22.4898569306
O    8.0       14.6293450423       17.2207425609       23.1381345442
H    1.0       14.3623306934       17.7821496246       23.8994890198
C    6.0       15.3229988010       17.4065548392       20.8096609027
H    1.0       14.4097461324       16.8278251915       20.6180083485
C    6.0       15.5970568778       18.3802277141       19.6271988679
H    1.0       16.6266683388       18.7503551117       19.7210084632
O    8.0       14.6833243310       19.5046966513       19.6772624523
C    6.0       15.4713838641       17.7166248009       18.2343692686
H    1.0       16.3282099232       17.0458334057       18.0877066333
H    1.0       15.5375579912       18.4993809965       17.4669193719
O    8.0       14.2486471295       16.9820892876       18.0921785563
H    1.0       14.2102980897       16.6440924758       17.1708379880
C    6.0       18.5029137812       23.8713416012       22.1131117037
H    1.0       18.9348846832       24.8318630167       22.4216381865
O    8.0       19.4842731528       23.0232614703       21.4817657281
C    6.0       17.8977166632       23.1311015610       23.3338527643
H    1.0       17.0932550119       23.7655881556       23.7282868069
O    8.0       18.8687713994       22.9120373722       24.3687286926
H    1.0       19.6498924754       23.4784831496       24.1597890164
C    6.0       17.2775837616       21.7844206159       22.9002907807
H    1.0       18.0894877331       21.1330213332       22.5558080664
O    8.0       16.6300180561       21.1926865425       24.0296352210
H    1.0       17.2599978021       21.3389009019       24.7709488153
C    6.0       16.2764825312       21.9699169204       21.7326959101
H    1.0       15.3457206824       22.3902544877       22.1364859921
C    6.0       16.8326208054       22.8908005362       20.6078006101
H    1.0       17.6025755607       22.3301612509       20.0617403049
O    8.0       17.4314500994       24.0866022407       21.1707129815
C    6.0       15.7609763554       23.3184035545       19.5763659186
H    1.0       15.4897926123       22.4418133946       18.9724294618
H    1.0       16.2046039486       24.0581192282       18.8965349716
O    8.0       14.5900280046       23.8566217843       20.2037142761
H    1.0       13.9920527663       24.1767044800       19.4932565761
C    6.0       23.6194087297       22.7838973923       21.0935148804
H    1.0       24.6796321738       22.9818986026       20.8912988096
O    8.0       23.3930096594       21.4087144642       21.4559034917
C    6.0       23.1431116351       23.6583005040       22.2763641797
H    1.0       23.2957877846       24.7079892052       21.9933628033
O    8.0       23.9135769238       23.3655557658       23.4533272262
H    1.0       24.1367884776       22.4024709008       23.4172335854
C    6.0       21.6352460395       23.4519405752       22.5559659996
H    1.0       21.4975909196       22.4351575399       22.9445427681
O    8.0       21.2255386938       24.4083765480       23.5391424733
H    1.0       21.9588664685       24.4222371203       24.1960358318
C    6.0       20.7907888687       23.5914583289       21.2589691617
H    1.0       20.7243097753       24.6519183344       20.9844301583
C    6.0       21.4015721051       22.7942043832       20.0730821321
H    1.0       21.2821255041       21.7237701303       20.2856561231
O    8.0       22.8126075632       23.0967507021       19.9393720119
C    6.0       20.7026961998       23.0641937511       18.7171608798
H    1.0       19.7244593108       22.5650695501       18.7234570135
H    1.0       21.2970470780       22.6005671993       17.9189017436
O    8.0       20.5291464736       24.4610471510       18.4507208180
H    1.0       19.8143522321       24.7860393151       19.0394430871
C    6.0       25.0046488026       17.6005399596       20.9870004315
H    1.0       25.6311722504       16.7311214952       20.7494569419
O    8.0       23.6763358704       17.2052280405       21.3831544084
C    6.0       25.6345523689       18.4587631696       22.1173338435
H    1.0       26.6017271651       18.8224097554       21.7466059832
O    8.0       25.8546975919       17.6923337076       23.3110406561
H    1.0       24.9756348950       17.3372748208       23.5989915556
C    6.0       24.7465262716       19.6914058459       22.4169190150
H    1.0       23.7949976562       19.3363104063       22.8348501626
O    8.0       25.4028020261       20.5435259734       23.3624228229
H    1.0       25.7404671661       19.9406555925       24.0613647956
C    6.0       24.4443855887       20.4843907443       21.1216032122
H    1.0       25.3656814662       20.9981577115       20.8175642920
C    6.0       23.9566526140       19.5652052805       19.9648755666
H    1.0       22.9625921685       19.1818991093       20.2233153762
O    8.0       24.8736937510       18.4506237016       19.8253584532
C    6.0       23.8131043528       20.2611109805       18.5874525352
H    1.0       22.8180718637       20.7204034817       18.5326663562
H    1.0       23.8518792056       19.4930039607       17.8035897568
O    8.0       24.8127559364       21.2577900583       18.3485174262
H    1.0       24.4518581181       22.1049716990       18.6942361661
C    6.0       21.2094279753       14.0821833326       22.3654727649
H    1.0       20.7257865592       13.1449457830       22.6695104119
O    8.0       20.2503728031       15.0233466200       21.8470445852
C    6.0       21.9346423999       14.7186771345       23.5760463956
H    1.0       22.7200737343       14.0195082615       23.8909873318
O    8.0       21.0318758316       14.9339332122       24.6700763622
H    1.0       20.3210393419       15.5409965754       24.3417402229
C    6.0       22.6084012235       16.0475901806       23.1736158837
H    1.0       21.8153856560       16.7654469873       22.9274301379
O    8.0       23.3779110146       16.5355316002       24.2771946266
H    1.0       22.7828060435       16.4493670988       25.0552671874
C    6.0       23.5121737122       15.8811874390       21.9272747321
H    1.0       24.4671937256       15.4367221260       22.2376083339
C    6.0       22.8543726778       15.0268021779       20.8059243473
H    1.0       22.1010249466       15.6609054378       20.3284415806
O    8.0       22.1984870266       13.8453234243       21.3394391656
C    6.0       23.8442883914       14.5860512604       19.7012203386
H    1.0       24.1326771350       15.4709809543       19.1179051497
H    1.0       23.3266254110       13.9005232524       19.0168590436
O    8.0       25.0128035890       13.9596899072       20.2441935189
H    1.0       25.5540339426       13.6345673321       19.4917751033
C    6.0       20.6073896177       19.5097405687       22.5088695795
H    1.0       21.4181762969       19.1929595841       21.8430558882
H    1.0       20.2716100835       20.5031135831       22.1885728599
C    6.0       21.0627620474       19.5686350211       23.9741306775
H    1.0       21.7812648062       18.7646223346       24.1733035086
H    1.0       21.5422856721       20.5223035269       24.2293614667
C    6.0       19.7827766977       19.3220447483       24.7872195147
H    1.0       19.2588464670       20.2732888851       24.9369850500
H    1.0       20.0032977727       18.9024658440       25.7771579937
C    6.0       18.9062095808       18.3909483827       23.9303510223
H    1.0       17.8541888680       18.7017215514       23.9940186781
C    6.0       19.4205604505       18.5250348048       22.4818551879
H    1.0       19.7527747828       17.5518113065       22.1062213505
H    1.0       18.6262419682       18.8817444795       21.8141157415
O    8.0       19.0556244978       17.0496973555       24.3812735422
H    1.0       18.6931998819       17.0252412009       25.2894475583
 $end
$$$$
! Edit this basic GAMESS input file as needed.
! Conformer was generated by a VeraChem VCPack run 
! and contains    142 atoms.
!
 $contrl scftyp=rhf runtyp=optimize nzvar=0
  maxit=200 icharg=0 $end
 $system mwords=50 $end
 $basis gbasis=pm3 $end
 $statpt nstep=200 $end
 $guess guess=huckel $end
 $data
FE Rank=3      G=556.697           E=372.918           -TS=183.779              
C1
C    6.0       16.3350380133       15.3833298194       21.9674813843
H    1.0       15.2812234437       15.3000840872       22.2614885914
O    8.0       16.6071800401       16.6433145581       21.3221292947
C    6.0       17.2511972965       15.2419487523       23.2098626414
H    1.0       17.0352414427       14.2629552651       23.6573094672
O    8.0       17.0009521901       16.2730141324       24.1803188811
H    1.0       16.0713097115       16.5776947710       24.0413369852
C    6.0       18.7421080554       15.2726857606       22.8119057492
H    1.0       18.9770501569       16.2923746912       22.4834671298
O    8.0       19.5164236365       14.9391459121       23.9665685420
H    1.0       19.1086902380       15.4613649142       24.6934425602
C    6.0       19.0709622523       14.3084311606       21.6444785546
H    1.0       19.1411563267       13.2865004127       22.0401961427
C    6.0       18.0168519720       14.3662774414       20.5030458693
H    1.0       18.1544743571       15.3114209184       19.9616450874
O    8.0       16.6739147039       14.3255190516       21.0466398061
C    6.0       18.1653001331       13.2228224593       19.4707354795
H    1.0       19.0768183521       13.4005309622       18.8840483481
H    1.0       17.3162549422       13.2662234021       18.7754746969
O    8.0       18.2337682576       11.9342585353       20.0946366607
H    1.0       18.2487095509       11.2586109249       19.3818403359
C    6.0       14.7242904010       20.3258576309       20.8589761271
H    1.0       14.0271659391       21.1410919680       20.6273306603
O    8.0       16.0041742832       20.8254214361       21.2901037451
C    6.0       14.1556404507       19.4638802074       22.0097395430
H    1.0       13.1948413019       19.0525227786       21.6739225727
O    8.0       13.9461821029       20.2726183344       23.1781377290
H    1.0       14.7101278384       20.8975150715       23.2289708764
C    6.0       15.0986448470       18.2814482463       22.3346425405
H    1.0       16.0238462341       18.6949864197       22.7529397968
O    8.0       14.4573063918       17.4430884949       23.3028088870
H    1.0       14.0709136659       18.0698143664       23.9563639615
C    6.0       15.4658536730       17.4830568198       21.0525113036
H    1.0       14.5983220662       16.8885591188       20.7389682130
C    6.0       15.8940789111       18.4154842416       19.8861529644
H    1.0       16.8658098625       18.8562139553       20.1454661986
O    8.0       14.9224193563       19.4769395001       19.7089836669
C    6.0       16.0787865330       17.6767941553       18.5368293679
H    1.0       17.0071740569       17.0919614814       18.5838524300
H    1.0       16.2072956959       18.4240565315       17.7428532759
O    8.0       14.9804959624       16.8123443136       18.2225183034
H    1.0       15.0374478530       16.0357870226       18.8199476586
C    6.0       18.5653262705       24.0740889668       20.8909449972
H    1.0       19.0295589888       25.0410690247       20.6580319650
O    8.0       19.5339659514       23.1189350348       21.3656504193
C    6.0       17.4581666547       24.2289605708       21.9665587044
H    1.0       16.6986876112       24.9073054035       21.5565698382
O    8.0       17.9792292635       24.7893098912       23.1822179714
H    1.0       18.7236847788       24.2076163703       23.4810383635
C    6.0       16.7788756241       22.8664123518       22.2478426980
H    1.0       17.5154585756       22.2099352130       22.7291108327
O    8.0       15.6602273087       23.0591038064       23.1204325326
H    1.0       15.9913701776       23.6397624822       23.8407115101
C    6.0       16.3106123036       22.1860819147       20.9372409396
H    1.0       15.4296794333       22.7273737472       20.5682499859
C    6.0       17.4183838770       22.1810561714       19.8448061237
H    1.0       18.2193703528       21.5056806036       20.1695552040
O    8.0       17.9508866775       23.5213149006       19.7066704704
C    6.0       16.9681085004       21.6901187451       18.4451572235
H    1.0       17.0803152630       20.5996801876       18.4066278033
H    1.0       17.6530989308       22.1049974125       17.6937283866
O    8.0       15.6180315206       22.0434973000       18.1260205414
H    1.0       15.0507144066       21.3160679826       18.4685276484
C    6.0       23.4856329093       22.6160252449       22.3484665737
H    1.0       24.5414710491       22.6884064093       22.6405706654
O    8.0       23.1468803338       21.2932544157       21.8948584580
C    6.0       22.5761646988       22.9529628729       23.5526842064
H    1.0       22.7722510389       23.9950026087       23.8370280523
O    8.0       22.8704205164       22.0919234912       24.6644300304
H    1.0       23.4511055774       21.3705968747       24.3207687739
C    6.0       21.0882221946       22.8320668371       23.1525459001
H    1.0       20.8790218281       21.7752479736       22.9430958082
O    8.0       20.2676538515       23.2779590609       24.2367115738
H    1.0       20.6660501565       22.8665195681       25.0359707978
C    6.0       20.7721254980       23.6485902987       21.8744177029
H    1.0       20.6880355692       24.7088422764       22.1480906397
C    6.0       21.8330237375       23.4628914591       20.7501149212
H    1.0       21.6779365328       22.4679456913       20.3160791162
O    8.0       23.1811608036       23.5387529514       21.2825356255
C    6.0       21.7053676732       24.4858029575       19.5960326251
H    1.0       20.8007218702       24.2507644472       19.0191086130
H    1.0       22.5625895302       24.3616482291       18.9206066202
O    8.0       21.6397974419       25.8343966102       20.0756406620
H    1.0       21.6470314146       26.4294711334       19.2942623540
C    6.0       24.9843445869       17.6938265096       20.9000024994
H    1.0       25.6807708989       16.9272077380       20.5367600546
O    8.0       23.7075124646       17.1325479182       21.2658332659
C    6.0       25.5511364516       18.3938761644       22.1625700164
H    1.0       26.5070832164       18.8565281258       21.8848624632
O    8.0       25.7724456942       17.4440558999       23.2179752551
H    1.0       25.0011466779       16.8221313926       23.2225143305
C    6.0       24.5944324616       19.5153704089       22.6380803684
H    1.0       23.6640229229       19.0455260807       22.9786166198
O    8.0       25.1916394324       20.2386993089       23.7189448252
H    1.0       25.5791109917       19.5490267067       24.3033934713
C    6.0       24.2474532495       20.4741817046       21.4727512837
H    1.0       25.1342624747       21.0728326579       21.2259063159
C    6.0       23.7819033743       19.7062959799       20.2070711944
H    1.0       22.8254236776       19.2155880630       20.4285436668
O    8.0       24.7700685227       18.7001152637       19.8842212830
C    6.0       23.5484894849       20.6035591768       18.9630328975
H    1.0       22.4997568535       20.9261717946       18.9625262855
H    1.0       23.6919420831       19.9956912301       18.0597767296
O    8.0       24.4029219560       21.7542487186       18.9234325605
H    1.0       24.1360880151       22.3438444514       19.6658857751
C    6.0       21.3457628966       13.7655580905       20.8714274704
H    1.0       20.9145998910       12.7732204054       20.6864643734
O    8.0       20.3183242712       14.7589198665       21.0759682425
C    6.0       22.3106371989       13.7441074540       22.0875357151
H    1.0       23.1502371394       13.0894579115       21.8194693682
O    8.0       21.6856588725       13.2224613915       23.2687354872
H    1.0       20.9365335151       13.8296732144       23.4935949978
C    6.0       22.8792759507       15.1616377450       22.3377944486
H    1.0       22.0491945384       15.8248008288       22.6177791861
O    8.0       23.8423004531       15.1177350870       23.3964031933
H    1.0       23.4299446314       14.5635142003       24.0957797160
C    6.0       23.5424432596       15.7186286201       21.0537960478
H    1.0       24.5050251662       15.2075389321       20.9208716651
C    6.0       22.6627649750       15.5289674019       19.7840371679
H    1.0       21.8296069720       16.2424017846       19.8357725016
O    8.0       22.1298106162       14.1802131614       19.7330473871
C    6.0       23.4207104613       15.7990568009       18.4618145663
H    1.0       23.6033088293       16.8783057716       18.3774213480
H    1.0       22.7728164273       15.5132122464       17.6224388255
O    8.0       24.6641302916       15.0887505110       18.3953368828
H    1.0       25.0639389589       15.2711815301       17.5170741513
C    6.0       20.5381196244       18.7430187090       22.5356203044
H    1.0       20.6186593716       17.8954151860       21.8418534245
H    1.0       21.2414251587       19.5165929466       22.2067600145
C    6.0       20.8599612214       18.3455625212       23.9833259802
H    1.0       20.4586471771       17.3488167359       24.1937572187
H    1.0       21.9371357720       18.3238605202       24.1893754154
C    6.0       20.1221580552       19.3842660541       24.8421787259