$$$$
! Edit this basic GAMESS input file as needed.
! Conformer was generated by a VeraChem VCPack run 
! and contains    139 atoms.
!
 $contrl scftyp=rhf runtyp=optimize nzvar=0
  maxit=200 icharg=0 $end
 $system mwords=50 $end
 $basis gbasis=pm3 $end
 $statpt nstep=200 $end
 $guess guess=huckel $end
 $data
FE Rank=1      G=545.030           E=365.725           -TS=179.305              
C1
C    6.0       16.2851958518       15.2144614135       20.5786543725
H    1.0       15.2348232526       15.0802259449       20.2903077142
O    8.0       16.5805949405       16.6013793275       20.8548203089
C    6.0       16.6439441741       14.3368062926       21.8089205998
H    1.0       16.4952052746       13.2920023027       21.5062218039
O    8.0       15.8011424420       14.6107314003       22.9379732715
H    1.0       15.9804210683       15.5462737981       23.2098709812
C    6.0       18.1335257476       14.5073067638       22.1954224793
H    1.0       18.2758955093       15.5326206363       22.5643855771
O    8.0       18.4489004035       13.5672155037       23.2276888734
H    1.0       17.6684664547       13.5766595799       23.8276426148
C    6.0       19.0660039019       14.2952741945       20.9718479637
H    1.0       19.1311134800       13.2217326630       20.7536891391
C    6.0       18.5619359032       15.0385971776       19.7033976823
H    1.0       18.7103219895       16.1129553380       19.8542187825
O    8.0       17.1489892205       14.7878694536       19.5025344936
C    6.0       19.3314918804       14.6631463682       18.4128688006
H    1.0       20.3232050704       15.1335649848       18.4498497078
H    1.0       18.8011073857       15.0951543493       17.5539171027
O    8.0       19.4753338693       13.2478765681       18.2416307427
H    1.0       20.1671584083       12.9447957704       18.8684628212
C    6.0       14.8846211676       20.2668141578       21.7923363116
H    1.0       14.2345933128       21.0961079738       22.0996561093
O    8.0       16.0803622729       20.7438961769       21.1434473855
C    6.0       15.2716911829       19.3972295347       23.0187398881
H    1.0       14.3368746938       19.0013225643       23.4366492291
O    8.0       15.9482792001       20.1605781654       24.0303267818
H    1.0       15.8536093340       21.1145212683       23.7915860956
C    6.0       16.1504604990       18.1970775592       22.5967350919
H    1.0       17.1185525968       18.5909348353       22.2655819325
O    8.0       16.3428237864       17.3428139296       23.7286284090
H    1.0       16.5866387247       17.9556705695       24.4588055752
C    6.0       15.5222374511       17.4008742443       21.4245723380
H    1.0       14.7059823701       16.7822537847       21.8200325169
C    6.0       14.9798418116       18.3250435834       20.2966892067
H    1.0       15.8388024697       18.7480239294       19.7596097338
O    8.0       14.1938031224       19.4056626503       20.8623808461
C    6.0       14.1110285597       17.5832147504       19.2527029131
H    1.0       14.7665049979       16.9444375455       18.6454115148
H    1.0       13.6645689613       18.3262925660       18.5783616378
O    8.0       13.0881723643       16.7871153497       19.8645102329
H    1.0       12.5279191659       16.4187826497       19.1467529036
C    6.0       18.4341558448       24.0785862190       20.6649568772
H    1.0       18.8874005868       25.0540541191       20.4468461198
O    8.0       19.4497166164       23.0716322276       20.8914714792
C    6.0       17.4631973129       24.1769039747       21.8731270430
H    1.0       16.6526425257       24.8536353563       21.5721686069
O    8.0       18.0945469632       24.7162101702       23.0433538063
H    1.0       18.7693016753       24.0520158733       23.3333930212
C    6.0       16.8322658260       22.7992096319       22.1825085087
H    1.0       17.6324392589       22.1306135694       22.5280750719
O    8.0       15.8535426192       22.9595808914       23.2154964301
H    1.0       16.2501332007       23.6058603592       23.8433249445
C    6.0       16.1847892945       22.1665479752       20.9201826224
H    1.0       15.2002760500       22.6201212214       20.7458613493
C    6.0       17.0515041509       22.3310657032       19.6387249231
H    1.0       17.8617726413       21.6007640994       19.6913880832
O    8.0       17.6322959143       23.6560070490       19.5444189674
C    6.0       16.2682991828       22.0411105169       18.3369693879
H    1.0       15.9840199054       20.9801202981       18.3326930562
H    1.0       16.9374902848       22.2048073616       17.4816719198
O    8.0       15.0973027577       22.8593670958       18.2181885625
H    1.0       14.6711442610       22.6467711773       17.3594006585
C    6.0       23.3953758758       22.5718336234       22.1357160480
H    1.0       24.4119645372       22.6937062314       22.5311150616
O    8.0       23.2427564594       21.3213767801       21.4375594353
C    6.0       22.3547904813       22.6357879960       23.2835075266
H    1.0       22.4502638099       23.6247789148       23.7505328948
O    8.0       22.5918712161       21.6226891608       24.2746889073
H    1.0       23.4979725383       21.2628671072       24.1149481898
C    6.0       20.9167912962       22.5006330155       22.7315471146
H    1.0       20.8053340845       21.4833087428       22.3382066292
O    8.0       19.9946171200       22.7042680377       23.8055409066
H    1.0       20.3450404333       22.1484646107       24.5381334523
C    6.0       20.6459551842       23.5062134027       21.5810907379
H    1.0       20.5253646752       24.5061399410       22.0180545262
C    6.0       21.8013636163       23.5392661194       20.5390593424
H    1.0       21.7689317374       22.6085746503       19.9595426063
O    8.0       23.0854894228       23.6341652691       21.2087055824
C    6.0       21.6886577448       24.7070204940       19.5298685584
H    1.0       20.8479411618       24.5027715187       18.8531302476
H    1.0       22.6007664405       24.7305255514       18.9185537160
O    8.0       21.4920577902       25.9686329351       20.1806907017
H    1.0       21.5131380446       26.6667563889       19.4901756197
C    6.0       25.1163545449       17.6651680821       20.9612829677
H    1.0       25.7860049260       16.8241061370       20.7399107589
O    8.0       23.7558017577       17.2210701091       21.1589051216
C    6.0       25.5963204939       18.4560149637       22.2075023697
H    1.0       26.5775846639       18.8802081950       21.9573370188
O    8.0       25.7431640607       17.6134994935       23.3595751653
H    1.0       24.8477870636       17.2420480584       23.5632685370
C    6.0       24.6361707992       19.6340965072       22.5080077063
H    1.0       23.6621272135       19.2161449348       22.7993745769
O    8.0       25.1758519810       20.4080048293       23.5851239544
H    1.0       25.5427809919       19.7454979190       24.2142212928
C    6.0       24.4277389630       20.5234147794       21.2501253859
H    1.0       25.3156960543       21.1502328569       21.0989031829
C    6.0       24.1667165799       19.6868698784       19.9671262890
H    1.0       23.1607122604       19.2649093939       20.0473418073
O    8.0       25.1193141421       18.6003822538       19.8612754710
C    6.0       24.1944292044       20.5164356151       18.6597371976
H    1.0       23.2812176403       21.1251984954       18.6129086868
H    1.0       24.1630197410       19.8238483625       17.8082371370
O    8.0       25.3467524995       21.3626766164       18.5638071238
H    1.0       25.2094009630       22.1182603534       19.1747872967
C    6.0       21.3230885972       13.9623473698       21.8835604955
H    1.0       20.8791066231       12.9881619359       22.1257132568
O    8.0       20.3596354985       14.8520356866       21.2817414755
C    6.0       21.9055432965       14.6216422901       23.1604417368
H    1.0       22.6974205112       13.9594155320       23.5342031907
O    8.0       20.9106472394       14.7856678314       24.1836326337
H    1.0       20.0789382229       14.3652385129       23.8544050867
C    6.0       22.5428687721       15.9877779603       22.8257838016
H    1.0       21.7361689885       16.6590795880       22.5135816434
O    8.0       23.1717180297       16.5060458226       24.0011566286
H    1.0       22.5090815712       16.3645099036       24.7150370185
C    6.0       23.5613599515       15.8826199204       21.6619163821
H    1.0       24.4927933717       15.4476275231       22.0478933047
C    6.0       23.0249050055       15.0296199269       20.4750558588
H    1.0       22.2645100462       15.6225665201       19.9504401216
O    8.0       22.4149637076       13.8017506053       20.9532280543
C    6.0       24.1139996718       14.6665430778       19.4375974747
H    1.0       24.3939753996       15.5788864144       18.8936415894
H    1.0       23.6827342250       13.9699474930       18.7062020197
O    8.0       25.2749327613       14.0912235270       20.0502142441
H    1.0       25.8854147701       13.8158038909       19.3317324402
C    6.0       19.9899747931       18.3416003680       21.1928089960
H    1.0       20.7696409470       18.5371785010       21.9403348933
H    1.0       19.4184162320       17.4615356281       21.5046541638
C    6.0       20.4727798064       18.3871117727       19.7028613190
H    1.0       21.4723445242       17.9894762392       19.5058492382
H    1.0       19.7775889730       17.9605255805       18.9700113575
C    6.0       20.3541173558       19.9327956274       19.8717631846
H    1.0       21.2024504576       20.3852554145       20.3949620392
C    6.0       19.1527205103       19.5977762744       20.8039617627
H    1.0       18.9465046705       20.3087976691       21.6102248465
H    1.0       18.2162692532       19.3727855259       20.2798124619
O    8.0       20.0428455695       20.6737128918       18.7162692523
H    1.0       19.7823595624       21.5685729032       19.0200791796
 $end
