$$$$
! Edit this basic GAMESS input file as needed.
! Conformer was generated by a VeraChem VCPack run 
! and contains    155 atoms.
!
 $contrl scftyp=rhf runtyp=optimize nzvar=0
  maxit=200 icharg=0 $end
 $system mwords=50 $end
 $basis gbasis=pm3 $end
 $statpt nstep=200 $end
 $guess guess=huckel $end
 $data
FE Rank=1      G=583.810           E=376.080           -TS=207.730              
C1
C    6.0       16.3871050733       15.3253796948       21.8273961878
H    1.0       15.3400896973       15.1855879810       22.1246391945
O    8.0       16.6052617194       16.6270192671       21.2454164005
C    6.0       17.3236652959       15.1554549418       23.0516671341
H    1.0       17.1779217558       14.1351740700       23.4298916432
O    8.0       17.0140324235       16.0914820569       24.0959741508
H    1.0       16.0880546535       16.3983341367       23.9449897995
C    6.0       18.8029142088       15.3071954202       22.6324308872
H    1.0       18.9579138239       16.3416513106       22.3043272867
O    8.0       19.6325582828       15.0313442087       23.7643103158
H    1.0       19.2038292151       15.5209278026       24.5023967222
C    6.0       19.1542017002       14.3711807465       21.4489971181
H    1.0       19.2252151572       13.3411083352       21.8226642869
C    6.0       18.1005877404       14.4470325788       20.3082086875
H    1.0       18.2044391685       15.4217516419       19.8136384150
O    8.0       16.7611417139       14.3308620529       20.8508894653
C    6.0       18.2852220355       13.3590486578       19.2231730066
H    1.0       19.1860310129       13.5970707753       18.6413993663
H    1.0       17.4310155282       13.4031594571       18.5343087939
O    8.0       18.4042314558       12.0466138228       19.7867848520
H    1.0       18.4331876453       11.4046641190       19.0440362878
C    6.0       14.6374146332       20.2769097508       20.9826487874
H    1.0       13.9332205014       21.0961503836       20.7925756392
O    8.0       15.9332150152       20.7577813400       21.3850421785
C    6.0       14.1088736360       19.3570819514       22.1093991359
H    1.0       13.1487665903       18.9449363567       21.7724239257
O    8.0       13.9028367099       20.0981488497       23.3227367530
H    1.0       14.6748638087       20.7091739773       23.4334308241
C    6.0       15.0754352868       18.1726191850       22.3572531229
H    1.0       16.0029571891       18.5756089648       22.7864207684
O    8.0       14.4607720430       17.2755405338       23.2884948343
H    1.0       14.0338138233       17.8602553647       23.9558163978
C    6.0       15.4346551897       17.4416181696       21.0308793954
H    1.0       14.5826134866       16.8343788758       20.6972502008
C    6.0       15.8125968654       18.4338759904       19.8998563954
H    1.0       16.7874220289       18.8776135435       20.1341868555
O    8.0       14.8044458704       19.4687422736       19.8005671559
C    6.0       15.9206364426       17.7432999593       18.5253962755
H    1.0       14.9318619917       17.3718270963       18.2245521982
H    1.0       16.5913557817       16.8777913922       18.6072586567
O    8.0       16.4298646636       18.6655788583       17.5598090090
H    1.0       15.7844970267       19.4059138854       17.5302799066
C    6.0       18.3498940536       24.0804653716       21.6291975857
H    1.0       18.7837298204       25.0877357622       21.6723140117
O    8.0       19.3662214365       23.0588440610       21.6239927151
C    6.0       17.4442334025       23.8512491586       22.8620739375
H    1.0       16.6390699893       24.5967388427       22.8292117266
O    8.0       18.1963631814       24.0128329900       24.0754745247
H    1.0       19.1441621269       23.8318421686       23.8555907976
C    6.0       16.8038167440       22.4471605041       22.8091285978
H    1.0       17.6065747740       21.7116935413       22.9318179018
O    8.0       15.8588527864       22.3061391118       23.8740987729
H    1.0       16.3122058418       22.6745326191       24.6651273209
C    6.0       16.1130187558       22.1829959300       21.4494474277
H    1.0       15.1604983041       22.7280759210       21.4302811573
C    6.0       16.9952758824       22.5937758416       20.2362031366
H    1.0       17.8144199885       21.8680921442       20.1627736129
O    8.0       17.5520868016       23.9177822660       20.4388865240
C    6.0       16.2557987933       22.5779403120       18.8765244305
H    1.0       16.0361727988       21.5373894647       18.6040934028
H    1.0       16.9349992378       22.9740198689       18.1099077025
O    8.0       15.0466526938       23.3462504325       18.8980175110
H    1.0       14.3462254957       22.7986891518       19.3085401214
C    6.0       23.4521487502       22.5934971156       20.8738603150
H    1.0       24.4948313843       22.7612011522       20.5752320046
O    8.0       23.2059777394       21.2001122197       21.1540327236
C    6.0       23.0782858976       23.4579060155       22.1128227705
H    1.0       23.2095055835       24.5077930611       21.8201244653
O    8.0       23.9220185798       23.1887676693       23.2422703184
H    1.0       23.7603757301       22.2478173522       23.5058444369
C    6.0       21.5911195875       23.2556991718       22.4902191051
H    1.0       21.4541603222       22.2161266220       22.8191415775
O    8.0       21.2322192159       24.1528483940       23.5467813712
H    1.0       21.9742252596       24.1036185247       24.1898164483
C    6.0       20.6848691095       23.5035542852       21.2619956853
H    1.0       20.7106289577       24.5751951190       21.0240682202
C    6.0       21.1567053485       22.6990332370       20.0210324242
H    1.0       21.0220907846       21.6327476778       20.2329642145
O    8.0       22.5633041434       22.9711422076       19.7970389949
C    6.0       20.3770165624       22.9978409624       18.7141474394
H    1.0       19.5025330373       22.3375175351       18.6701087341
H    1.0       21.0153674484       22.7362171306       17.8597396294
O    8.0       19.9481612171       24.3599981715       18.6086434759
H    1.0       19.1333960590       24.4478720142       19.1558219231
C    6.0       24.9464995867       17.5821155247       22.0362896581
H    1.0       25.5791648486       16.7314283289       22.3207704083
O    8.0       23.7354500602       17.1554243768       21.3803190743
C    6.0       24.5771249672       18.4251759415       23.2832853848
H    1.0       25.5122846117       18.8256601040       23.6960845190
O    8.0       23.9151503587       17.6399823238       24.2879944066
H    1.0       23.9310916763       16.6994941268       23.9853478984
C    6.0       23.6795382086       19.6132132494       22.8789344113
H    1.0       22.7264511048       19.1968164765       22.5338563150
O    8.0       23.4559071891       20.4417009241       24.0237228441
H    1.0       23.2690266105       19.8063153140       24.7513834466
C    6.0       24.2927267273       20.4394005356       21.7196465532
H    1.0       25.0828343027       21.0834812203       22.1272327676
C    6.0       24.8704878926       19.5510928821       20.5790216190
H    1.0       24.0257210006       19.1410517701       20.0104970140
O    8.0       25.6481899595       18.4541831918       21.1258728103
C    6.0       25.7556241593       20.3274864439       19.5748513779
H    1.0       25.1088422853       20.9774679992       18.9702302945
H    1.0       26.2234428681       19.6066700991       18.8908920917
O    8.0       26.7576250486       21.1141053262       20.2309532479
H    1.0       27.3312479473       21.5063057443       19.5368162799
C    6.0       21.4198626816       13.8398376184       20.6539393776
H    1.0       20.9779447316       12.8762830089       20.3695861517
O    8.0       20.4029855449       14.8366065815       20.8991360149
C    6.0       22.3322263318       13.6938005889       21.9010002310
H    1.0       23.1609474795       13.0330124461       21.6146952818
O    8.0       21.6426370457       13.1089554961       23.0152270802
H    1.0       20.9379128068       13.7509136898       23.2842518582
C    6.0       22.9330081050       15.0642899495       22.2946003939
H    1.0       22.1129571139       15.7114306545       22.6363336530
O    8.0       23.8747187494       14.8715266825       23.3552508615
H    1.0       23.4562796168       14.2083019782       23.9501893573
C    6.0       23.6205164650       15.7519727743       21.0839940293
H    1.0       24.6018385996       15.2901230439       20.9171834796
C    6.0       22.7865281170       15.6652122281       19.7752629555
H    1.0       21.9466867306       16.3632499758       19.8644152507
O    8.0       22.2623259071       14.3280473503       19.5892004596
C    6.0       23.5747656336       16.0765677840       18.5069723046
H    1.0       23.7363741196       17.1624871463       18.5316397190
H    1.0       22.9532344491       15.8616333482       17.6276083863
O    8.0       24.8343925733       15.4036564877       18.3923038685
H    1.0       25.4540998966       15.8222226630       19.0274512732
C    6.0       19.5068168455       19.0494881276       25.8867876964
H    1.0       20.3379976567       19.7482582715       26.0481814068
H    1.0       18.7697800311       19.2090213306       26.6841828891
H    1.0       19.8948807830       18.0272020725       25.9848719763
C    6.0       18.8642831822       19.2652400604       24.5013018991
H    1.0       18.4573052207       20.2829244828       24.4457719110
H    1.0       18.0173978634       18.5765748768       24.3815458124
C    6.0       19.8857791982       19.0433677298       23.3662857490
H    1.0       20.7061153713       19.7644471767       23.4763650499
H    1.0       20.3264707460       18.0412708765       23.4640125220
C    6.0       19.2504377797       19.1974176117       21.9671103695
H    1.0       18.8972270703       20.2279278989       21.8380452906
H    1.0       18.3708970286       18.5469129887       21.8876039047
C    6.0       20.2555778376       18.8517395268       20.8480357980
H    1.0       21.1430246503       19.4860045055       20.9567646574
H    1.0       20.5943999540       17.8140656504       20.9668833036
C    6.0       19.6524043788       19.0461320217       19.4395944508
H    1.0       19.1753446458       20.0323772551       19.3764494950
H    1.0       18.8648294561       18.2990274776       19.2767122408
C    6.0       20.7283748462       18.9255989475       18.3363457880
H    1.0       21.5674425289       19.5956791510       18.5681358709
H    1.0       21.1337159931       17.9069060515       18.3211054368
C    6.0       20.1958219068       19.2844942421       16.9365056967
H    1.0       21.0177634861       19.2367582488       16.2171831948
H    1.0       19.8036890428       20.3048679922       16.9389080321
N    7.0       19.1002800016       18.3635735592       16.4386666947
H    1.0       19.3855060333       17.3803180903       16.4569201252
H    1.0       18.8306158614       18.5831522508       15.4744285902
H    1.0       18.2372093865       18.4460542176       17.0026189021
 $end
$$$$
! Edit this basic GAMESS input file as needed.
! Conformer was generated by a VeraChem VCPack run 
! and contains    155 atoms.
!
 $contrl scftyp=rhf runtyp=optimize nzvar=0
  maxit=200 icharg=0 $end
 $system mwords=50 $end
 $basis gbasis=pm3 $end
 $statpt nstep=200 $end
 $guess guess=huckel $end
 $data
FE Rank=2      G=584.231           E=373.594           -TS=210.636              
C1
C    6.0       16.3359267714       15.3153322394       20.2354367120
H    1.0       15.3410054650       15.1656923362       19.7964759527
O    8.0       16.4860793569       16.6444240866       20.7745615750
C    6.0       16.5983547519       14.2923897373       21.3702152944
H    1.0       16.5439669029       13.2903729858       20.9249804973
O    8.0       15.6119654073       14.3974631672       22.4093982649
H    1.0       15.5563944251       15.3505606525       22.6749752791
C    6.0       18.0197369681       14.4770511859       21.9544202384
H    1.0       18.0551707089       15.4577186218       22.4446184530
O    8.0       18.2672097592       13.4461344374       22.9168218776
H    1.0       17.4183706398       13.3486635521       23.4056191280
C    6.0       19.0969349630       14.4613794259       20.8354542025
H    1.0       19.2332454410       13.4350678694       20.4695572666
C    6.0       18.7119696576       15.3749214282       19.6394239532
H    1.0       18.7984642243       16.4193286198       19.9615762334
O    8.0       17.3476516852       15.1206061084       19.2275102737
C    6.0       19.6333382145       15.1882425598       18.4102356728
H    1.0       20.6360036283       15.5536809351       18.6676083213
H    1.0       19.2552043615       15.8139051680       17.5910726193
O    8.0       19.7094519921       13.8189760557       17.9941290924
H    1.0       20.2799837686       13.7794618797       17.1963770413
C    6.0       14.5819404095       20.2456259061       21.2242269644
H    1.0       13.9171863277       21.1168407892       21.2872727081
O    8.0       15.9746258233       20.6383020605       21.1896628296
C    6.0       14.3404239005       19.2649173017       22.4010878440
H    1.0       13.3292505597       18.8551579151       22.2780398333
O    8.0       14.4166436163       19.9155917755       23.6767915271
H    1.0       15.3304173009       20.2873895887       23.7592177154
C    6.0       15.3414462501       18.0892115437       22.3128070324
H    1.0       16.3524321567       18.4912950842       22.4480453955
O    8.0       15.0618508496       17.1388319219       23.3455120561
H    1.0       14.8767650544       17.6783277679       24.1462664302
C    6.0       15.2673706540       17.3995089756       20.9262345354
H    1.0       14.3811209148       16.7509950754       20.9218651346
C    6.0       15.1955182220       18.4002293568       19.7329174352
H    1.0       16.1967687704       18.8113068372       19.5717600164
O    8.0       14.2960741284       19.4988125803       20.0235198147
C    6.0       14.7591306896       17.7457893080       18.4002929928
H    1.0       14.6142989540       18.5373036834       17.6528467781
H    1.0       15.5766212709       17.1055096895       18.0419692865
O    8.0       13.5619082705       16.9713467246       18.5441760475
H    1.0       13.3035030637       16.6535180910       17.6515089504
C    6.0       18.5726296057       23.7949840023       21.9750274764
H    1.0       19.0175133909       24.7513856545       22.2757040148
O    8.0       19.4868669442       23.0080129905       21.1812772313
C    6.0       18.1532641405       22.9704863053       23.2203243769
H    1.0       17.4134848718       23.5676076443       23.7694663895
O    8.0       19.2655423574       22.6880619701       24.0852935828
H    1.0       19.9278150503       23.4062403544       23.9458241462
C    6.0       17.4837984628       21.6473842805       22.7896106886
H    1.0       18.2382621030       21.0468296682       22.2690324344
O    8.0       17.0404896605       20.9643290906       23.9636259119
H    1.0       17.7800036671       21.0824105096       24.6017501284
C    6.0       16.3090723640       21.8978452716       21.8109010239
H    1.0       15.4646274955       22.3150020048       22.3756135547
C    6.0       16.7113049849       22.8679066544       20.6642445776
H    1.0       17.4027131750       22.3399542088       19.9951134391
O    8.0       17.3789975999       24.0378165723       21.1992558038
C    6.0       15.5091837962       23.3359276040       19.8093728614
H    1.0       15.1552808641       22.4845939732       19.2120683992
H    1.0       15.8568906364       24.1057428462       19.1074800883
O    8.0       14.4366512906       23.8420260048       20.6145967111
H    1.0       13.7447038964       24.1845284297       20.0075536899
C    6.0       23.5987909430       22.7271926494       20.6740637607
H    1.0       24.6539649204       22.8645608312       20.4050107534
O    8.0       23.3334689522       21.3887018644       21.1481559860
C    6.0       23.1773311403       23.7274728957       21.7766391458
H    1.0       23.2848856965       24.7369445416       21.3584510245
O    8.0       24.0127350185       23.6157619116       22.9392275778
H    1.0       24.0961894416       22.6524960503       23.1567623055
C    6.0       21.6888512862       23.5259902252       22.1499668252
H    1.0       21.5819459785       22.5278687814       22.5966323549
O    8.0       21.3309773764       24.5274799425       23.1094463266
H    1.0       22.1264941578       24.6177150592       23.6833954746
C    6.0       20.7762301438       23.5951803722       20.8884097549
H    1.0       20.6687638632       24.6414705325       20.5736888217
C    6.0       21.3457467909       22.7639363593       19.7036154772
H    1.0       21.1901293703       21.7060704785       19.9330844603
O    8.0       22.7647351065       22.9920170249       19.5286115073
C    6.0       20.6343194239       23.0521682476       18.3602846875
H    1.0       19.5944859748       22.7069604879       18.4358427952
H    1.0       21.1203562314       22.4612433666       17.5726331911
O    8.0       20.6598581192       24.4452124551       18.0246418615
H    1.0       20.2245739528       24.5502971817       17.1509404826
C    6.0       25.1215903218       17.7011298603       21.7765231245
H    1.0       25.8023074455       16.8458227290       21.8760024907
O    8.0       23.7386464635       17.2911914151       21.7901228186
C    6.0       25.3374435652       18.7207060160       22.9236249943
H    1.0       26.3655117845       19.0959318191       22.8367280534
O    8.0       25.1732022906       18.1078708649       24.2116345606
H    1.0       24.3212829108       17.6023121959       24.1954105220
C    6.0       24.3775552870       19.9255123762       22.7659215886
H    1.0       23.3509807237       19.5689710409       22.9135106248
O    8.0       24.6888700404       20.9054222061       23.7597728241
H    1.0       24.8115512844       20.3937223221       24.5908250750
C    6.0       24.4894788357       20.5483159174       21.3495619076
H    1.0       25.4260407433       21.1197427681       21.3050855891
C    6.0       24.4767929135       19.4813613658       20.2186916125
H    1.0       23.4591642776       19.0826416459       20.1348730944
O    8.0       25.3783042352       18.3930370520       20.5365444296
C    6.0       24.8632689017       20.0524366945       18.8332565507
H    1.0       24.0495126637       20.7033860355       18.4858171638
H    1.0       24.9432008648       19.2206028141       18.1207544650
O    8.0       26.0904026222       20.7919082298       18.8765260503
H    1.0       26.2977897229       21.0783108758       17.9604171217
C    6.0       21.2113281754       14.0378826462       21.9933565931
H    1.0       20.7348336786       13.0556857384       22.1067469544
O    8.0       20.3217900530       14.9940362162       21.3795785638
C    6.0       21.6617151814       14.5793667149       23.3740738106
H    1.0       22.4053229132       13.8735646015       23.7669081646
O    8.0       20.5660006695       14.6710508947       24.3018115598
H    1.0       19.8050330719       14.1914120104       23.8899477520
C    6.0       22.3420051373       15.9578340074       23.2149376194
H    1.0       21.5826658644       16.6637108766       22.8639289862
O    8.0       22.8530804826       16.3767188698       24.4851717769
H    1.0       22.4353492101       15.7674741613       25.1313159042
C    6.0       23.4757708685       15.9228559934       22.1604219208
H    1.0       24.3525948528       15.4392391313       22.6108871515
C    6.0       23.0637487199       15.1768141144       20.8593015083
H    1.0       22.3713546662       15.8224136577       20.3039284053
O    8.0       22.3941142265       13.9294524603       21.1736244730
C    6.0       24.2575805759       14.8726981811       19.9229272540
H    1.0       24.6092206404       15.8186981892       19.4891871941
H    1.0       23.9019197263       14.2455420231       19.0944680133
O    8.0       25.3349125846       14.2254153229       20.6121850669
H    1.0       26.0257610586       14.0094986548       19.9483943818
C    6.0       19.1441232888       19.3632579929       17.7567451592
H    1.0       19.9294887181       19.9922581087       17.3184459826
H    1.0       19.3111148881       18.3297787721       17.4281138411
H    1.0       18.1799387714       19.6945867568       17.3499871749
C    6.0       19.1469265841       19.4623030987       19.2955082101
H    1.0       18.3342960982       18.8452230812       19.6939413811
H    1.0       18.9394546706       20.4973564124       19.5991803596
C    6.0       20.4877770820       18.9957949446       19.9022818749
H    1.0       20.6394311041       17.9281166282       19.6972316090
H    1.0       21.3124494316       19.5216031743       19.4047398253
C    6.0       20.5810783170       19.2454488601       21.4257508165
H    1.0       20.5132033372       20.3209530795       21.6370884094
H    1.0       21.5733132346       18.9267174698       21.7639998650
C    6.0       19.5078596319       18.4909635502       22.2412893121
H    1.0       18.5056765280       18.8423592095       21.9722460330
H    1.0       19.5435506761       17.4250912921       21.9883637626
C    6.0       19.7190511101       18.6644866357       23.7599879110
H    1.0       19.6422536413       19.7256762511       24.0331586014
H    1.0       20.7395358241       18.3575932804       24.0169325356
C    6.0       18.6914085377       17.8394266464       24.5692735297
H    1.0       17.7003695652       18.3037177192       24.4873539148
H    1.0       18.5983818591       16.8318634247       24.1462982894
C    6.0       19.0716231609       17.7097374566       26.0533710252
H    1.0       18.2607951235       17.2125309416       26.5922826920
H    1.0       19.2258729313       18.6987106770       26.4928681205
N    7.0       20.3290112935       16.8889785797       26.2553644295
H    1.0       20.2521347031       15.9753420913       25.7783916623
H    1.0       20.5251532868       16.7131448954       27.2459426340
H    1.0       21.1485730419       17.3555013948       25.8491473483
 $end
$$$$
! Edit this basic GAMESS input file as needed.
! Conformer was generated by a VeraChem VCPack run 
! and contains    155 atoms.
!
 $contrl scftyp=rhf runtyp=optimize nzvar=0
  maxit=200 icharg=0 $end
 $system mwords=50 $end
 $basis gbasis=pm3 $end
 $statpt nstep=200 $end
 $guess guess=huckel $end
 $data
FE Rank=3      G=584.758           E=377.742           -TS=207.016              
C1
C    6.0       16.3034095909       15.2229731876       20.6395217612
H    1.0       15.2592871113       15.0835391556       20.3312899674
O    8.0       16.5708063336       16.5935461370       21.0011636578
C    6.0       16.6638635506       14.2974806131       21.8314829838
H    1.0       16.5272100407       13.2634987737       21.4889067110
O    8.0       15.8122868582       14.5267616503       22.9644234351
H    1.0       15.9204834689       15.4760591292       23.2266206370
C    6.0       18.1491226583       14.4732844998       22.2301812229
H    1.0       18.2671970068       15.4840074230       22.6405281162
O    8.0       18.4830397976       13.5028379804       23.2281855367
H    1.0       17.7035691905       13.4779107164       23.8286794283
C    6.0       19.0921440145       14.3392275878       21.0027492711
H    1.0       19.1776024414       13.2827516942       20.7148806145
C    6.0       18.5933149109       15.1461196433       19.7735731431
H    1.0       18.7453106105       16.2138656646       19.9665732059
O    8.0       17.1877835390       14.8724843214       19.5550609097
C    6.0       19.3662810717       14.7723566378       18.4881529775
H    1.0       20.4424558390       14.7647677762       18.7068047307
H    1.0       19.0866771986       13.7553097545       18.1827660891
O    8.0       19.0959029161       15.7017690921       17.4325876804
H    1.0       19.3261524539       16.5979348749       17.7511033632
C    6.0       14.7955419562       20.2362406710       21.7543242200
H    1.0       14.1383225883       21.0839964857       21.9872768780
O    8.0       16.0782312604       20.6727444523       21.2604214143
C    6.0       15.0082590373       19.3594973658       23.0146429390
H    1.0       14.0269563499       18.9631902682       23.3066886300
O    8.0       15.5546178643       20.1172474555       24.1061966828
H    1.0       15.6973826694       21.0402967592       23.7818114506
C    6.0       15.9317050533       18.1655371727       22.6924903421
H    1.0       16.9253500050       18.5735959714       22.4764036628
O    8.0       16.0014554451       17.3037991887       23.8327122525
H    1.0       16.0856051466       17.9160997982       24.5982247438
C    6.0       15.4457685393       17.3756082372       21.4509943014
H    1.0       14.5988331350       16.7441470367       21.7509262086
C    6.0       15.0286075457       18.3000518454       20.2695989380
H    1.0       15.9442551385       18.7088029110       19.8228917902
O    8.0       14.2026731870       19.3966345129       20.7418740084
C    6.0       14.2659184321       17.5621939204       19.1432886128
H    1.0       14.9738103114       16.9130117873       18.6101542614
H    1.0       13.9003707441       18.3060940209       18.4227468662
O    8.0       13.1761336142       16.7811303094       19.6493035970
H    1.0       12.6899412707       16.4134886150       18.8791693671
C    6.0       18.4115289719       24.0176408661       20.6507528632
H    1.0       18.8439365711       24.9930504023       20.3935495343
O    8.0       19.4416559429       23.0411494688       20.9208578988
C    6.0       17.4475377910       24.1323855000       21.8631833762
H    1.0       16.6211815349       24.7850257808       21.5524611779
O    8.0       18.0816280303       24.7122925979       23.0123749035
H    1.0       18.7781342620       24.0729380517       23.3069574837
C    6.0       16.8507695343       22.7484658029       22.2143269400
H    1.0       17.6671755182       22.1039028446       22.5688568659
O    8.0       15.8731666230       22.9062457678       23.2474239918
H    1.0       16.2647927515       23.5577172388       23.8725409172
C    6.0       16.2092346879       22.0773024755       20.9716120878
H    1.0       15.2380817001       22.5469407937       20.7699399872
C    6.0       17.0978633045       22.1795076648       19.7012711308
H    1.0       17.9329965533       21.4856249474       19.8247128710
O    8.0       17.6216609912       23.5225315998       19.5474450097
C    6.0       16.3778177247       21.7653994805       18.3943894808
H    1.0       16.2575653911       20.6739453070       18.3919576504
H    1.0       17.0261468004       22.0206293508       17.5455521696
O    8.0       15.0988549548       22.3920174953       18.2412001340
H    1.0       14.4683996553       21.9266466009       18.8318603906
C    6.0       23.4052621340       22.5551830137       22.0633489396
H    1.0       24.4309169153       22.6923466343       22.4291554831
O    8.0       23.2459835078       21.2824794122       21.4022819370
C    6.0       22.3976086935       22.6544031030       23.2395735120
H    1.0       22.5250695765       23.6475967200       23.6896704998
O    8.0       22.6374045746       21.6487513492       24.2379869297
H    1.0       23.5612130325       21.3238570330       24.1093597269
C    6.0       20.9427643710       22.5370632765       22.7348027386
H    1.0       20.8075754486       21.5127857435       22.3740895820
O    8.0       20.0538038686       22.7800017289       23.8284424651
H    1.0       20.4381856692       22.2654981161       24.5739398619
C    6.0       20.6491871394       23.5066781359       21.5607153368
H    1.0       20.5401712436       24.5237988654       21.9595303238
C    6.0       21.7716850533       23.4805574019       20.4859426999
H    1.0       21.7126511766       22.5222913554       19.9546409873
O    8.0       23.0723440399       23.5925976718       21.1163348022
C    6.0       21.6393538085       24.5991671440       19.4249957060
H    1.0       20.7827878547       24.3653873557       18.7782535178
H    1.0       22.5375789829       24.5900719862       18.7930336443
O    8.0       21.4602245466       25.8909484859       20.0190581595
H    1.0       21.4683232464       26.5556525717       19.2961760525
C    6.0       25.1425137234       17.6367176772       21.0301245980
H    1.0       25.8050645325       16.7827268283       20.8385403553
O    8.0       23.7804505833       17.2150108433       21.2503367095
C    6.0       25.6275851581       18.4634540140       22.2482325878
H    1.0       26.6111248761       18.8750715302       21.9863880450
O    8.0       25.7658375788       17.6546592640       23.4256899174
H    1.0       24.8753600751       17.2671058798       23.6217726233
C    6.0       24.6712849833       19.6521452773       22.5112296049
H    1.0       23.7008255326       19.2445269380       22.8275736462
O    8.0       25.2218172042       20.4609205452       23.5569791632
H    1.0       25.5939512444       19.8188014507       24.2038910720
C    6.0       24.4455214268       20.4986692970       21.2257054597
H    1.0       25.3187661957       21.1420527395       21.0539475968
C    6.0       24.2106206867       19.6298163797       19.9566490283
H    1.0       23.1910208875       19.2279474414       19.9910206268
O    8.0       25.1533261023       18.5304769545       19.8986503254
C    6.0       24.3535108060       20.4398396272       18.6489670030
H    1.0       23.6534254553       21.2853398901       18.6717248803
H    1.0       24.0725591124       19.7985852444       17.8028478468
O    8.0       25.6915662830       20.9178323989       18.4856922288
H    1.0       26.2735433361       20.1294469680       18.5667577261
C    6.0       21.3330664923       13.9717259018       21.9234524165
H    1.0       20.8780465693       12.9975468306       22.1441723335