$$$$
! Edit this basic GAMESS input file as needed.
! Conformer was generated by a VeraChem VCPack run 
! and contains    152 atoms.
!
 $contrl scftyp=rhf runtyp=optimize nzvar=0
  maxit=200 icharg=0 $end
 $system mwords=50 $end
 $basis gbasis=pm3 $end
 $statpt nstep=200 $end
 $guess guess=huckel $end
 $data
FE Rank=1      G=604.427           E=401.695           -TS=202.732              
C1
C    6.0       16.4312658549       15.3988048891       20.5131317709
H    1.0       15.4276494762       15.2139036220       20.1089990793
O    8.0       16.6019876438       16.7834710699       20.8813227016
C    6.0       16.7157048393       14.4924665377       21.7453009819
H    1.0       16.6544171141       13.4528727587       21.3978860178
O    8.0       15.7533319458       14.6814974462       22.7928497051
H    1.0       15.8220508155       15.6249320987       23.0863092565
C    6.0       18.1516493218       14.7288584832       22.2746337359
H    1.0       18.2192921511       15.7595599430       22.6492031604
O    8.0       18.4389902734       13.8069897686       23.3315932788
H    1.0       17.6286801857       13.7943481121       23.8887562402
C    6.0       19.1756390224       14.5550625630       21.1278251521
H    1.0       19.2053121267       13.4948149893       20.8432134935
C    6.0       18.7983101682       15.3959844033       19.8800415818
H    1.0       18.8796931829       16.4581552267       20.1400532658
O    8.0       17.4293613784       15.0950791593       19.5111520798
C    6.0       19.7135786886       15.1594201211       18.6504869491
H    1.0       20.5620606066       15.8508272799       18.7129734866
H    1.0       19.1549470760       15.4221988836       17.7423004328
O    8.0       20.2033773019       13.8160942819       18.5558309558
H    1.0       20.8733875731       13.6964361104       19.2682849359
C    6.0       14.6819436028       20.3391172025       21.6141604188
H    1.0       14.0075035872       21.1794867860       21.8231877026
O    8.0       15.9894639564       20.7848121473       21.1995048589
C    6.0       14.8343121319       19.4391575785       22.8653901450
H    1.0       13.8499230451       19.0031456221       23.0805224954
O    8.0       15.2807577140       20.1819460351       24.0107906760
H    1.0       15.5141818469       21.0917417429       23.7016096853
C    6.0       15.8162571917       18.2863938970       22.5697631090
H    1.0       16.8019880293       18.7331546842       22.3998336782
O    8.0       15.8705799586       17.4148802412       23.7025274495
H    1.0       15.8960842655       18.0208260753       24.4776283874
C    6.0       15.4204052796       17.5011295744       21.2937214655
H    1.0       14.5911121588       16.8255654460       21.5420158090
C    6.0       15.0169997448       18.4301332293       20.1096226696
H    1.0       15.9362861940       18.8648005250       19.6963040478
O    8.0       14.1519971674       19.5061383882       20.5615915013
C    6.0       14.3105864036       17.6853885401       18.9517950631
H    1.0       15.0514823715       17.0589804008       18.4368425798
H    1.0       13.9505995520       18.4273106684       18.2263961770
O    8.0       13.2246386907       16.8727523686       19.4139535269
H    1.0       12.7732893246       16.5008058191       18.6248421128
C    6.0       18.4329837051       24.0664297673       20.7743613772
H    1.0       18.9026694309       25.0359599748       20.5649134795
O    8.0       19.4238754906       23.0427712833       21.0191679005
C    6.0       17.4577415672       24.1655438509       21.9787715875
H    1.0       16.6640688846       24.8669043615       21.6897362516
O    8.0       18.1014059453       24.6619401579       23.1614607589
H    1.0       18.7772151536       23.9873465137       23.4245455009
C    6.0       16.7986900101       22.7940904945       22.2592184499
H    1.0       17.5812018458       22.1051802138       22.6067592542
O    8.0       15.8042853742       22.9517080340       23.2751306459
H    1.0       16.2077710317       23.5587606093       23.9364575997
C    6.0       16.1597247325       22.1961987693       20.9782140301
H    1.0       15.2057506462       22.7007680026       20.7790270223
C    6.0       17.0766255532       22.3194476407       19.7312390217
H    1.0       17.8901654289       21.5971248882       19.8479815926
O    8.0       17.6433163304       23.6489288947       19.6407508184
C    6.0       16.3678365158       21.9811351766       18.3964379122
H    1.0       16.1988251328       20.8969806036       18.3537600385
H    1.0       17.0445491359       22.2358376551       17.5700265371
O    8.0       15.1216068038       22.6698510565       18.2392942350
H    1.0       14.4561520469       22.2086307765       18.7936507562
C    6.0       23.3922724350       22.4870320309       22.1326288015
H    1.0       24.4180358139       22.6160036902       22.5002190197
O    8.0       23.2268206362       21.2260573888       21.4529325690
C    6.0       22.3865612158       22.5556979567       23.3109193096
H    1.0       22.5129404255       23.5361617149       23.7883541438
O    8.0       22.6348224614       21.5212312977       24.2777329581
H    1.0       23.5795638540       21.2532096756       24.1781622107
C    6.0       20.9329904852       22.4495418846       22.7980595386
H    1.0       20.7998793987       21.4423661199       22.3910673446
O    8.0       20.0378215626       22.6486459538       23.8957018576
H    1.0       20.4232266648       22.1109229243       24.6240039930
C    6.0       20.6457956248       23.4629410293       21.6621734395
H    1.0       20.5590333003       24.4666406485       22.0989219598
C    6.0       21.7602155827       23.4560594181       20.5788422287
H    1.0       21.6903090868       22.5127894209       20.0215102920
O    8.0       23.0644963590       23.5427200799       21.2048701789
C    6.0       21.6330889677       24.6070610273       19.5521842699
H    1.0       20.7683423246       24.4034663446       18.9061727986
H    1.0       22.5256131422       24.6053288602       18.9122293718
O    8.0       21.4761043193       25.8831077234       20.1856521555
H    1.0       21.4886704657       26.5686589020       19.4824732095
C    6.0       25.2117543941       17.6281978088       21.0471320395
H    1.0       25.8873551855       16.7907878643       20.8297401046
O    8.0       23.8834192234       17.1796768987       21.3813800723
C    6.0       25.7365012090       18.4900728670       22.2220901342
H    1.0       26.6906456580       18.9297448410       21.9034420923
O    8.0       25.9588386020       17.7014541635       23.4009923951
H    1.0       25.1253480737       17.1983752747       23.5854633420
C    6.0       24.7517095785       19.6487025240       22.5174529499
H    1.0       23.8145960305       19.2126928710       22.8906798409
O    8.0       25.3216140523       20.4927132163       23.5240435029
H    1.0       25.7486812616       19.8739366865       24.1597291010
C    6.0       24.4276374087       20.4588231583       21.2277183620
H    1.0       25.2755142191       21.1104815625       20.9775528438
C    6.0       24.1215062442       19.5521340734       20.0038993886
H    1.0       23.1329945469       19.1031621400       20.1420039777
O    8.0       25.1158247236       18.5034378297       19.9035446483
C    6.0       24.1136399714       20.3551397277       18.6818550703
H    1.0       25.1486458831       20.4775606133       18.3353186646
H    1.0       23.7099951502       21.3592494362       18.8701046473
O    8.0       23.3183688065       19.7043920828       17.6839056717
H    1.0       23.6651162091       19.9868307171       16.8094042313
C    6.0       21.4019322241       13.9800781034       21.9107411700
H    1.0       20.9099953542       13.0107319376       22.0645428607
O    8.0       20.4496154663       15.0178720973       21.6059552415
C    6.0       22.1693870998       14.3842498383       23.1903149877
H    1.0       22.9375982128       13.6212087834       23.3715192520
O    8.0       21.2788794955       14.4432980688       24.3168012889
H    1.0       20.3575936499       14.3915255450       23.9605502894
C    6.0       22.8755946440       15.7435721021       22.9947326037
H    1.0       22.1008965080       16.5131741660       22.9197257448
O    8.0       23.6998752302       16.0159832678       24.1309231781
H    1.0       23.1434599695       15.7794391030       24.9066844667
C    6.0       23.7171864840       15.7855101806       21.6940366565
H    1.0       24.6748270562       15.2795150941       21.8749281225
C    6.0       22.9923282520       15.1575868161       20.4690961086
H    1.0       22.2279012488       15.8723048447       20.1413641118
O    8.0       22.3449977510       13.9079540086       20.8220360752
C    6.0       23.9260036306       14.9092028281       19.2607729861
H    1.0       24.2158841008       15.8814853926       18.8389622067
H    1.0       23.3627385222       14.3724136005       18.4855654114
O    8.0       25.0971655512       14.1702294973       19.6288416483
H    1.0       25.6063755571       13.9905164383       18.8085015961
N    7.0       20.3609828738       19.6718408414       17.2515250321
H    1.0       21.3605337236       19.9025965186       17.4169816777
H    1.0       20.0295311789       20.3436244349       16.5428102936
C    6.0       19.5709317351       19.8314139414       18.5367172112
H    1.0       18.6167649234       19.3123467312       18.4166543712
H    1.0       19.3742770353       20.8976778814       18.6711170108
C    6.0       20.3216606520       19.3054434785       19.7708427406
H    1.0       20.7083004426       18.2978598247       19.5708114646
H    1.0       21.1864988903       19.9561419285       19.9430410034
C    6.0       19.4549544290       19.2798946420       21.0468422366
H    1.0       18.5489483235       18.6855316807       20.8733704714
H    1.0       19.1246462793       20.2971930685       21.2936220043
C    6.0       20.2548513867       18.6854794240       22.2279515622
H    1.0       20.4847348719       17.6366466284       22.0088202978
H    1.0       21.2190236423       19.2049546640       22.3207692706
C    6.0       19.4986626782       18.7733494285       23.5704735000
H    1.0       18.6037466301       18.1402271163       23.5348774483
H    1.0       19.1584794908       19.8042736000       23.7426555309
C    6.0       20.3824820227       18.3241656395       24.7526171319
H    1.0       19.8396805713       18.4264904337       25.7008909681
H    1.0       21.2941248254       18.9331425868       24.8190907081
H    1.0       20.6774248970       17.2724502198       24.6487021760
C    6.0       20.2401042045       18.2506941723       16.7187622860
H    1.0       20.7868118421       18.1769516490       15.7761195602
H    1.0       20.6701671135       17.5598314453       17.4452228125
H    1.0       19.1863091785       18.0153390571       16.5553370632
 $end
$$$$
! Edit this basic GAMESS input file as needed.
! Conformer was generated by a VeraChem VCPack run 
! and contains    152 atoms.
!
 $contrl scftyp=rhf runtyp=optimize nzvar=0
  maxit=200 icharg=0 $end
 $system mwords=50 $end
 $basis gbasis=pm3 $end
 $statpt nstep=200 $end
 $guess guess=huckel $end
 $data
FE Rank=2      G=605.102           E=400.765           -TS=204.337              
C1
C    6.0       16.5099872402       15.4190178956       21.9107791706
H    1.0       15.4616014874       15.3620165662       22.2290587767
O    8.0       16.8153461112       16.7028621847       21.3269102706
C    6.0       17.4417638922       15.1880269037       23.1260121570
H    1.0       17.1837733681       14.2062987540       23.5444635197
O    8.0       17.2566786840       16.2008157036       24.1339542363
H    1.0       16.3367533231       16.5436731328       24.0221219017
C    6.0       18.9244986075       15.1556490805       22.6947770782
H    1.0       19.2054422114       16.1736745658       22.4017107928
O    8.0       19.7056588107       14.7310191686       23.8133934494
H    1.0       19.2770686136       15.1364712857       24.5968799224
C    6.0       19.1864620217       14.2332923648       21.4773073953
H    1.0       19.2231482557       13.1897651282       21.8170570948
C    6.0       18.1136343092       14.3973279359       20.3656489066
H    1.0       18.2824137615       15.3620882185       19.8706933848
O    8.0       16.7839862695       14.3895303954       20.9381264990
C    6.0       18.1887329238       13.3038184623       19.2734522548
H    1.0       19.0951525838       13.4715727319       18.6760767776
H    1.0       17.3278516635       13.4208724376       18.6015285020
O    8.0       18.2124166609       11.9828000377       19.8289525943
H    1.0       18.1842192403       11.3450135860       19.0825695406
C    6.0       14.8737348660       20.3341958155       20.6950168387
H    1.0       14.1873472763       21.1376363738       20.3977660883
O    8.0       16.1398891139       20.8512702576       21.1483697174
C    6.0       14.2655146643       19.4694890166       21.8296622604
H    1.0       13.3501576956       19.0088737375       21.4357195791
O    8.0       13.9319290762       20.2679104437       22.9760642692
H    1.0       14.7294578188       20.8090009000       23.2063330649
C    6.0       15.2400344931       18.3326667279       22.2247359457
H    1.0       16.1350942308       18.7980342798       22.6542380904
O    8.0       14.6203504019       17.4994990765       23.2112906361
H    1.0       14.1478973121       18.1238946860       23.8074988949
C    6.0       15.6686501515       17.5070647485       20.9774160488
H    1.0       14.8292225341       16.8800555805       20.6484212174
C    6.0       16.1050592882       18.4156733806       19.7951135287
H    1.0       17.0692086050       18.8724467288       20.0490859341
O    8.0       15.1284139225       19.4630429758       19.5749760559
C    6.0       16.2929988819       17.6402548962       18.4694373721
H    1.0       17.1473382585       16.9609153108       18.5824391009
H    1.0       16.5451025859       18.3571549833       17.6766872643
O    8.0       15.1252233800       16.8911948217       18.1105842180
H    1.0       15.2986603882       16.4613292025       17.2454145480
C    6.0       18.3751829788       24.2189306719       21.7389330922
H    1.0       18.8126619944       25.2143648994       21.8890325800
O    8.0       19.3843199142       23.2056428624       21.5626349576
C    6.0       17.5160525896       23.8274315308       22.9630726044
H    1.0       16.6811056210       24.5372126281       23.0288893329
O    8.0       18.2927056428       23.8887221727       24.1703049054
H    1.0       19.2440583083       23.8057641420       23.9104783310
C    6.0       16.9333067366       22.4108022082       22.7695532742
H    1.0       17.7712740205       21.7063702874       22.7807367102
O    8.0       16.0429625817       22.1068631640       23.8467371910
H    1.0       16.5123900124       22.4135391532       24.6549481929
C    6.0       16.2022611319       22.2659806965       21.4112486130
H    1.0       15.2049757841       22.7160781082       21.5047124135
C    6.0       16.9740515146       22.9054573226       20.2183925583
H    1.0       17.8009860793       22.2323766250       19.9601132709
O    8.0       17.5222392611       24.2014197545       20.5763462592
C    6.0       16.1120471208       23.0708674358       18.9443283213
H    1.0       15.9101781769       22.0747020035       18.5276628857
H    1.0       16.6940894558       23.6257305633       18.1962225891
O    8.0       14.8762198010       23.7439634339       19.2137897538
H    1.0       14.4167074770       23.8785275456       18.3562570897
C    6.0       23.4468452671       22.6733943720       20.8817707203
H    1.0       24.5038206593       22.8007149689       20.6153118298
O    8.0       23.1230694694       21.2777161471       21.0781790195
C    6.0       23.0879842196       23.5001589520       22.1513582127
H    1.0       23.2720672546       24.5543389486       21.9063462912
O    8.0       23.8944589363       23.1466673099       23.2843068430
H    1.0       23.6562240733       22.2156400185       23.5232407587
C    6.0       21.5867168256       23.3511707991       22.4942529473
H    1.0       21.4030965189       22.3082859310       22.7849252156
O    8.0       21.2470760890       24.2213198947       23.5785833495
H    1.0       21.9802267899       24.1238000873       24.2266598426
C    6.0       20.7072717399       23.6781413170       21.2639965733
H    1.0       20.7346226167       24.7618444961       21.0896065659
C    6.0       21.1851093813       22.9412630165       19.9846970148
H    1.0       21.0034747796       21.8712524853       20.1256370302
O    8.0       22.6068982093       23.1613789612       19.8095334398
C    6.0       20.4399233848       23.3479612563       18.6861570103
H    1.0       19.5722288318       22.6876430213       18.5628661316
H    1.0       21.1027415331       23.1640179917       17.8300612585
O    8.0       20.0008023786       24.7114923571       18.6849093257
H    1.0       19.2019813633       24.7587113854       19.2592006768
C    6.0       24.7712967050       17.5842246860       22.0561230995
H    1.0       25.4180498846       16.7664199621       22.3991195224
O    8.0       23.6237560434       17.0879981131       21.3394041639
C    6.0       24.2903957019       18.4314068429       23.2624755511
H    1.0       25.1864117435       18.8328860407       23.7536072320
O    8.0       23.5452213242       17.6463721908       24.2073981910
H    1.0       23.7461915891       16.6971796738       24.0234685899
C    6.0       23.4261426907       19.6186207403       22.7869390520
H    1.0       22.5070496165       19.2049112047       22.3563480090
O    8.0       23.1113124267       20.4385263469       23.9163029635
H    1.0       22.9354408962       19.7965933913       24.6410357143
C    6.0       24.1348286016       20.4461129874       21.6869600135
H    1.0       24.9349342339       21.0382834289       22.1497968978
C    6.0       24.7334067972       19.5407476581       20.5737112441
H    1.0       23.9025060472       19.1193078508       19.9929027020
O    8.0       25.4979911595       18.4585490295       21.1660106100
C    6.0       25.6472960760       20.3004303442       19.5825058176
H    1.0       25.0186392285       20.9452405354       18.9536396340
H    1.0       26.1293975501       19.5690271200       18.9200744975
O    8.0       26.6353292052       21.0921100085       20.2540018596
H    1.0       27.2284422822       21.4722543512       19.5696698067
C    6.0       21.4629939856       13.6697332478       20.6839754455
H    1.0       21.0329472454       12.6944047210       20.4220677647
O    8.0       20.4355148169       14.6643037387       20.8992619789
C    6.0       22.3920452848       13.5686407311       21.9227106026
H    1.0       23.2541467129       12.9575324961       21.6245405339
O    8.0       21.7529696054       12.9325641769       23.0374450957
H    1.0       21.0124394398       13.5254988085       23.3189714047
C    6.0       22.9215368280       14.9722200704       22.3062842973
H    1.0       22.0681383606       15.5857623635       22.6260044110
O    8.0       23.8545493767       14.8439486235       23.3847317283
H    1.0       23.4681087101       14.1574057153       23.9746680052
C    6.0       23.5925389312       15.6687666204       21.0889551580
H    1.0       24.6022222562       15.2604218039       20.9558507932
C    6.0       22.7971600430       15.4992019337       19.7636458801
H    1.0       21.9392197193       16.1789593554       19.8074751939
O    8.0       22.3030484205       14.1448973478       19.6121266954
C    6.0       23.6120711199       15.8781533955       18.5020600761
H    1.0       23.7720669220       16.9648154259       18.5009132365
H    1.0       23.0102971516       15.6375233039       17.6156576051
O    8.0       24.8741259124       15.2033032373       18.4329035868
H    1.0       25.4823795919       15.6422216709       19.0652403955
N    7.0       19.6610396870       17.7651640833       25.0617707578
H    1.0       18.8497543550       17.1537519127       24.8441513283
H    1.0       19.2818942499       18.5194339178       25.6527679590
C    6.0       20.2218494178       18.3407148052       23.7792061140
H    1.0       20.6265655588       17.5167234355       23.1864532131
H    1.0       21.0417670255       19.0127700488       24.0412821318
C    6.0       19.1540863615       19.1018513356       22.9784574605
H    1.0       18.3070573323       18.4363822455       22.7791412601
H    1.0       18.7712331340       19.9180178469       23.6032691719
C    6.0       19.6724387299       19.6813649879       21.6445191069
H    1.0       20.5491545884       20.3143975315       21.8306197276
H    1.0       18.8967133392       20.3428610031       21.2375189132
C    6.0       20.0078319461       18.5969703034       20.5919850623
H    1.0       20.8709053273       18.0023172852       20.9205396903
H    1.0       19.1633166970       17.9008841024       20.5040105786
C    6.0       20.2980619996       19.2312345633       19.2115663806
H    1.0       21.2413800776       19.7931673077       19.2550529397
H    1.0       19.5072926885       19.9531640666       18.9646611261
C    6.0       20.3767688320       18.1869626359       18.0790377020
H    1.0       21.2259262731       17.5121884599       18.2191678513
H    1.0       20.5053786532       18.6818828613       17.1076900223
H    1.0       19.4628242577       17.5823141044       18.0292847225
C    6.0       20.7541520848       17.0084436282       25.8031080329
H    1.0       21.5616899064       17.7006906867       26.0518503393
H    1.0       20.3390057489       16.5779532011       26.7167257072
H    1.0       21.1434076051       16.2158645110       25.1601072936
 $end
$$$$
! Edit this basic GAMESS input file as needed.
! Conformer was generated by a VeraChem VCPack run 
! and contains    152 atoms.
!
 $contrl scftyp=rhf runtyp=optimize nzvar=0
  maxit=200 icharg=0 $end
 $system mwords=50 $end
 $basis gbasis=pm3 $end
 $statpt nstep=200 $end
 $guess guess=huckel $end
 $data
FE Rank=3      G=605.866           E=400.974           -TS=204.892              
C1
C    6.0       16.1304937242       15.1245778912       21.6250212376
H    1.0       15.0583457509       14.9493665961       21.7810842417
O    8.0       16.4052352401       16.4961393637       21.2669716660
C    6.0       16.9244110559       14.7725910986       22.9085818439
H    1.0       16.7833530961       13.7004762597       23.0983859323
O    8.0       16.4562573533       15.5153430601       24.0451373351
H    1.0       15.9010729763       16.2600850489       23.7042256535
C    6.0       18.4327433619       15.0236492538       22.6938724894
H    1.0       18.5695981225       16.1029641074       22.5647381726
O    8.0       19.1526889336       14.5853037333       23.8485983376
H    1.0       18.6026154255       14.8851519656       24.6072795077
C    6.0       18.9576115215       14.3015083964       21.4265264923
H    1.0       19.0695455161       13.2333980870       21.6560679573
C    6.0       18.0209080922       14.4892727586       20.1971609997
H    1.0       18.1379509616       15.5192424822       19.8370446588
O    8.0       16.6351893266       14.2780778158       20.5707465832
C    6.0       18.3568166387       13.5523550348       19.0122549347
H    1.0       19.2975141985       13.8899169290       18.5565246778
H    1.0       17.5710265555       13.6546014637       18.2517940148
O    8.0       18.4790470277       12.1844476945       19.4215064271
H    1.0       18.6052482736       11.6413262070       18.6129736288
C    6.0       14.7386622151       20.2133917236       20.6063890780
H    1.0       14.1166991410       21.0805779081       20.3500279786
O    8.0       16.1165853567       20.6007204813       20.8080396769
C    6.0       14.1856108995       19.4799133750       21.8593684700
H    1.0       13.1895454246       19.1024640597       21.5932919680
O    8.0       14.0564972982       20.3514862476       22.9918879502
H    1.0       14.9747813391       20.6138058503       23.2532765534
C    6.0       15.0730716165       18.2624023515       22.2100102139
H    1.0       16.0618420217       18.6353105335       22.5102397363
O    8.0       14.4791365338       17.5400927513       23.2924007261
H    1.0       14.1624897312       18.2302925002       23.9179700807
C    6.0       15.2596233569       17.3273582929       20.9879934734
H    1.0       14.3461819521       16.7356869790       20.8428149961
C    6.0       15.5742570248       18.0997781790       19.6767951263
H    1.0       16.6127016573       18.4399805922       19.7281398373
O    8.0       14.7086893207       19.2545359697       19.5286248010
C    6.0       15.4434295188       17.2194291610       18.4114773997
H    1.0       16.2231061890       16.4466787083       18.4436400517
H    1.0       15.6347382618       17.8435374243       17.5283553652
O    8.0       14.1537500011       16.6017786090       18.3153791856
H    1.0       14.1319614322       16.0836710267       17.4815964894
C    6.0       18.5827940758       23.7919274671       21.8608594616
H    1.0       18.9741083667       24.7532349386       22.2169857398
O    8.0       19.6011370119       23.0307782697       21.1758734899
C    6.0       18.0230862982       22.9643924946       23.0496139521
H    1.0       17.2403725961       23.5722443041       23.5220668404
O    8.0       19.0346692797       22.6599450595       24.0236596725
H    1.0       19.7191416526       23.3684485804       23.9611831517
C    6.0       17.3796312970       21.6496819204       22.5593564881
H    1.0       18.1768107036       21.0220229029       22.1511857665
O    8.0       16.7701357949       20.9967058786       23.6763758196
H    1.0       17.4224537336       21.1050284251       24.4052061158
C    6.0       16.3537497901       21.8854830650       21.4262108735
H    1.0       15.4394388752       22.3138535475       21.8573957577
C    6.0       16.9140453589       22.8361009070       20.3307773317
H    1.0       17.6957634229       22.3007110102       19.7784951572
O    8.0       17.4956057468       24.0181563068       20.9374478631
C    6.0       15.8487565781       23.2845046427       19.3019496025
H    1.0       16.2923151790       24.0473842378       18.6481558111
H    1.0       15.5907791551       22.4233471007       18.6707288975
O    8.0       14.6673439991       23.7941828459       19.9331429358
H    1.0       14.0740836033       24.1319652269       19.2270425081
C    6.0       23.7363315380       22.8262546366       21.0161697939
H    1.0       24.8137516385       22.9671162000       20.8602003783
O    8.0       23.4135543488       21.4540338535       21.3258735831
C    6.0       23.2092176923       23.7327773522       22.1554036087
H    1.0       23.3474791523       24.7722579343       21.8300115111
O    8.0       23.9349435911       23.5329419859       23.3773929202
H    1.0       23.8988847409       22.5660927528       23.5908709136
C    6.0       21.6931183662       23.5028633439       22.3728054107
H    1.0       21.5521418259       22.4781265076       22.7428807595
O    8.0       21.2329462033       24.4419607662       23.3511844851
H    1.0       21.9622524812       24.4951444026       24.0109451019
C    6.0       20.8989989232       23.6553429501       21.0416216315
H    1.0       20.7994926721       24.7234167463       20.8109443737
C    6.0       21.5890719094       22.9417219439       19.8424271927
H    1.0       21.4375387566       21.8617504605       19.9539150526
O    8.0       23.0130406122       23.2046660323       19.8275008729
C    6.0       21.0015094585       23.3459020578       18.4670859063
H    1.0       19.9775170423       22.9572030797       18.3914104425
H    1.0       21.5929977111       22.8588860563       17.6805011132
O    8.0       20.9924698501       24.7644624952       18.2650051186
H    1.0       20.2683600940       25.1392012861       18.8104141258
C    6.0       24.9288857337       17.7140025788       22.0997398642
H    1.0       25.5266849559       16.8221161592       22.3288210176
O    8.0       23.5907770660       17.3670763201       21.6956398974
C    6.0       24.8369114507       18.6194484408       23.3490710193
H    1.0       25.8575974037       18.9266137513       23.6118165211
O    8.0       24.2507660837       17.9066764166       24.4512025946
H    1.0       24.1013532586       16.9782101326       24.1476980119
C    6.0       24.0098767705       19.8859896123       23.0389211843
H    1.0       22.9791026272       19.5691508820       22.8634417596
O    8.0       24.0501213975       20.7594894818       24.1691489809
H    1.0       23.9536475750       20.1627990860       24.9452845797
C    6.0       24.5012311173       20.6124325149       21.7614271183
H    1.0       25.4018364046       21.1896417692       22.0096598841
C    6.0       24.7920807775       19.6367260236       20.5841662268
H    1.0       23.8262891781       19.3053186109       20.1835512566
O    8.0       25.5348231932       18.4740286788       21.0338055009
C    6.0       25.5658667494       20.2954991193       19.4175329836
H    1.0       24.8989711548       21.0107843534       18.9170987121
H    1.0       25.8226374044       19.5198500352       18.6835079756
O    8.0       26.7484565625       20.9680226877       19.8674591298
H    1.0       27.2235193599       21.2986632289       19.0739699668
C    6.0       21.3028194387       14.0367744874       20.7303490864
H    1.0       20.9326853335       13.0710608082       20.3627219637
O    8.0       20.2183273594       14.9172729937       21.0960550843
C    6.0       22.2361815760       13.8504039592       21.9590679446
H    1.0       23.0924717370       13.2473971399       21.6300677242
O    8.0       21.5717664341       13.1706086073       23.0350395032
H    1.0       20.7663594041       13.6990011935       23.2662286841
C    6.0       22.7717605652       15.2205803878       22.4394640924