$$$$
! Edit this basic GAMESS input file as needed.
! Conformer was generated by a VeraChem VCPack run 
! and contains    155 atoms.
!
 $contrl scftyp=rhf runtyp=optimize nzvar=0
  maxit=200 icharg=0 $end
 $system mwords=50 $end
 $basis gbasis=pm3 $end
 $statpt nstep=200 $end
 $guess guess=huckel $end
 $data
FE Rank=1      G=559.899           E=351.566           -TS=208.334              
C1
C    6.0       16.4077235110       15.2545420463       21.9104276179
H    1.0       15.3716544147       15.1183148812       22.2455178055
O    8.0       16.6174432383       16.5688562704       21.3558524883
C    6.0       17.3886906187       15.0434215882       23.0922968046
H    1.0       17.2388848026       14.0180134722       23.4547352733
O    8.0       17.1353083353       15.9626364110       24.1665615279
H    1.0       16.2151101155       16.3000610490       24.0481949483
C    6.0       18.8552573746       15.1784459830       22.6242287698
H    1.0       19.0263590421       16.2204535162       22.3304273834
O    8.0       19.7130838141       14.8436574710       23.7178984223
H    1.0       19.3339787169       15.3337083956       24.4825426013
C    6.0       19.1494120266       14.2826227694       21.3938772930
H    1.0       19.2342954719       13.2391836938       21.7250773800
C    6.0       18.0499219964       14.4033739291       20.3017142789
H    1.0       18.1428039261       15.3924326828       19.8351668750
O    8.0       16.7324827513       14.2826543767       20.8941498587
C    6.0       18.1825050101       13.3518138192       19.1741861921
H    1.0       19.0616097189       13.6037419136       18.5655807228
H    1.0       17.3020094858       13.4246719733       18.5218466768
O    8.0       18.3139586702       12.0205017447       19.6881445308
H    1.0       18.3112797450       11.4038299651       18.9237826459
C    6.0       14.6411397131       20.2316558893       21.2079926523
H    1.0       13.9142555110       21.0388667324       21.0517394152
O    8.0       15.9388938798       20.7398016581       21.5739783178
C    6.0       14.1788103505       19.3091218499       22.3602814189
H    1.0       13.1946953400       18.9068590143       22.0867313520
O    8.0       14.0658468826       20.0543203362       23.5839651907
H    1.0       14.7988728695       20.7189830031       23.5850241322
C    6.0       15.1506602745       18.1166180496       22.5463752012
H    1.0       16.0989054889       18.5122405814       22.9347890370
O    8.0       14.5783462122       17.2121805324       23.4972602174
H    1.0       14.1980558629       17.7910317864       24.1969812980
C    6.0       15.4463203063       17.3962970193       21.1983895714
H    1.0       14.5753179095       16.8017631897       20.8920417545
C    6.0       15.7860193430       18.4006641046       20.0675869133
H    1.0       16.7614397670       18.8491118474       20.2832809581
O    8.0       14.7642168041       19.4226549695       20.0217511234
C    6.0       15.8586403205       17.7277778249       18.6786034211
H    1.0       16.3704357884       16.7609590087       18.7726322801
H    1.0       14.8390992639       17.5297613234       18.3217640761
O    8.0       16.5688085528       18.5572743563       17.7519125833
H    1.0       16.4943338366       18.1444724364       16.8660758688
C    6.0       18.3359891004       24.1123061922       21.2419807557
H    1.0       18.7269133517       25.1270575114       21.0951165653
O    8.0       19.3934841396       23.1470846324       21.4244772967
C    6.0       17.4245867331       24.0666438478       22.4939983088
H    1.0       16.5891822431       24.7575882605       22.3212883881
O    8.0       18.1412694875       24.4768192322       23.6694845540
H    1.0       19.0699786880       24.1423619545       23.5831171308
C    6.0       16.8396189466       22.6481526536       22.6828423461
H    1.0       17.6706462850       21.9707185299       22.9141501084
O    8.0       15.9035110784       22.6480694588       23.7662611269
H    1.0       16.3424637577       23.1606873769       24.4810918664
C    6.0       16.1471081171       22.1525365348       21.3899110599
H    1.0       15.2002289033       22.6972728754       21.2802046614
C    6.0       17.0262708567       22.3644370546       20.1238435527
H    1.0       17.8655152057       21.6593951617       20.1632169330
O    8.0       17.5441347120       23.7166808563       20.1039831133
C    6.0       16.2771268975       22.1269605907       18.7907532612
H    1.0       16.1128377871       21.0498128795       18.6660740621
H    1.0       16.9230863805       22.4493839949       17.9634252583
O    8.0       15.0242362218       22.8221467912       18.7430238913
H    1.0       14.6015991870       22.6092600658       17.8829783792
C    6.0       23.5157694672       22.7049988630       21.0433246172
H    1.0       24.5866310675       22.8640236935       20.8680496092
O    8.0       23.2099415482       21.2985475387       21.1678539065
C    6.0       23.0405778402       23.4769033456       22.3048318598
H    1.0       23.1983800569       24.5446166066       22.1034862420
O    8.0       23.7885094324       23.1197339295       23.4761354351
H    1.0       23.5673250669       22.1768060361       23.6822489096
C    6.0       21.5255340053       23.2588493764       22.5269908018
H    1.0       21.3525946631       22.1942622427       22.7324657334
O    8.0       21.0845625629       24.0486774623       23.6360097615
H    1.0       21.7715439721       23.9275705171       24.3287730412
C    6.0       20.7341691703       23.6486334077       21.2557875604
H    1.0       20.7575768653       24.7424463874       21.1641031035
C    6.0       21.3276367761       23.0122763783       19.9681280365
H    1.0       21.1185630166       21.9364470783       19.9872360135
O    8.0       22.7629332104       23.2178134456       19.9240441172
C    6.0       20.7151058978       23.5806848504       18.6657889406
H    1.0       19.6769014326       23.2320548240       18.5875815188
H    1.0       21.2637545004       23.1661511940       17.8096358628
O    8.0       20.7501019376       25.0133270992       18.6336393685
H    1.0       20.3604642623       25.3016010132       17.7798397005
C    6.0       24.7785158008       17.5751479856       22.0670163926
H    1.0       25.3887852396       16.7201025870       22.3847261129
O    8.0       23.6425592593       17.1573998163       21.2835387792
C    6.0       24.2841933068       18.3752231879       23.2996434270
H    1.0       25.1756540792       18.7334548231       23.8309337822
O    8.0       23.4992011282       17.5643552526       24.1888456878
H    1.0       23.6987514692       16.6205191129       23.9780078057
C    6.0       23.4580330241       19.6026408339       22.8587671778
H    1.0       22.5342864530       19.2295449912       22.4055184417
O    8.0       23.1447508653       20.3823245922       24.0155987595
H    1.0       22.8701096149       19.7187516562       24.6884748366
C    6.0       24.2016852785       20.4609138011       21.8028371688
H    1.0       24.9738491987       21.0485190539       22.3150146770
C    6.0       24.8531099258       19.5991146884       20.6834729879
H    1.0       24.0499574140       19.2244491212       20.0351883544
O    8.0       25.5642894346       18.4732000044       21.2569012993
C    6.0       25.8364800553       20.3867906763       19.7835041477
H    1.0       25.2739792890       21.1466938581       19.2244127348
H    1.0       26.2596445577       19.6928771049       19.0451134947
O    8.0       26.8935857440       21.0054691461       20.5296900853
H    1.0       26.5061159754       21.6939509047       21.1077643394
C    6.0       21.4008606596       13.7934124850       20.5194577889
H    1.0       20.9712102175       12.8293060178       20.2184370381
O    8.0       20.3711291281       14.7673343051       20.8018204275
C    6.0       22.3414190465       13.6356142487       21.7434419181
H    1.0       23.1878912000       13.0174985437       21.4164575315
O    8.0       21.6994689872       12.9809317952       22.8467513833
H    1.0       20.9888515249       13.5921298175       23.1661775114
C    6.0       22.9008804974       15.0136411850       22.1722515160
H    1.0       22.0639839381       15.6267245983       22.5346755484
O    8.0       23.8516961813       14.8173635998       23.2251784065
H    1.0       23.4629696637       14.1109386389       23.7900122810
C    6.0       23.5585196611       15.7521623960       20.9723932533
H    1.0       24.5515105951       15.3225502713       20.7897750781
C    6.0       22.7180879769       15.6659602859       19.6671475596
H    1.0       21.8619434768       16.3414801060       19.7780272311
O    8.0       22.2192576319       14.3225118773       19.4559706635
C    6.0       23.4936909269       16.1150618148       18.4034094140
H    1.0       23.6487963327       17.2009994219       18.4538303650
H    1.0       22.8694768552       15.9155723332       17.5229194495
O    8.0       24.7569173555       15.4542494820       18.2628336897
H    1.0       25.3755724727       15.8515720229       18.9122988135
C    6.0       18.6485615714       19.4160211536       24.6720310717
H    1.0       17.9772033635       20.2693462896       24.5142080058
H    1.0       18.0399875355       18.5030992040       24.6930122450
H    1.0       19.1148580437       19.5311166747       25.6587436739
C    6.0       19.7245287713       19.3370865826       23.5691225042
H    1.0       20.3854629242       18.4809042010       23.7669446931
H    1.0       20.3499888992       20.2388504241       23.6051871387
C    6.0       19.0929689276       19.1978797824       22.1686751768
H    1.0       18.4259114878       18.3286892756       22.1555743071
H    1.0       18.4686084238       20.0740677644       21.9619843094
C    6.0       20.1565350200       19.0591351501       21.0596963469
H    1.0       20.8227001831       18.2160424101       21.2905778179
H    1.0       20.7752537410       19.9647923024       21.0399291942
C    6.0       19.5135813826       18.8278835058       19.6768878701
H    1.0       19.0024545514       17.8571067686       19.6926942349
H    1.0       18.7442708657       19.5877640688       19.4881537833
C    6.0       20.5538207182       18.8841848601       18.5345132309
H    1.0       21.4054795137       18.2365415206       18.7652377079
H    1.0       20.9524705523       19.9057717209       18.4830862118
C    6.0       19.9651470583       18.5024117051       17.1583410794
H    1.0       19.0436284805       19.0743966571       17.0089019237
C    6.0       19.6284103487       17.0016477909       17.0708422776
H    1.0       19.2656939932       16.7458223886       16.0678849780
H    1.0       18.8381343622       16.7272246277       17.7777796380
H    1.0       20.5060911823       16.3799492196       17.2839181450
N    7.0       20.8935906266       18.8908095949       16.0413421254
H    1.0       21.0972991173       19.8940752025       16.0530021124
H    1.0       20.4834387216       18.6745812461       15.1282802727
H    1.0       21.7842730982       18.3913998993       16.1023397992
 $end
$$$$
! Edit this basic GAMESS input file as needed.
! Conformer was generated by a VeraChem VCPack run 
! and contains    155 atoms.
!
 $contrl scftyp=rhf runtyp=optimize nzvar=0
  maxit=200 icharg=0 $end
 $system mwords=50 $end
 $basis gbasis=pm3 $end
 $statpt nstep=200 $end
 $guess guess=huckel $end
 $data
FE Rank=2      G=560.255           E=350.949           -TS=209.306              
C1
C    6.0       16.3109694489       15.3174128796       21.9477081162
H    1.0       15.2374838901       15.2521674153       22.1657998005
O    8.0       16.6562386849       16.5809655055       21.3420817738
C    6.0       17.1353938401       15.1530770997       23.2484467029
H    1.0       16.9071958786       14.1598699939       23.6567102408
O    8.0       16.7908875164       16.1577832409       24.2174373904
H    1.0       15.9298260325       16.5498465883       23.9342788775
C    6.0       18.6486747745       15.2179303817       22.9415315466
H    1.0       18.8699375122       16.2363597912       22.6132904670
O    8.0       19.3833169971       14.9324248458       24.1349903677
H    1.0       18.8968541327       15.4145763368       24.8406599893
C    6.0       19.0641832499       14.2586470387       21.7979689040
H    1.0       19.1335854152       13.2410879776       22.2050177068
C    6.0       18.0782185030       14.2900220591       20.5945370711
H    1.0       18.2443268464       15.2254034458       20.0454045776
O    8.0       16.7043188205       14.2554345174       21.0539420509
C    6.0       18.2908826545       13.1309572898       19.5915819759
H    1.0       19.2305440633       13.3068752695       19.0505289559
H    1.0       17.4792064316       13.1552289443       18.8520735132
O    8.0       18.3363786629       11.8539390191       20.2407103406
H    1.0       18.3920197365       11.1662307990       19.5416805870
C    6.0       14.8766312634       20.2504969045       20.5105853799
H    1.0       14.2234656039       21.0570975415       20.1537697120
O    8.0       16.1169128312       20.7588479073       21.0434364006
C    6.0       14.1773153554       19.4392364107       21.6303902785
H    1.0       13.2604963943       19.0115007171       21.2041815994
O    8.0       13.8329562636       20.2867005844       22.7385934892
H    1.0       14.5965978356       20.8991329976       22.8925920361
C    6.0       15.0748150984       18.2695762920       22.1042558589
H    1.0       15.9571035528       18.7054010126       22.5880800177
O    8.0       14.3525575377       17.4783169430       23.0543860169
H    1.0       13.8724428322       18.1323651501       23.6118178494
C    6.0       15.5549444548       17.4032789454       20.9054117055
H    1.0       14.7221898834       16.7916363414       20.5337627317
C    6.0       16.1015478485       18.2736942891       19.7414275664
H    1.0       17.0560205794       18.7076497283       20.0599008498
O    8.0       15.1770919020       19.3431870421       19.4314472011
C    6.0       16.3677072761       17.4686733512       18.4470585838
H    1.0       17.2070365227       16.7849852838       18.6292196568
H    1.0       16.6790168972       18.1666345518       17.6585360266
O    8.0       15.2176746415       16.7241976463       18.0263225842
H    1.0       15.4461875488       16.2691182119       17.1871991885
C    6.0       18.4348449527       24.1877632103       21.2676460674
H    1.0       18.8447266683       25.2054686351       21.2347984982
O    8.0       19.4618224216       23.2030378454       21.5105222085
C    6.0       17.3553002687       24.0565403379       22.3727747751
H    1.0       16.5302956824       24.7295877946       22.1050515996
O    8.0       17.8631351014       24.4360824642       23.6605665640
H    1.0       18.7179274077       23.9547852537       23.7996749498
C    6.0       16.7987557631       22.6128131925       22.4038341703
H    1.0       17.6126593241       21.9365803828       22.6948249311
O    8.0       15.7346040541       22.5269984457       23.3570520213
H    1.0       16.0583532156       23.0187959595       24.1446832286
C    6.0       16.2861135994       22.1899807291       21.0052647906
H    1.0       15.3370916474       22.7111671373       20.8229563681
C    6.0       17.2943225869       22.5223650044       19.8667692340
H    1.0       18.1379216190       21.8252781312       19.9344867390
O    8.0       17.7952554322       23.8750252186       20.0119305173
C    6.0       16.6905492677       22.3768414761       18.4493109460
H    1.0       16.5382626066       21.3092181117       18.2425511275
H    1.0       17.4200378065       22.7491523421       17.7177217676
O    8.0       15.4482809740       23.0794350826       18.3158735330
H    1.0       15.1473225974       22.9775786110       17.3867429824
C    6.0       23.4922094994       22.6441492522       22.1840285760
H    1.0       24.5663432760       22.7318418419       22.3931504056
O    8.0       23.1411655017       21.3136431988       21.7582972351
C    6.0       22.6800186381       22.9828096138       23.4560726328
H    1.0       22.9131061372       24.0207098077       23.7274306545
O    8.0       23.0396977369       22.1145142449       24.5444552276
H    1.0       23.7636625968       21.5251072992       24.2187023822
C    6.0       21.1642875650       22.8850586158       23.1738701757
H    1.0       20.9283797098       21.8352122779       22.9784913115
O    8.0       20.4473489993       23.3271063416       24.3284738706
H    1.0       20.9401506584       22.9408063555       25.0871395494
C    6.0       20.7509913562       23.7020780616       21.9242940590
H    1.0       20.7183465878       24.7650404665       22.1976961459
C    6.0       21.7137419414       23.4875318716       20.7211453530
H    1.0       21.5190767496       22.4873854209       20.3142960128
O    8.0       23.1006963634       23.5624048542       21.1423142447
C    6.0       21.4925027399       24.4998856313       19.5721675937
H    1.0       20.5281308017       24.2791649003       19.0945861852
H    1.0       22.2740479311       24.3490000171       18.8154438629
O    8.0       21.5037545416       25.8550637560       20.0382816675
H    1.0       21.4195741366       26.4403678218       19.2541667054
C    6.0       24.9687384415       17.6927272261       20.8126162325
H    1.0       25.6554992077       16.9166519265       20.4510551643
O    8.0       23.6996534847       17.1407980894       21.2223172608
C    6.0       25.5708306885       18.4297179113       22.0375543393
H    1.0       26.5136637579       18.8911087502       21.7162140131
O    8.0       25.8356586620       17.5145107872       23.1133339601
H    1.0       25.0927859689       16.8599674057       23.1414863389
C    6.0       24.6220061723       19.5584259666       22.5101703830
H    1.0       23.7007698502       19.0911409623       22.8719421349
O    8.0       25.2367875460       20.3003476529       23.5686465894
H    1.0       25.6710149011       19.6215946085       24.1332219604
C    6.0       24.2444426853       20.4932410886       21.3357999768
H    1.0       25.1222982664       21.0928783036       21.0617442314
C    6.0       23.7636676894       19.6992417767       20.0943786338
H    1.0       22.8075549512       19.2233317792       20.3431548703
O    8.0       24.7323612889       18.6723621297       19.7762472501
C    6.0       23.5304171292       20.5800299021       18.8388587518
H    1.0       22.5306082314       21.0258435680       18.9064260438
H    1.0       23.5340851097       19.9332876234       17.9513950243
O    8.0       24.5005565165       21.6243297307       18.6937744371
H    1.0       24.3031298157       22.3027106641       19.3778459840
C    6.0       21.3583597795       13.7407319841       21.0969669917
H    1.0       20.9305620374       12.7365615519       20.9806041097
O    8.0       20.3327378199       14.7349523329       21.3017454976
C    6.0       22.3540373342       13.7914144415       22.2844424160
H    1.0       23.1780330633       13.1062208181       22.0460333052
O    8.0       21.7430853900       13.3719724108       23.5140562442
H    1.0       20.9557088578       13.9529912164       23.6678753591
C    6.0       22.9453975364       15.2138058173       22.4279716561
H    1.0       22.1339634419       15.8949196898       22.7177926098
O    8.0       23.9593004684       15.2059037892       23.4377094958
H    1.0       23.5877516399       14.6645696777       24.1691491368
C    6.0       23.5483505220       15.7133769963       21.0916405891
H    1.0       24.5119448586       15.2080728371       20.9444255460
C    6.0       22.6230479235       15.4491333681       19.8696407669
H    1.0       21.7852545953       16.1541740615       19.9148598743
O    8.0       22.0989404527       14.0983800358       19.9110069481
C    6.0       23.3266568117       15.6605302765       18.5077068440
H    1.0       23.5011992788       16.7357395144       18.3685207073
H    1.0       22.6477948649       15.3347003782       17.7083415472
O    8.0       24.5699487277       14.9521376441       18.4252179677
H    1.0       24.9338789896       15.0935968474       17.5242007292
C    6.0       20.1019468681       18.6737593351       19.3039782667
H    1.0       19.1606848215       19.0197747574       18.8588539281
H    1.0       20.8290574977       19.4869370958       19.2147725461
H    1.0       20.4621542702       17.8245569201       18.7096359461
C    6.0       19.8987131845       18.2652867705       20.7782734664
H    1.0       20.8221561099       17.8260955744       21.1785970504
H    1.0       19.1303444539       17.4842094815       20.8183462843
C    6.0       19.4770299257       19.4687418942       21.6502570368
H    1.0       20.3159475451       20.1681921359       21.7369938511
H    1.0       18.6797146386       20.0156610498       21.1358578589
C    6.0       18.9448299170       19.0702429018       23.0496591487
H    1.0       18.1134498330       18.3675637914       22.9217920190
H    1.0       18.5099674832       19.9543488407       23.5342839646
C    6.0       19.9828056477       18.4352604151       24.0063887313
H    1.0       19.4428194277       18.0491861119       24.8807031266
H    1.0       20.4560338186       17.5692113508       23.5280207503
C    6.0       21.0682156068       19.4371360367       24.4694439702
H    1.0       20.5905746222       20.3787139316       24.7676374471
H    1.0       21.7153634707       19.6816076427       23.6203202717
C    6.0       21.9449570440       18.9518207846       25.6463761990
H    1.0       22.7341164840       19.6963841434       25.7933296218
C    6.0       22.6154354207       17.5970858495       25.3646460875
H    1.0       23.1715329879       17.6251228771       24.4227717949
H    1.0       23.3275780208       17.3462905740       26.1599854064
H    1.0       21.8813426420       16.7842917777       25.3027117546
N    7.0       21.1729245277       18.9003636857       26.9352754593
H    1.0       20.7664132310       19.8122994130       27.1618149401
H    1.0       21.7733335323       18.6269391661       27.7179397055
H    1.0       20.4077683177       18.2238192629       26.8800105916
 $end
$$$$
! Edit this basic GAMESS input file as needed.
! Conformer was generated by a VeraChem VCPack run 
! and contains    155 atoms.
!
 $contrl scftyp=rhf runtyp=optimize nzvar=0
  maxit=200 icharg=0 $end
 $system mwords=50 $end
 $basis gbasis=pm3 $end
 $statpt nstep=200 $end
 $guess guess=huckel $end
 $data
FE Rank=3      G=562.511           E=353.098           -TS=209.413              
C1
C    6.0       16.1072940708       15.0349223140       21.0601283786
H    1.0       15.0206923581       14.9124359867       20.9644123962
O    8.0       16.4751413844       16.4161283270       21.2715381937
C    6.0       16.6647028934       14.1872143976       22.2314975703
H    1.0       16.4924809231       13.1320329783       21.9819340956
O    8.0       16.0016295881       14.4839845162       23.4690921385
H    1.0       16.0468751332       15.4642743371       23.6032423539
C    6.0       18.1914365892       14.4027146775       22.3579239207
H    1.0       18.3696695272       15.4508860977       22.6301473921
O    8.0       18.7128801203       13.5465485965       23.3784985688
H    1.0       18.0678088851       13.6102091024       24.1181917296
C    6.0       18.9063760959       14.1187114535       21.0127636885
H    1.0       18.9555189926       13.0303261626       20.8771733459
C    6.0       18.1932979009       14.7705129147       19.7913331064
H    1.0       18.3908850562       15.8481970229       19.8077882515
O    8.0       16.7601976140       14.5660820737       19.8612263610
C    6.0       18.7006219748       14.2352984499       18.4309641748
H    1.0       19.7244831961       14.5999612369       18.2729144240
H    1.0       18.0764059557       14.6585668813       17.6327008735
O    8.0       18.6813434245       12.8033475775       18.3723176390
H    1.0       18.9697198831       12.5383397188       17.4717757489
C    6.0       14.9670729666       20.2216527663       21.8472221144
H    1.0       14.3510369722       21.1124562162       22.0257952656
O    8.0       16.3007947760       20.5725884743       21.4306855901
C    6.0       15.0638591633       19.3770506187       23.1394692401
H    1.0       14.0439786192       19.0676418759       23.4032358724
O    8.0       15.6245840910       20.1440283739       24.2190360965
H    1.0       15.5804862277       21.0952675791       23.9485498478
C    6.0       15.9120052474       18.1086933340       22.8936234404
H    1.0       16.9388404274       18.4314686709       22.6952625204
O    8.0       15.8838285672       17.2953474226       24.0704662171
H    1.0       15.6577176609       17.9130568607       24.8007853283
C    6.0       15.4128985113       17.3122342507       21.6605308556
H    1.0       14.4988567487       16.7729420896       21.9425071848
C    6.0       15.1348797675       18.2253671562       20.4320259095
H    1.0       16.1024818572       18.5461669081       20.0263386076
O    8.0       14.3759886240       19.3989463114       20.8200699493
C    6.0       14.3769401484       17.5042216736       19.2918787036
H    1.0       15.0534077211       16.7692495933       18.8346766715
H    1.0       14.1235914596       18.2409011021       18.5177502390
O    8.0       13.1932809605       16.8468514174       19.7619483346
H    1.0       12.7324407300       16.4691944910       18.9812275110
C    6.0       18.5384000487       24.0204260664       20.7184442149
H    1.0       18.8698635953       25.0124754627       20.3855207498
O    8.0       19.6302506688       23.2379891831       21.2410796266
C    6.0       17.4886702375       24.1510324834       21.8516425191
H    1.0       16.6465815834       24.7342213445       21.4568344418
O    8.0       18.0504001328       24.8334582361       22.9852099209
H    1.0       18.9674057570       24.4833436658       23.1145239206
C    6.0       16.9532918993       22.7599573774       22.2746937741
H    1.0       17.7754144277       22.2157484380       22.7554489841
O    8.0       15.8788385811       22.9300426956       23.2060615037
H    1.0       16.1847804230       23.6372186731       23.8180681121
C    6.0       16.4836655317       21.9450793014       21.0400734094
H    1.0       15.5535067486       22.3838092596       20.6560699208
C    6.0       17.5412082835       21.9401424883       19.9076664764
H    1.0       18.4136262196       21.3733315722       20.2530753823
O    8.0       17.9382471765       23.3000314995       19.6198983945
C    6.0       17.0503776363       21.2712940719       18.5986835431
H    1.0       17.0982183571       20.1827496173       18.7260271028
H    1.0       17.7449615226       21.5331420779       17.7894940921
O    8.0       15.7140817202       21.6469422927       18.2448487647
H    1.0       15.1079383305       21.2017808134       18.8766821519
C    6.0       23.7278565855       22.9298030650       21.2475717642
H    1.0       24.8179330751       23.0397039406       21.1800249441
O    8.0       23.3378581229       21.5424232459       21.3663007431
C    6.0       23.1498525734       23.7456309405       22.4343583096
H    1.0       23.3186421940       24.8068236439       22.2088749985
O    8.0       23.7989513058       23.4351951078       23.6747338923
H    1.0       23.6612824165       22.4693231011       23.8423367309
C    6.0       21.6218903944       23.5205586953       22.5291479196
H    1.0       21.4437537709       22.4625387032       22.7622622916
O    8.0       21.0680542348       24.3412569531       23.5633194079
H    1.0       21.6862770757       24.2504975505       24.3222159031
C    6.0       20.9326229076       23.8505790221       21.1819501152
H    1.0       20.8690680573       24.9434136381       21.0967137461
C    6.0       21.6767763789       23.2635719647       19.9466618462
H    1.0       21.4743322997       22.1873027334       19.9171255339
O    8.0       23.1083826362       23.4611375619       20.0590915072
C    6.0       21.2145195746       23.8647516759       18.5970514721
H    1.0       20.2097130506       23.4867753495       18.3686353975
H    1.0       21.8843084896       23.5025315387       17.8056395315
O    8.0       21.2012639581       25.2976117385       18.6193756740
H    1.0       20.9584040582       25.6075409701       17.7197394270
C    6.0       24.7192358738       17.7260149362       22.2143912223
H    1.0       25.3079403806       16.8474891568       22.5081138946
O    8.0       23.4898378731       17.3470790193       21.5655732616
C    6.0       24.3831029544       18.5811696914       23.4604530322
H    1.0       25.3377919189       18.8898580854       23.9061166101
O    8.0       23.6295794586       17.8330819805       24.4288967925
H    1.0       23.7076372641       16.8791317874       24.1842726719
C    6.0       23.6016946285       19.8527298346       23.0635010737
H    1.0       22.6140198296       19.5429494928       22.7016565137
O    8.0       23.4577661448       20.6687155755       24.2264480295
H    1.0       23.2858802465       20.0258347838       24.9503987799
C    6.0       24.3101181616       20.6385806749       21.9316908246
H    1.0       25.1693333416       21.1721994398       22.3595515743
C    6.0       24.7831151791       19.7122439533       20.7755635949
H    1.0       23.8956719381       19.3794563031       20.2230235115
O    8.0       25.4735039986       18.5497894694       21.3003209864
C    6.0       25.7125706595       20.4227357644       19.7628155101
H    1.0       25.1150885705       21.1455021241       19.1905765188
H    1.0       26.0923545395       19.6768021148       19.0518324673
O    8.0       26.8004554051       21.0966762166       20.4080585714
H    1.0       27.3840775755       21.4599464827       19.7066663296
C    6.0       21.3335277259       13.8790572530       20.7431478392
H    1.0       21.0122126864       12.8816316675       20.4169044182