$$$$
! Edit this basic GAMESS input file as needed.
! Conformer was generated by a VeraChem VCPack run 
! and contains    142 atoms.
!
 $contrl scftyp=rhf runtyp=optimize nzvar=0
  maxit=200 icharg=0 $end
 $system mwords=50 $end
 $basis gbasis=pm3 $end
 $statpt nstep=200 $end
 $guess guess=huckel $end
 $data
FE Rank=1      G=555.109           E=370.695           -TS=184.413              
C1
C    6.0       16.1161286549       15.1589439697       20.9491856383
H    1.0       15.0333652063       15.0466392250       20.8079656564
O    8.0       16.4725408883       16.5151850409       21.2851997734
C    6.0       16.6397762234       14.2119194102       22.0603301000
H    1.0       16.4629391602       13.1829278120       21.7210342211
O    8.0       15.9498716257       14.4152366486       23.3024922970
H    1.0       16.0353607403       15.3744774435       23.5355955419
C    6.0       18.1656595558       14.3966558142       22.2422520201
H    1.0       18.3452803389       15.4133108848       22.6139129193
O    8.0       18.6595901784       13.4426966552       23.1884486335
H    1.0       18.0131912255       13.4587812446       23.9289955975
C    6.0       18.9110825224       14.2316426699       20.8947628062
H    1.0       18.9372986625       13.1617604757       20.6499278116
C    6.0       18.2442534603       15.0219875181       19.7325715168
H    1.0       18.4477073657       16.0903116536       19.8826289076
O    8.0       16.8098307381       14.8079170335       19.7336663898
C    6.0       18.7886178586       14.6392993908       18.3352484778
H    1.0       19.8123249024       15.0244286155       18.2413027657
H    1.0       18.1807246016       15.1438939875       17.5724731383
O    8.0       18.7806794592       13.2219423103       18.1205975611
H    1.0       19.1050610975       13.0577440056       17.2083987088
C    6.0       15.0243899077       20.2632161083       22.1826304569
H    1.0       14.4454188112       21.1538117795       22.4587409856
O    8.0       16.3395202091       20.6159761490       21.7150776995
C    6.0       15.1650036596       19.3248130600       23.4056679951
H    1.0       14.1543215485       19.0024058471       23.6876310700
O    8.0       15.7676590956       20.0032169435       24.5170522541
H    1.0       16.6653830150       20.2999482401       24.2212879931
C    6.0       15.9849810532       18.0689692110       23.0408860113
H    1.0       17.0115568050       18.3873242745       22.8199019182
O    8.0       15.9831538511       17.1734145185       24.1565912922
H    1.0       16.1818069392       17.7417258600       24.9342011704
C    6.0       15.4180138047       17.3616573688       21.7857938160
H    1.0       14.5274702148       16.7888051032       22.0768740550
C    6.0       15.0709526506       18.3527773715       20.6385807546
H    1.0       16.0204547295       18.6748202858       20.1990575204
O    8.0       14.3638253510       19.5218188988       21.1328909519
C    6.0       14.2358446981       17.7130621499       19.5037581645
H    1.0       14.8724501873       17.0004170208       18.9618837805
H    1.0       13.9475772363       18.4983648361       18.7921145213
O    8.0       13.0728536683       17.0421680440       20.0042432794
H    1.0       12.5555527604       16.7258692114       19.2315591566
C    6.0       18.5391145650       23.8625823434       20.3813863041
H    1.0       18.9175812001       24.7703479340       19.8939101105
O    8.0       19.5945877701       23.1102714995       21.0105845572
C    6.0       17.4989071847       24.2127082224       21.4732136489
H    1.0       16.6717246575       24.7386624029       20.9790989206
O    8.0       18.0733972293       25.0708512065       22.4727151536
H    1.0       18.9283844453       24.6591828906       22.7584295579
C    6.0       16.9257017605       22.9293183467       22.1265149476
H    1.0       17.7222076457       22.4657347593       22.7240382665
O    8.0       15.8309809857       23.2980710306       22.9713824427
H    1.0       16.1791611336       24.0132037944       23.5473767532
C    6.0       16.4576313129       21.8960119963       21.0646413512
H    1.0       15.4980379821       22.2313202210       20.6505166891
C    6.0       17.4805161230       21.7150240926       19.9067881696
H    1.0       18.3595683672       21.1900742203       20.3008455673
O    8.0       17.8869978414       23.0127250496       19.4144038167
C    6.0       16.9623716741       20.8759120876       18.7094701388
H    1.0       17.2214152600       19.8248771681       18.8859246736
H    1.0       17.5059726847       21.1823365382       17.8057841711
O    8.0       15.5496644764       20.9996706882       18.4966750783
H    1.0       15.0979197374       20.6429806561       19.2951097568
C    6.0       23.6814674226       22.8616631500       21.4086978977
H    1.0       24.7697380406       23.0028923747       21.4345723026
O    8.0       23.3188166995       21.4728374825       21.5538556717
C    6.0       22.9826817136       23.6793410762       22.5252515855
H    1.0       23.1766390936       24.7406044668       22.3219642867
O    8.0       23.4984645038       23.3531046089       23.8247489833
H    1.0       23.4106835013       22.3731974563       23.9418766928
C    6.0       21.4521488466       23.4566632535       22.4713508861
H    1.0       21.2499494548       22.4074431404       22.7208271597
O    8.0       20.8080018408       24.3125767985       23.4210683046
H    1.0       21.3357580706       24.2233929561       24.2455866706
C    6.0       20.8911373411       23.7312889943       21.0539804587
H    1.0       20.8324557212       24.8186837488       20.9128675761
C    6.0       21.7441788068       23.0877786398       19.9229362515
H    1.0       21.5622230440       22.0048461826       19.9331779800
O    8.0       23.1548460209       23.3308616011       20.1502596232
C    6.0       21.3830777786       23.5993357558       18.5073973591
H    1.0       20.4026486946       23.1907173924       18.2280828331
H    1.0       22.1164848753       23.2006820771       17.7937687464
O    8.0       21.3499593670       25.0307838079       18.4404121957
H    1.0       21.1850228130       25.2811069828       17.5051078785
C    6.0       24.7945499952       17.6909131821       22.2559613057
H    1.0       25.3769987854       16.7945301023       22.5041569132
O    8.0       23.5724904897       17.3618423257       21.5664051289
C    6.0       24.4402710686       18.4803441593       23.5407615274
H    1.0       25.3863017003       18.8009153878       23.9962696442
O    8.0       23.7175756638       17.6676095879       24.4793564707
H    1.0       23.7654410982       16.7363104850       24.1542086416
C    6.0       23.6206925971       19.7429219103       23.1899757848
H    1.0       22.6509786827       19.4173428184       22.7946280438
O    8.0       23.4214787430       20.5118942855       24.3791937128
H    1.0       23.1999606789       19.8430864837       25.0655348172
C    6.0       24.3226016926       20.5975631502       22.1046489529
H    1.0       25.1418506923       21.1546626043       22.5783640654
C    6.0       24.8681965972       19.7462400874       20.9212857328
H    1.0       24.0118175320       19.4273111503       20.3131689559
O    8.0       25.5628876717       18.5692172598       21.4075265593
C    6.0       25.8227337274       20.5297732497       19.9885875795
H    1.0       25.2329752963       21.2664461209       19.4262535265
H    1.0       26.2520734165       19.8303116715       19.2588201344
O    8.0       26.8642598340       21.1944515427       20.7150247801
H    1.0       27.4690341417       21.6054684886       20.0592243477
C    6.0       21.3328447692       13.9678455744       20.6340527299
H    1.0       20.9990423722       12.9906874403       20.2623272673
O    8.0       20.2301979869       14.7745134455       21.0936388443
C    6.0       22.2995204138       13.7913181792       21.8317785832
H    1.0       23.1588496382       13.2071756349       21.4775640929
O    8.0       21.6582559282       13.0840836840       22.9058944491
H    1.0       20.7231763316       13.4076734948       22.9552705566
C    6.0       22.8252639868       15.1623088361       22.3267794341
H    1.0       21.9801430174       15.7175824736       22.7528607302
O    8.0       23.8146057439       14.9386732632       23.3368500351
H    1.0       23.4520581853       14.2054979963       23.8848313782
C    6.0       23.4084574734       15.9933865958       21.1505312535
H    1.0       24.3637907071       15.5534091234       20.8368713495
C    6.0       22.4408226974       16.0323847853       19.9369060751
H    1.0       21.5542639037       16.6146234370       20.2187975238
O    8.0       22.0346573054       14.6865019121       19.5965688180
C    6.0       23.0407599777       16.7094541847       18.6790757285
H    1.0       23.0209496189       17.7972277688       18.8275662151
H    1.0       22.3920301570       16.4894512328       17.8209106311
O    8.0       24.3819952582       16.2868607826       18.4045337989
H    1.0       24.9599952678       16.6847710711       19.0911645600
C    6.0       20.0111075480       18.0325490864       22.4447899442
H    1.0       19.3815373823       17.5073424180       21.7149140412
H    1.0       21.0592233248       17.8526069512       22.1828436864
C    6.0       19.7567994062       17.5519465730       23.8807624895
H    1.0       18.6941006545       17.3192910280       24.0141701064
H    1.0       20.3343200978       16.6527870212       24.1318898977
C    6.0       20.1310414952       18.7508796884       24.7658848667
H    1.0       21.2022277475       18.7103204710       24.9967030376
H    1.0       19.5839639718       18.7393780050       25.7173531347
C    6.0       19.8412169016       20.0120779492       23.9311603607
H    1.0       20.6639655832       20.7301673516       24.0498125280
C    6.0       19.7408135071       19.5497194087       22.4627845753
H    1.0       18.7388076726       19.7506996664       22.0712694457
H    1.0       20.4572211359       20.0881218345       21.8294371313
O    8.0       18.6108052788       20.5933583365       24.3468913211
H    1.0       18.7487645987       20.8963519903       25.2666703677
 $end
