$$$$
! Edit this basic GAMESS input file as needed.
! Conformer was generated by a VeraChem VCPack run 
! and contains     16 atoms.
!
 $contrl scftyp=rhf runtyp=optimize nzvar=0
  maxit=200 icharg=0 $end
 $system mwords=50 $end
 $basis gbasis=pm3 $end
 $statpt nstep=200 $end
 $guess guess=huckel $end
 $data
VM2 Rank=1      G=-35.660           E=-45.569           -TS=9.910               
C1
C    6.0       20.0717622250       19.4317932036       24.6566849839
O    8.0       20.4840971057       20.5080194374       25.0408199555
O    8.0       19.2403096692       18.7783947019       25.2546824193
C    6.0       20.6140152693       18.8794398997       23.3431212054
H    1.0       20.6286449622       17.7850520440       23.4134844817
H    1.0       21.6540145796       19.2111205932       23.2371037815
C    6.0       19.7839265945       19.3242434758       22.1138271607
H    1.0       18.7429712569       18.9957567467       22.2405505133
H    1.0       19.7683265603       20.4218978541       22.0641955574
C    6.0       20.3534419909       18.7521753446       20.7989309773
H    1.0       20.3685698040       17.6544909951       20.8479052275
H    1.0       21.3942098623       19.0809714361       20.6715223778
C    6.0       19.5224471454       19.1989339370       19.5799332978
H    1.0       19.5162178915       20.2930393553       19.4884707762
H    1.0       18.4829951874       18.8560423313       19.6661688878
H    1.0       19.9405628560       18.7837657849       18.6536697099
 $end
$$$$
! Edit this basic GAMESS input file as needed.
! Conformer was generated by a VeraChem VCPack run 
! and contains     16 atoms.
!
 $contrl scftyp=rhf runtyp=optimize nzvar=0
  maxit=200 icharg=0 $end
 $system mwords=50 $end
 $basis gbasis=pm3 $end
 $statpt nstep=200 $end
 $guess guess=huckel $end
 $data
VM2 Rank=2      G=-34.844           E=-44.867           -TS=10.023              
C1
C    6.0       20.0737571141       19.3291123193       24.5704009065
O    8.0       20.7529851393       20.1563787394       25.1450970596
O    8.0       19.1097164721       18.7860173934       25.0720278422
C    6.0       20.4397556833       18.9675694833       23.1351640292
H    1.0       20.1768058508       17.9153087624       22.9779315110
H    1.0       21.5282164502       19.0500780949       23.0302206781
C    6.0       19.7324306465       19.8681409699       22.0893845594
H    1.0       18.6440223798       19.7447664578       22.1757232603
H    1.0       19.9457405006       20.9195914215       22.3268300150
C    6.0       20.1760438718       19.5874996881       20.6351300878
H    1.0       21.2629059468       19.7222200021       20.5459008544
H    1.0       19.7150779876       20.3350028010       19.9747823336
C    6.0       19.7853110730       18.1782814066       20.1407955153
H    1.0       20.3131706426       17.3963031860       20.7008462742
H    1.0       20.0428820135       18.0586660691       19.0804387543
H    1.0       18.7057082782       18.0098795059       20.2473291452
 $end
$$$$
! Edit this basic GAMESS input file as needed.
! Conformer was generated by a VeraChem VCPack run 
! and contains     16 atoms.
!
 $contrl scftyp=rhf runtyp=optimize nzvar=0
  maxit=200 icharg=0 $end
 $system mwords=50 $end
 $basis gbasis=pm3 $end
 $statpt nstep=200 $end
 $guess guess=huckel $end
 $data
VM2 Rank=3      G=-34.789           E=-44.812           -TS=10.023              
C1
C    6.0       19.9194799923       19.5237978846       24.5496735572
O    8.0       20.8186750261       20.0735653422       25.1539910610
O    8.0       19.1179009090       18.7757359577       25.0729631679
C    6.0       19.8033070972       19.7705582384       23.0496110378
H    1.0       20.1482899319       20.7911260788       22.8446821272
H    1.0       18.7406826240       19.7272560007       22.7848998575
C    6.0       20.6163981813       18.7527288114       22.2082424255
H    1.0       21.6583678747       18.7586094214       22.5570894619
H    1.0       20.2338023363       17.7387853775       22.3894803946
C    6.0       20.5985727776       19.0542870548       20.6919462131
H    1.0       21.2814439977       18.3582993185       20.1853933253
H    1.0       20.9922048836       20.0638086551       20.5094647095
C    6.0       19.1956660165       18.9223267110       20.0615725374
H    1.0       18.5054795117       19.6776292054       20.4577335500
H    1.0       18.7693262914       17.9295361683       20.2561247965
H    1.0       19.2494732483       19.0596430144       18.9737967249
 $end
$$$$
! Edit this basic GAMESS input file as needed.
! Conformer was generated by a VeraChem VCPack run 
! and contains     16 atoms.
!
 $contrl scftyp=rhf runtyp=optimize nzvar=0
  maxit=200 icharg=0 $end
 $system mwords=50 $end
 $basis gbasis=pm3 $end
 $statpt nstep=200 $end
 $guess guess=huckel $end
 $data
VM2 Rank=4      G=-34.265           E=-44.483           -TS=10.218              
C1
C    6.0       20.1242550470       19.3850095744       24.4355611353
O    8.0       21.2505164171       19.7942995941       24.6362621246
O    8.0       19.6401663593       18.4373127620       25.0219657869
C    6.0       19.2612170908       20.1134290192       23.4088844721
H    1.0       19.6863715929       21.1098607668       23.2372707155
H    1.0       18.2726524097       20.2638314060       23.8587213016
C    6.0       19.1073340775       19.3585509439       22.0629577992
H    1.0       18.7076323067       18.3527302264       22.2531821743
H    1.0       18.3659343320       19.8814994901       21.4437569280
C    6.0       20.4370833253       19.2543422622       21.2850801347
H    1.0       21.1810972231       18.7144313452       21.8872963987
H    1.0       20.8417545552       20.2601770466       21.1064287255
C    6.0       20.2494276832       18.5300558442       19.9372885471
H    1.0       19.8742246652       17.5094645431       20.0891662239
H    1.0       21.2032905928       18.4637647126       19.3979671733
H    1.0       19.5355217728       19.0666733338       19.2986998205
 $end
$$$$
! Edit this basic GAMESS input file as needed.
! Conformer was generated by a VeraChem VCPack run 
! and contains     16 atoms.
!
 $contrl scftyp=rhf runtyp=optimize nzvar=0
  maxit=200 icharg=0 $end
 $system mwords=50 $end
 $basis gbasis=pm3 $end
 $statpt nstep=200 $end
 $guess guess=huckel $end
 $data
VM2 Rank=5      G=-34.176           E=-44.394           -TS=10.218              
C1
C    6.0       20.1070677542       19.3610987468       24.4385113445
O    8.0       20.9072278006       20.1992133572       24.8040929595
O    8.0       20.1123130058       18.2115676701       24.8319737489
C    6.0       19.0237155045       19.7831913210       23.4497326129
H    1.0       18.6134748504       20.7377412041       23.8001220888
H    1.0       18.2067690037       19.0524932074       23.4917343344
C    6.0       19.5259524540       19.9406653561       21.9909646701
H    1.0       18.7222724192       20.3770104020       21.3824745734
H    1.0       20.3621207721       20.6533695568       21.9686445697
C    6.0       19.9656996980       18.5988670222       21.3661528707
H    1.0       19.1324836299       17.8833562671       21.4004059361
H    1.0       20.7841813129       18.1625078025       21.9555610267
C    6.0       20.4280237829       18.7783965266       19.9065717933
H    1.0       19.6181882064       19.1815926442       19.2844674285
H    1.0       20.7377271312       17.8163252140       19.4780631213
H    1.0       21.2815396501       19.4664561303       19.8471123692
 $end
$$$$
! Edit this basic GAMESS input file as needed.
! Conformer was generated by a VeraChem VCPack run 
! and contains     16 atoms.
!
 $contrl scftyp=rhf runtyp=optimize nzvar=0
  maxit=200 icharg=0 $end
 $system mwords=50 $end
 $basis gbasis=pm3 $end
 $statpt nstep=200 $end
 $guess guess=huckel $end
 $data
VM2 Rank=6      G=-33.969           E=-44.385           -TS=10.416              
C1
C    6.0       20.0196112677       19.3904954143       24.6749330286
O    8.0       20.1520325085       20.5986740484       24.6515742652
O    8.0       19.9477632558       18.7519983520       25.7056961220
C    6.0       19.9367587715       18.6092917607       23.3623971258
H    1.0       18.9893924640       18.0573770781       23.3693048360
H    1.0       20.7416577178       17.8648571927       23.3732664713
C    6.0       20.0338681997       19.4665716875       22.0724403794
H    1.0       19.2283696326       20.2139903049       22.0698130396
H    1.0       20.9824428473       20.0212551872       22.0737744921
C    6.0       19.9414628593       18.5994995653       20.7992923732
H    1.0       18.9924420256       18.0455615140       20.7958541337
H    1.0       20.7475622866       17.8527043241       20.7998075321
C    6.0       20.0385031376       19.4564691717       19.5216667058
H    1.0       19.2247429987       20.1923336143       19.4796265226
H    1.0       19.9711272793       18.8249724394       18.6262260712
H    1.0       20.9928115460       19.9980555871       19.4836033814
 $end
$$$$
! Edit this basic GAMESS input file as needed.
! Conformer was generated by a VeraChem VCPack run 
! and contains     16 atoms.
!
 $contrl scftyp=rhf runtyp=optimize nzvar=0
  maxit=200 icharg=0 $end
 $system mwords=50 $end
 $basis gbasis=pm3 $end
 $statpt nstep=200 $end
 $guess guess=huckel $end
 $data
VM2 Rank=7      G=-33.022           E=-43.375           -TS=10.352              
C1
C    6.0       20.0626299955       19.5193041178       24.2841358484
O    8.0       20.7089521844       20.5481713822       24.2834599462
O    8.0       20.2325418018       18.6214743706       25.0852694318
C    6.0       18.9552238568       19.3577246519       23.2462087247
H    1.0       18.7519752348       20.3349106105       22.7933879894
H    1.0       18.0444156572       19.0698000369       23.7841768318
C    6.0       19.2597264233       18.2993761572       22.1508281976
H    1.0       19.4047382557       17.3232542914       22.6340578915
H    1.0       18.3820917155       18.1928832072       21.4990709648
C    6.0       20.5015100031       18.6174411145       21.2843413705
H    1.0       20.6794282233       17.7756983433       20.6010097669
H    1.0       21.3936416480       18.6921598178       21.9216137697
C    6.0       20.3494157351       19.9095082059       20.4537564807
H    1.0       19.4443824888       19.8750529097       19.8334401289
H    1.0       21.2118524739       20.0409723328       19.7875884820
H    1.0       20.2924794412       20.7941708998       21.1007612774
 $end
$$$$
! Edit this basic GAMESS input file as needed.
! Conformer was generated by a VeraChem VCPack run 
! and contains     16 atoms.
!
 $contrl scftyp=rhf runtyp=optimize nzvar=0
  maxit=200 icharg=0 $end
 $system mwords=50 $end
 $basis gbasis=pm3 $end
 $statpt nstep=200 $end
 $guess guess=huckel $end
 $data
VM2 Rank=8      G=-32.969           E=-43.322           -TS=10.352              
C1
C    6.0       19.9434023803       19.3535604225       24.3046631878
O    8.0       20.9341748692       19.5973684835       24.9647474811
O    8.0       19.1877628891       18.4329399037       24.5450115289
C    6.0       19.6147572487       20.2746628236       23.1327799997
H    1.0       19.6514721589       21.3041855686       23.5077688885
H    1.0       18.5789899781       20.0943008305       22.8230970771
C    6.0       20.5799423246       20.1347953409       21.9238409040
H    1.0       20.3191560320       20.8858547037       21.1660339408
H    1.0       21.5993330145       20.3742867237       22.2567697911
C    6.0       20.5842486214       18.7324418962       21.2701008053
H    1.0       20.8778534714       17.9751200061       22.0102753198
H    1.0       21.3528429876       18.7118255589       20.4852660228
C    6.0       19.2257116667       18.3472311296       20.6468560932
H    1.0       18.8920776418       19.1071301229       19.9283100524
H    1.0       18.4519177462       18.2353190250       21.4170538733
H    1.0       19.3051959056       17.3901677485       20.1152811809
 $end
$$$$
! Edit this basic GAMESS input file as needed.
! Conformer was generated by a VeraChem VCPack run 
! and contains     16 atoms.
!
 $contrl scftyp=rhf runtyp=optimize nzvar=0
  maxit=200 icharg=0 $end
 $system mwords=50 $end
 $basis gbasis=pm3 $end
 $statpt nstep=200 $end
 $guess guess=huckel $end
 $data
VM2 Rank=9      G=-31.566           E=-42.087           -TS=10.520              
C1
C    6.0       20.0922842540       19.2757149402       24.2323005171
O    8.0       21.0317469053       19.9901895879       24.5222925586
O    8.0       19.9338736355       18.1610783722       24.6898063077
C    6.0       19.0077110965       19.8400833623       23.3164156497
H    1.0       18.5825338618       20.7054357047       23.8380847178
H    1.0       18.2007707400       19.1031686099       23.2227002079
C    6.0       19.4933148378       20.2878016691       21.9090339173
H    1.0       18.7490710943       20.9839777366       21.4992884916
H    1.0       20.4264511279       20.8610226933       21.9996722508
C    6.0       19.6737057184       19.1366243910       20.8903028898
H    1.0       19.8594209322       19.5751107162       19.9000835496
H    1.0       18.7394007986       18.5648970316       20.8040822471
C    6.0       20.8373635524       18.1815076773       21.2278481598
H    1.0       21.7692239573       18.7381956760       21.3923585377
H    1.0       21.0049690319       17.4747512969       20.4049441590
H    1.0       20.6231303280       17.5936187325       22.1286743184
 $end
$$$$
! Edit this basic GAMESS input file as needed.
! Conformer was generated by a VeraChem VCPack run 
! and contains     16 atoms.
!
 $contrl scftyp=rhf runtyp=optimize nzvar=0
  maxit=200 icharg=0 $end
 $system mwords=50 $end
 $basis gbasis=pm3 $end
 $statpt nstep=200 $end
 $guess guess=huckel $end
 $data
VM2 Rank=10     G=-31.563           E=-42.083           -TS=10.520              
C1
C    6.0       20.1756406153       19.3915354393       24.2179571592
O    8.0       21.2235785282       19.9536836016       24.4682259015
O    8.0       19.8436070499       18.3387427987       24.7264261989
C    6.0       19.1875814828       20.0900358588       23.2854889403
H    1.0       19.6066320282       21.0568328745       22.9810554150
H    1.0       18.2978488582       20.3098070153       23.8870079587
C    6.0       18.7614536390       19.2707722530       22.0348071515
H    1.0       18.5366520081       18.2348648162       22.3244614143
H    1.0       17.8188640617       19.6913143226       21.6591472157
C    6.0       19.7823697851       19.2876163838       20.8716196661
H    1.0       20.0058673656       20.3248741721       20.5863562544
H    1.0       19.3160542640       18.8199341472       19.9934870632
C    6.0       21.0957688997       18.5406136648       21.1834749825
H    1.0       20.8946713377       17.5228962192       21.5428346030
H    1.0       21.6827339615       19.0661848511       21.9465258183
H    1.0       21.7180463110       18.4656308843       20.2824112803
 $end
