$$$$
! Edit this basic GAMESS input file as needed.
! Conformer was generated by a VeraChem VCPack run 
! and contains     22 atoms.
!
 $contrl scftyp=rhf runtyp=optimize nzvar=0
  maxit=200 icharg=0 $end
 $system mwords=50 $end
 $basis gbasis=pm3 $end
 $statpt nstep=200 $end
 $guess guess=huckel $end
 $data
VM2 Rank=1      G=-16.998           E=-36.566           -TS=19.568              
C1
C    6.0       19.8314360920       19.1340983047       26.1874722794
O    8.0       20.0587432905       20.2372457611       26.6433547125
O    8.0       20.1744729171       18.0998502213       26.7251413914
C    6.0       19.0946144557       19.0432561732       24.8559110036
H    1.0       18.3979669600       19.8879278403       24.7936708196
H    1.0       18.4928852323       18.1264389237       24.8613228243
C    6.0       20.0506092350       19.0479853977       23.6376735831
H    1.0       20.6548417387       19.9657027278       23.6541240439
H    1.0       20.7496387274       18.2042576996       23.7216728097
C    6.0       19.2807848742       18.9553695061       22.3025049840
H    1.0       18.5820942646       19.7995067861       22.2222724537
H    1.0       18.6768439711       18.0376175046       22.2898453647
C    6.0       20.2363076687       18.9602525805       21.0899709738
H    1.0       20.8405345625       19.8777947143       21.1023463758
H    1.0       20.9350934063       18.1161819862       21.1697783731
C    6.0       19.4676616931       18.8679027818       19.7551595014
H    1.0       18.7689630634       19.7118061076       19.6707579092
H    1.0       18.8634998620       17.9502015215       19.7381955647
C    6.0       20.4253697738       18.8730392737       18.5468115709
H    1.0       21.0205446313       19.7952757633       18.5212511373
H    1.0       19.8624298961       18.8068320767       17.6067018480
H    1.0       21.1157980784       18.0204443824       18.5892079852
 $end
$$$$
! Edit this basic GAMESS input file as needed.
! Conformer was generated by a VeraChem VCPack run 
! and contains     22 atoms.
!
 $contrl scftyp=rhf runtyp=optimize nzvar=0
  maxit=200 icharg=0 $end
 $system mwords=50 $end
 $basis gbasis=pm3 $end
 $statpt nstep=200 $end
 $guess guess=huckel $end
 $data
VM2 Rank=2      G=-16.190           E=-35.868           -TS=19.677              
C1
C    6.0       19.7289553456       18.8549250801       25.9655510672
O    8.0       19.2128629758       19.6429888295       26.7331084285
O    8.0       20.5231257470       18.0021951772       26.3100083804
C    6.0       19.3783476514       18.9569767389       24.4854037466
H    1.0       18.3435185117       19.3105476628       24.4045191504
H    1.0       19.4106927603       17.9455627807       24.0649523816
C    6.0       20.3294580757       19.9033010656       23.7075927951
H    1.0       20.3434176850       20.8802457099       24.2104119801
H    1.0       21.3558027734       19.5141483556       23.7576786755
C    6.0       19.9209109528       20.1121682543       22.2300073831
H    1.0       20.5738786280       20.8802151009       21.7932881332
H    1.0       18.8981908896       20.5108067957       22.1839056541
C    6.0       20.0178775290       18.8258991917       21.3776139030
H    1.0       21.0266597102       18.4004032752       21.4682473504
H    1.0       19.3159634958       18.0714401052       21.7558342332
C    6.0       19.7076699389       19.1024125819       19.8914473836
H    1.0       20.4102204318       19.8504891471       19.4987175655
H    1.0       18.6998856103       19.5301001553       19.7970146687
C    6.0       19.8007917839       17.8181330807       19.0432669126
H    1.0       20.8085466205       17.3855332364       19.0950469902
H    1.0       19.5778927412       18.0330524681       17.9900820244
H    1.0       19.0850863008       17.0630198026       19.3939275644
 $end
$$$$
! Edit this basic GAMESS input file as needed.
! Conformer was generated by a VeraChem VCPack run 
! and contains     22 atoms.
!
 $contrl scftyp=rhf runtyp=optimize nzvar=0
  maxit=200 icharg=0 $end
 $system mwords=50 $end
 $basis gbasis=pm3 $end
 $statpt nstep=200 $end
 $guess guess=huckel $end
 $data
VM2 Rank=3      G=-16.126           E=-35.803           -TS=19.677              
C1
C    6.0       20.1334290261       19.1302855065       25.9559587916
O    8.0       19.6138752834       19.9159312084       26.7236600979
O    8.0       20.6478726080       18.0869224831       26.3070234897
C    6.0       20.1188640595       19.4613436284       24.4678846254
H    1.0       21.0340816315       19.0511296714       24.0264284987
H    1.0       20.1661069287       20.5516978684       24.3614815807
C    6.0       18.8654399025       18.9067469528       23.7422949934
H    1.0       18.8532689407       17.8105724400       23.8170161676
H    1.0       17.9680072499       19.2632312308       24.2666782270
C    6.0       18.7729668988       19.3307317075       22.2572074057
H    1.0       18.7752938098       20.4271031516       22.1867925041
H    1.0       17.8054370954       18.9957278028       21.8589051181
C    6.0       19.9060279971       18.7496993990       21.3802521311
H    1.0       20.8769713051       19.1338206753       21.7188696030
H    1.0       19.9351453183       17.6574035054       21.4940314798
C    6.0       19.7144180445       19.1070165797       19.8912934032
H    1.0       19.6828402293       20.1991069752       19.7738005399
H    1.0       18.7486790834       18.7196978121       19.5380726738
C    6.0       20.8471061801       18.5303225347       19.0184250622
H    1.0       21.8228529768       18.9263413789       19.3290371639
H    1.0       20.6948084850       18.7933909232       17.9635910640
H    1.0       20.8818637760       17.4355167322       19.0931549560
 $end
$$$$
! Edit this basic GAMESS input file as needed.
! Conformer was generated by a VeraChem VCPack run 
! and contains     22 atoms.
!
 $contrl scftyp=rhf runtyp=optimize nzvar=0
  maxit=200 icharg=0 $end
 $system mwords=50 $end
 $basis gbasis=pm3 $end
 $statpt nstep=200 $end
 $guess guess=huckel $end
 $data
VM2 Rank=4      G=-16.120           E=-35.794           -TS=19.673              
C1
C    6.0       19.9961375301       19.0328147016       25.9874446370
O    8.0       20.3223764105       20.0799999662       26.5103614992
O    8.0       20.4207300031       17.9476405406       26.3317895030
C    6.0       19.0154580881       19.0852736157       24.8213227035
H    1.0       18.3317676623       19.9261493870       24.9889902594
H    1.0       18.4134351915       18.1688473453       24.8408349108
C    6.0       19.7191220506       19.2327413359       23.4496803562
H    1.0       20.3245393210       20.1496780781       23.4494195479
H    1.0       20.4115993570       18.3915515989       23.3142419080
C    6.0       18.7021906457       19.2786733192       22.2857210867
H    1.0       17.9735714677       20.0776872591       22.4797609609
H    1.0       18.1326684383       18.3397372509       22.2536027524
C    6.0       19.3549594798       19.5356517856       20.9068048408
H    1.0       18.5570140314       19.6777487298       20.1651736219
H    1.0       19.9214668425       20.4764321411       20.9373445889
C    6.0       20.2767267752       18.3874699498       20.4374320873
H    1.0       19.7250126244       17.4375112669       20.4573047756
H    1.0       21.1264169554       18.2793375089       21.1242308303
C    6.0       20.8122990169       18.6387347853       19.0134432863
H    1.0       21.4672201011       17.8169264326       18.6959868477
H    1.0       21.3921210461       19.5700705571       18.9709591998
H    1.0       19.9889375752       18.7139806769       18.2911061284
 $end
$$$$
! Edit this basic GAMESS input file as needed.
! Conformer was generated by a VeraChem VCPack run 
! and contains     22 atoms.
!
 $contrl scftyp=rhf runtyp=optimize nzvar=0
  maxit=200 icharg=0 $end
 $system mwords=50 $end
 $basis gbasis=pm3 $end
 $statpt nstep=200 $end
 $guess guess=huckel $end
 $data
VM2 Rank=5      G=-16.086           E=-35.759           -TS=19.673              
C1
C    6.0       19.6004948441       19.0271995864       25.9802646595
O    8.0       19.2261116482       20.0644380775       26.4906033880
O    8.0       19.1950518010       17.9302126181       26.3099451747
C    6.0       20.6206496591       19.1080514100       24.8501874596
H    1.0       21.2473394963       18.2090651463       24.8918293468
H    1.0       21.2737281380       19.9678998552       25.0419318182
C    6.0       19.9629311470       19.2361897762       23.4540214016
H    1.0       19.2999583597       18.3757363140       23.2941605534
H    1.0       19.3321103420       20.1355577446       23.4314946898
C    6.0       21.0194060734       19.3115918026       22.3274157236
H    1.0       21.6161629209       18.3892331396       22.3163171322
H    1.0       21.7175700262       20.1308860811       22.5471584721
C    6.0       20.4096927408       19.5506107918       20.9257453169
H    1.0       19.8160702756       20.4749764754       20.9353298862
H    1.0       21.2294828449       19.7155510309       20.2132390865
C    6.0       19.5382593307       18.3770267629       20.4241520835
H    1.0       18.6677880194       18.2446064416       21.0799742560
H    1.0       20.1155400335       17.4430406444       20.4644214127
C    6.0       19.0474027557       18.6136791745       18.9816647925
H    1.0       18.4278106256       17.7738330641       18.6413233605
H    1.0       19.8937723054       18.7124749659       18.2893831948
H    1.0       18.4434030142       19.5282774315       18.9177991880
 $end
$$$$
! Edit this basic GAMESS input file as needed.
! Conformer was generated by a VeraChem VCPack run 
! and contains     22 atoms.
!
 $contrl scftyp=rhf runtyp=optimize nzvar=0
  maxit=200 icharg=0 $end
 $system mwords=50 $end
 $basis gbasis=pm3 $end
 $statpt nstep=200 $end
 $guess guess=huckel $end
 $data
VM2 Rank=6      G=-16.038           E=-35.715           -TS=19.677              
C1
C    6.0       19.7328768543       19.2233293897       26.0947093622
O    8.0       20.1387625106       20.2915113192       26.5078617863
O    8.0       19.7906745694       18.1897216593       26.7309251509
C    6.0       19.1378872871       19.1729813848       24.6919747612
H    1.0       18.6464063273       20.1334827907       24.4956596575
H    1.0       18.3585274555       18.4015574650       24.6798553618
C    6.0       20.1959336161       18.8808821354       23.5995601744
H    1.0       20.9753561271       19.6547901173       23.6329587067
H    1.0       20.6878087286       17.9228796843       23.8181948828
C    6.0       19.5686629248       18.8350790010       22.1893188334
H    1.0       19.0741569611       19.7935050810       21.9842611880
H    1.0       18.7915857503       18.0591655584       22.1582737687
C    6.0       20.6294794206       18.5471463900       21.1021094746
H    1.0       21.3808641916       19.3485982573       21.0964619139
H    1.0       21.1632336708       17.6220921089       21.3596276807
C    6.0       20.0305851614       18.3899542692       19.6850958052
H    1.0       19.2830563033       17.5846526187       19.6853361940
H    1.0       20.8278443158       18.0728819613       18.9987439683
C    6.0       19.3951376556       19.6883944515       19.1424446518
H    1.0       18.5178490672       19.9821149463       19.7321872357
H    1.0       19.0660861283       19.5498582034       18.1044411109
H    1.0       20.1159909035       20.5161426222       19.1608318475
 $end
$$$$
! Edit this basic GAMESS input file as needed.
! Conformer was generated by a VeraChem VCPack run 
! and contains     22 atoms.
!
 $contrl scftyp=rhf runtyp=optimize nzvar=0
  maxit=200 icharg=0 $end
 $system mwords=50 $end
 $basis gbasis=pm3 $end
 $statpt nstep=200 $end
 $guess guess=huckel $end
 $data
VM2 Rank=7      G=-16.007           E=-35.684           -TS=19.677              
C1
C    6.0       19.7434301798       19.0279185979       26.1022065210
O    8.0       19.6870082553       20.1073104569       26.6573516525
O    8.0       20.2602127420       18.0443318090       26.5940849133
C    6.0       19.1522944137       18.9066302335       24.7021873044
H    1.0       18.2945392727       19.5865562005       24.6343564686
H    1.0       18.7677923394       17.8866613434       24.5818666610
C    6.0       20.1772998706       19.2264953783       23.5863028047
H    1.0       20.5624470118       20.2456993526       23.7291136311
H    1.0       21.0352489361       18.5456725204       23.6754733490
C    6.0       19.5545345596       19.0967916765       22.1792924081
H    1.0       18.6986480472       19.7799838323       22.0923384037
H    1.0       19.1668219824       18.0779013888       22.0500378320
C    6.0       20.5826707981       19.4133220371       21.0688883099
H    1.0       21.0127681027       20.4073633400       21.2528252219
H    1.0       21.4159192229       18.6992594649       21.1213057306
C    6.0       19.9761277507       19.3965560412       19.6465206445
H    1.0       20.7374019102       19.7443435055       18.9346644569
H    1.0       19.1462339670       20.1143398570       19.5884444882
C    6.0       19.4864214303       17.9996437697       19.2071654416
H    1.0       20.2921560487       17.2581765939       19.2856022738
H    1.0       19.1485631292       18.0223455325       18.1630130289
H    1.0       18.6434969289       17.6589932479       19.8212812306
 $end
$$$$
! Edit this basic GAMESS input file as needed.
! Conformer was generated by a VeraChem VCPack run 
! and contains     22 atoms.
!
 $contrl scftyp=rhf runtyp=optimize nzvar=0
  maxit=200 icharg=0 $end
 $system mwords=50 $end
 $basis gbasis=pm3 $end
 $statpt nstep=200 $end
 $guess guess=huckel $end
 $data
VM2 Rank=8      G=-15.555           E=-35.435           -TS=19.880              
C1
C    6.0       19.9959529539       19.0180741429       25.8023067398
O    8.0       20.5946472347       19.9817661966       26.2379268674
O    8.0       20.3756965550       17.8719605373       25.9401921961
C    6.0       18.6863141211       19.2616978664       25.0575758628
H    1.0       18.1021163087       19.9779633504       25.6472512296
H    1.0       18.1150188037       18.3256663530       25.0383356574
C    6.0       18.8715166518       19.8057692813       23.6172008058
H    1.0       17.8886763787       20.0804906240       23.2108819536
H    1.0       19.4689489792       20.7275216045       23.6503533054
C    6.0       19.5430969500       18.7803479529       22.6764168910
H    1.0       18.9492372464       17.8562425407       22.6570565977
H    1.0       20.5347072164       18.5133743738       23.0673677485
C    6.0       19.6887104377       19.3307995423       21.2414083104
H    1.0       18.6980559396       19.5958244577       20.8471702538
H    1.0       20.2826889367       20.2548619054       21.2615993481
C    6.0       20.3600077380       18.3076253454       20.3014524153
H    1.0       19.7677639907       17.3823485826       20.2775165711
H    1.0       21.3522087606       18.0415756134       20.6916550006
C    6.0       20.5040573578       18.8609591349       18.8695199114
H    1.0       19.5227148187       19.1061460493       18.4426165644
H    1.0       20.9830004610       18.1209888158       18.2151942130
H    1.0       21.1190845427       19.7703818453       18.8599078056
 $end
$$$$
! Edit this basic GAMESS input file as needed.
! Conformer was generated by a VeraChem VCPack run 
! and contains     22 atoms.
!
 $contrl scftyp=rhf runtyp=optimize nzvar=0
  maxit=200 icharg=0 $end
 $system mwords=50 $end
 $basis gbasis=pm3 $end
 $statpt nstep=200 $end
 $guess guess=huckel $end
 $data
VM2 Rank=9      G=-15.535           E=-35.414           -TS=19.880              
C1
C    6.0       19.5406574776       19.1475448501       25.7848724505
O    8.0       19.5087229991       20.2904702647       26.1966996450
O    8.0       18.6068233573       18.3748742925       25.8727700804
C    6.0       20.8316592303       18.6517471560       25.1394053689
H    1.0       20.8256279239       17.5549965054       25.1417273364
H    1.0       21.6617573628       18.9658886203       25.7830618289
C    6.0       21.0620667816       19.1829763424       23.7007593996
H    1.0       21.0375018550       20.2815934661       23.7101860556
H    1.0       22.0684169185       18.8920726438       23.3703413601
C    6.0       20.0201568135       18.6447896159       22.6945952493
H    1.0       19.0115343954       18.9466438348       23.0091958013
H    1.0       20.0394307572       17.5463246237       22.6986834908
C    6.0       20.2871428643       19.1606527292       21.2641914277
H    1.0       20.2676643940       20.2591602235       21.2609064607
H    1.0       21.2941668510       18.8575906561       20.9462064191
C    6.0       19.2465961619       18.6241994960       20.2589406808
H    1.0       18.2380050743       18.9271058318       20.5727807503
H    1.0       19.2642450436       17.5254960103       20.2583422122
C    6.0       19.5161743143       19.1417452531       18.8317656978
H    1.0       20.5071888004       18.8260717628       18.4801458048
H    1.0       19.4732215590       20.2382597315       18.7969687109
H    1.0       18.7674027737       18.7508233558       18.1306191140
 $end
$$$$
! Edit this basic GAMESS input file as needed.
! Conformer was generated by a VeraChem VCPack run 
! and contains     22 atoms.
!
 $contrl scftyp=rhf runtyp=optimize nzvar=0
  maxit=200 icharg=0 $end
 $system mwords=50 $end
 $basis gbasis=pm3 $end
 $statpt nstep=200 $end
 $guess guess=huckel $end
 $data
VM2 Rank=10     G=-15.221           E=-35.031           -TS=19.810              
C1
C    6.0       19.5828090459       19.1075480095       25.9231214444
O    8.0       19.6061964714       20.2422175959       26.3573029418
O    8.0       19.7024852324       18.1184749938       26.6188035837
C    6.0       19.4169136784       18.9147219715       24.4199879030
H    1.0       18.7810721660       19.7259110017       24.0477399215
H    1.0       18.8760714154       17.9752004709       24.2550069644
C    6.0       20.7712016075       18.8918925884       23.6647645508
H    1.0       21.2843015523       19.8536804332       23.8024943179
H    1.0       21.4167032571       18.1280905244       24.1200966725
C    6.0       20.6293640484       18.5858799796       22.1547779936
H    1.0       20.1341728333       17.6141484561       22.0286212898
H    1.0       21.6342516725       18.4830685692       21.7231532001
C    6.0       19.8562918834       19.6797249767       21.3783838894
H    1.0       18.8114008410       19.7127143621       21.7134575268
H    1.0       20.2915141503       20.6607090563       21.6128427842
C    6.0       19.8899362463       19.4801984370       19.8453394519
H    1.0       20.9314778846       19.4625971852       19.4958333873
H    1.0       19.4165682705       20.3481658514       19.3660058958
C    6.0       19.1648017863       18.1983414477       19.3815182415
H    1.0       19.6717748501       17.2969213600       19.7479044360
H    1.0       19.1426218858       18.1449942390       18.2853636651
H    1.0       18.1280152668       18.1812764791       19.7419462356
 $end
$$$$
! Edit this basic GAMESS input file as needed.
! Conformer was generated by a VeraChem VCPack run 
! and contains     22 atoms.
!
 $contrl scftyp=rhf runtyp=optimize nzvar=0
  maxit=200 icharg=0 $end
 $system mwords=50 $end
 $basis gbasis=pm3 $end
 $statpt nstep=200 $end
 $guess guess=huckel $end
 $data
VM2 Rank=11     G=-15.190           E=-35.274           -TS=20.084              
C1
C    6.0       19.8253815177       19.1168246352       26.2070042586
O    8.0       20.5309968436       20.1067500502       26.2305828539
O    8.0       19.4085783933       18.5751697592       27.2113980515
C    6.0       19.4266831143       18.5007362312       24.8649904893
H    1.0       18.3311808117       18.4811178856       24.8267898299
H    1.0       19.7663606277       17.4583532534       24.8699364683
C    6.0       19.9821686359       19.2273429185       23.6112414128
H    1.0       19.6433071576       20.2726379317       23.6157318386
H    1.0       21.0797872591       19.2487888525       23.6588127179
C    6.0       19.5321703374       18.5409492577       22.3032361499
H    1.0       18.4345962495       18.5206955369       22.2579469658
H    1.0       19.8719355287       17.4961118666       22.3011136841
C    6.0       20.0858853710       19.2652330379       21.0573949480
H    1.0       19.7464220216       20.3101677547       21.0591050911
H    1.0       21.1834727170       19.2857063280       21.1022274221
C    6.0       19.6365336152       18.5798795451       19.7499257334
H    1.0       18.5389822943       18.5593740956       19.7005669510
H    1.0       19.9760486540       17.5348117177       19.7437288867
C    6.0       20.1916021716       19.3061145651       18.5082261027
H    1.0       19.8416393931       20.3461365080       18.4723328638
H    1.0       19.8625353737       18.8058645284       17.5881408159
H    1.0       21.2894597109       19.3138370430       18.5157822626
 $end
$$$$
! Edit this basic GAMESS input file as needed.
! Conformer was generated by a VeraChem VCPack run 
! and contains     22 atoms.
!
 $contrl scftyp=rhf runtyp=optimize nzvar=0
  maxit=200 icharg=0 $end
 $system mwords=50 $end
 $basis gbasis=pm3 $end
 $statpt nstep=200 $end
 $guess guess=huckel $end
 $data
VM2 Rank=12     G=-15.189           E=-34.924           -TS=19.735              
C1
C    6.0       19.7289783180       19.2105244272       25.9882416746
O    8.0       20.0549403086       20.3278568018       26.3373094129
O    8.0       19.7207267275       18.2491834521       26.7314219929
C    6.0       19.3300788454       18.9983627302       24.5321677328
H    1.0       18.8409427160       19.9150911341       24.1845785869
H    1.0       18.5825057704       18.1968827573       24.4978094319
C    6.0       20.5373188479       18.6431917155       23.6255047142
H    1.0       21.2566608904       19.4737524500       23.6290164101
H    1.0       21.0597077545       17.7792463363       24.0592734317
C    6.0       20.1408383247       18.3005840271       22.1694332971
H    1.0       19.4155258026       17.4756043511       22.1699830485
H    1.0       21.0348618713       17.9288463974       21.6528466703
C    6.0       19.5606374160       19.5062506693       21.3898488102
H    1.0       18.6647081582       19.8769972736       21.9035961924
H    1.0       20.2852716860       20.3318450767       21.3910498169
C    6.0       19.1687813014       19.1644994971       19.9332221489
H    1.0       18.6443125853       20.0268779654       19.4990791874
H    1.0       18.4526733743       18.3311663094       19.9271060192
C    6.0       20.3776999105       18.8185466798       19.0368502164
H    1.0       21.1236170399       19.6237801367       19.0550488246
H    1.0       20.0561706130       18.6796229277       17.9965439607
H    1.0       20.8646283135       17.8900268310       19.3596134052
 $end
$$$$
! Edit this basic GAMESS input file as needed.
! Conformer was generated by a VeraChem VCPack run 
! and contains     22 atoms.
!
 $contrl scftyp=rhf runtyp=optimize nzvar=0
  maxit=200 icharg=0 $end
 $system mwords=50 $end
 $basis gbasis=pm3 $end
 $statpt nstep=200 $end
 $guess guess=huckel $end
 $data
VM2 Rank=13     G=-15.188           E=-34.998           -TS=19.810              
C1
C    6.0       19.5825028301       19.1134977234       25.9229059461
O    8.0       19.5920823527       20.1598917139       26.5405864043
O    8.0       19.7261401795       18.0244039896       26.4423092901
C    6.0       19.4030404342       19.1720745763       24.4101346761
H    1.0       18.7652191787       20.0328028875       24.1761245984
H    1.0       18.8594107884       18.2713180011       24.1035515608
C    6.0       20.7501459171       19.2823019514       23.6497819145
H    1.0       21.3081061543       20.1434836337       24.0427699163
H    1.0       21.3628981370       18.3944582846       23.8584577096
C    6.0       20.5824936298       19.4550886560       22.1214288305
H    1.0       21.5723145470       19.6318302012       21.6790652979
H    1.0       19.9864399895       20.3555991828       21.9234578762
C    6.0       19.9344092862       18.2285397366       21.4340480818
H    1.0       20.4713517929       17.3206830699       21.7409820693
H    1.0       18.8977072426       18.1093801597       21.7749423867
C    6.0       19.9527896877       18.3128145571       19.8901141204
H    1.0       19.5771332792       17.3650522252       19.4804396224
H    1.0       20.9878768970       18.4151637755       19.5360089885
C    6.0       19.0963956827       19.4703870957       19.3326907364
H    1.0       18.0623010164       19.4038144490       19.6951015677
H    1.0       19.0730516988       19.4370833609       18.2357681934
H    1.0       19.5024172410       20.4462816677       19.6269618553
 $end
$$$$
! Edit this basic GAMESS input file as needed.
! Conformer was generated by a VeraChem VCPack run 
! and contains     22 atoms.
!
 $contrl scftyp=rhf runtyp=optimize nzvar=0
  maxit=200 icharg=0 $end
 $system mwords=50 $end
 $basis gbasis=pm3 $end
 $statpt nstep=200 $end
 $guess guess=huckel $end
 $data
VM2 Rank=14     G=-15.161           E=-34.896           -TS=19.735              
C1
C    6.0       19.7386306120       19.0320379658       25.9950835121
O    8.0       19.6239100294       20.0408373133       26.6627103000
O    8.0       20.1814789770       17.9862037798       26.4271112137
C    6.0       19.3252224739       19.0882352202       24.5287209779
H    1.0       18.4959009864       19.7996475997       24.4363472759
H    1.0       18.9389967112       18.1003515760       24.2541706742
C    6.0       20.4909624117       19.5009675107       23.5926055592
H    1.0       20.9155351322       20.4467128042       23.9569552151
H    1.0       21.2954980901       18.7553639186       23.6565871625
C    6.0       20.0659341640       19.6866845858       22.1162653125
H    1.0       20.9168946130       20.1119085968       21.5691110223
H    1.0       19.2560701091       20.4264485965       22.0567838612
C    6.0       19.6220540316       18.3695851436       21.4334476901
H    1.0       20.4313025885       17.6292715111       21.4947170158
H    1.0       18.7691018401       17.9449199633       21.9777004736
C    6.0       19.2017232995       18.5549295830       19.9566002193
H    1.0       18.4001159731       19.3034327795       19.8898116855
H    1.0       18.7749170364       17.6104926195       19.5917441543
C    6.0       20.3700840009       18.9595188979       19.0314552153
H    1.0       20.7529472359       19.9569495660       19.2803945812
H    1.0       20.0397654546       18.9832386560       17.9849159839
H    1.0       21.1982287067       18.2429682691       19.1079819913
 $end
$$$$
! Edit this basic GAMESS input file as needed.
! Conformer was generated by a VeraChem VCPack run 
! and contains     22 atoms.
!
 $contrl scftyp=rhf runtyp=optimize nzvar=0
  maxit=200 icharg=0 $end
 $system mwords=50 $end
 $basis gbasis=pm3 $end
 $statpt nstep=200 $end
 $guess guess=huckel $end
 $data
VM2 Rank=15     G=-15.022           E=-34.996           -TS=19.974              
C1
C    6.0       19.9997762250       18.9456530631       25.8522946736
O    8.0       20.0427567123       19.9723359958       26.5008435647
O    8.0       20.6759232445       17.9662130073       26.0972514443
C    6.0       19.0586536098       18.8898587102       24.6541685365
H    1.0       18.1791090206       19.5034458689       24.8832174366
H    1.0       18.7121660823       17.8555966662       24.5406391969
C    6.0       19.7240537985       19.3764550435       23.3432087072
H    1.0       20.0736726075       20.4097107900       23.4747783709
H    1.0       20.6110976693       18.7601066452       23.1455504896
C    6.0       18.7504886145       19.3035504609       22.1442922886
H    1.0       17.8373360569       19.8617863022       22.3917994459
H    1.0       18.4370048167       18.2637655588       21.9831900791
C    6.0       19.3381570040       19.8876252452       20.8350145117
H    1.0       18.5674184303       19.8446711246       20.0534722467
H    1.0       19.5556605126       20.9535394907       20.9874647773
C    6.0       20.6176407712       19.1879223266       20.3134468026
H    1.0       21.4365717122       19.3082251113       21.0348971398
H    1.0       20.9447752085       19.6966422716       19.3962602550
C    6.0       20.4125500201       17.6893861474       20.0034794709
H    1.0       20.1973325415       17.1195323426       20.9161887411
H    1.0       21.3172766938       17.2632902194       19.5510431340
H    1.0       19.5815644484       17.5434720925       19.3012217512
 $end
$$$$
! Edit this basic GAMESS input file as needed.
! Conformer was generated by a VeraChem VCPack run 
! and contains     22 atoms.
!
 $contrl scftyp=rhf runtyp=optimize nzvar=0
  maxit=200 icharg=0 $end
 $system mwords=50 $end
 $basis gbasis=pm3 $end
 $statpt nstep=200 $end
 $guess guess=huckel $end
 $data
VM2 Rank=16     G=-15.013           E=-35.017           -TS=20.005              
C1
C    6.0       19.8831126215       19.4765673450       25.6607425856
O    8.0       20.7171031594       20.3602922752       25.6647598733
O    8.0       19.5280198146       18.8821980118       26.6593800415
C    6.0       19.2640786284       19.0759896715       24.3264804412
H    1.0       19.2030029451       19.9759437221       23.7039733780
H    1.0       18.2377962659       18.7385362925       24.5139971668
C    6.0       20.0682390751       17.9662922404       23.6009644675
H    1.0       21.0823037055       18.3285653093       23.3860815250
H    1.0       20.1894592390       17.1145555998       24.2844095134
C    6.0       19.3938480431       17.4621812596       22.3001521502
H    1.0       18.4313824908       16.9984851660       22.5559007165
H    1.0       20.0109784371       16.6613417261       21.8705258518