$$$$
! Edit this basic GAMESS input file as needed.
! Conformer was generated by a VeraChem VCPack run 
! and contains     29 atoms.
!
 $contrl scftyp=rhf runtyp=optimize nzvar=0
  maxit=200 icharg=0 $end
 $system mwords=50 $end
 $basis gbasis=pm3 $end
 $statpt nstep=200 $end
 $guess guess=huckel $end
 $data
VM2 Rank=1      G=58.146            E=20.962            -TS=37.184              
C1
C    6.0       19.9950423644       18.9912754359       18.8122377493
H    1.0       20.8995746465       19.6133893157       18.8049888214
H    1.0       20.3035777264       17.9386217114       18.7677301691
H    1.0       19.4251763334       19.2143455099       17.9008956002
C    6.0       19.1426482926       19.2666552360       20.0689911017
H    1.0       18.2297691670       18.6558053602       20.0314050566
H    1.0       18.8212424644       20.3176536295       20.0684314836
C    6.0       19.9220227608       18.9603419919       21.3669476393
H    1.0       20.2431586394       17.9095062794       21.3619477755
H    1.0       20.8346423741       19.5714942228       21.3990173587
C    6.0       19.0716633748       19.2348460134       22.6277258251
H    1.0       18.1591244951       18.6235894941       22.5947677229
H    1.0       18.7506717393       20.2857476798       22.6318649326
C    6.0       19.8517483318       18.9282463715       23.9259812122
H    1.0       20.1728894716       17.8773647537       23.9213574193
H    1.0       20.7643034246       19.5395464277       23.9585307203
C    6.0       19.0012092027       19.2026735287       25.1866994635
H    1.0       18.0885042593       18.5913556379       25.1546623454
H    1.0       18.6798698680       20.2536173234       25.1917951175
C    6.0       19.7802504056       18.8965217011       26.4846667591
H    1.0       20.0986613942       17.8454612299       26.4858327483
H    1.0       20.6907275209       19.5094489699       26.5229642478
C    6.0       18.9244692288       19.1731603998       27.7331728481
H    1.0       18.0245211755       18.5527537294       27.7076666804
H    1.0       18.6188380259       20.2228814336       27.7449779954
N    7.0       19.6549460384       18.8842793217       29.0285774016
H    1.0       20.4995992580       19.4574107973       29.1267603804
H    1.0       19.9465639681       17.9032122917       29.0920228217
H    1.0       19.0674577372       19.0750126661       29.8478702896
 $end
$$$$
! Edit this basic GAMESS input file as needed.
! Conformer was generated by a VeraChem VCPack run 
! and contains     29 atoms.
!
 $contrl scftyp=rhf runtyp=optimize nzvar=0
  maxit=200 icharg=0 $end
 $system mwords=50 $end
 $basis gbasis=pm3 $end
 $statpt nstep=200 $end
 $guess guess=huckel $end
 $data
VM2 Rank=2      G=58.386            E=21.098            -TS=37.288              
C1
C    6.0       19.8614662326       19.1636243433       18.8953999962
H    1.0       19.7031801454       18.0903952948       18.7269256208
H    1.0       19.4175387183       19.7065014605       18.0508497023
H    1.0       20.9424548006       19.3551235877       18.8884932329
C    6.0       19.2267561158       19.6153621375       20.2276595816
H    1.0       18.1419542906       19.4426978277       20.1917396224
H    1.0       19.3717012551       20.6976761040       20.3520863082
C    6.0       19.8344583878       18.8657638097       21.4337846216
H    1.0       19.6892797807       17.7843526601       21.3038564465
H    1.0       20.9190285388       19.0394909064       21.4643400914
C    6.0       19.2012559572       19.3153247762       22.7698073970
H    1.0       18.1167085347       19.1415063999       22.7384051242
H    1.0       19.3465658508       20.3968373998       22.8988028261
C    6.0       19.8095362083       18.5650733111       23.9761101173
H    1.0       19.6649058231       17.4835934522       23.8458893637
H    1.0       20.8940223930       18.7394219531       24.0076134647
C    6.0       19.1757567069       19.0139478452       25.3120969424
H    1.0       18.0916452376       18.8366649472       25.2816928648
H    1.0       19.3188085472       20.0958668081       25.4346518209
C    6.0       19.7867360302       18.2625080785       26.5183611414
H    1.0       19.6720712116       17.1806246857       26.3688431972
H    1.0       20.8657553046       18.4582763640       26.5766079779
C    6.0       19.1219985619       18.6430011155       27.8552744922
H    1.0       19.5349692890       18.0226379078       28.6553706777
H    1.0       18.0464402953       18.4550347251       27.7983327483
N    7.0       19.3260357993       20.0933945831       28.2465057104
H    1.0       20.3203022322       20.3263291184       28.3386664256
H    1.0       18.8822545714       20.3113005281       29.1455037099
H    1.0       18.9276854204       20.7330847022       27.5519764744
 $end
$$$$
! Edit this basic GAMESS input file as needed.
! Conformer was generated by a VeraChem VCPack run 
! and contains     29 atoms.
!
 $contrl scftyp=rhf runtyp=optimize nzvar=0
  maxit=200 icharg=0 $end
 $system mwords=50 $end
 $basis gbasis=pm3 $end
 $statpt nstep=200 $end
 $guess guess=huckel $end
 $data
VM2 Rank=3      G=58.417            E=21.129            -TS=37.288              
C1
C    6.0       19.7815246500       18.9388660644       18.8904204234
H    1.0       20.4989780225       18.1084219572       18.8607907670
H    1.0       19.1064778971       18.8319626210       18.0313887171
H    1.0       20.3386442766       19.8767210363       18.7667190707
C    6.0       18.9854237724       18.9370300328       20.2125610755
H    1.0       18.4127731701       18.0023379950       20.2920453998
H    1.0       18.2537893897       19.7570409539       20.1987414606
C    6.0       19.9128925111       19.0862608929       21.4387216468
H    1.0       20.6437089264       18.2657458739       21.4471606579
H    1.0       20.4849172783       20.0205876574       21.3536895979
C    6.0       19.1192731215       19.0850792381       22.7646818915
H    1.0       18.5472064044       18.1506786364       22.8487127342
H    1.0       18.3886212464       19.9057528142       22.7554473109
C    6.0       20.0476087764       19.2342545116       23.9910525982
H    1.0       20.7779212602       18.4132437770       24.0003189344
H    1.0       20.6201451167       20.1682856120       23.9058349773
C    6.0       19.2539768818       19.2338310294       25.3170123066
H    1.0       18.6800141056       18.3007774693       25.3945273259
H    1.0       18.5258212646       20.0568593163       25.3089856982
C    6.0       20.1851538412       19.3821108793       26.5433702015
H    1.0       20.8973159946       18.5468918205       26.5785090425
H    1.0       20.7814645441       20.2982987408       26.4385410846
C    6.0       19.4106945753       19.4540566383       27.8734182566
H    1.0       18.6963617309       20.2810771761       27.8392870094
H    1.0       20.1113354037       19.6418255782       28.6915837792
N    7.0       18.6474518703       18.1865107131       28.2037615999
H    1.0       17.9443513840       17.9704316693       27.4901665611
H    1.0       18.1532590466       18.2621906492       29.0996788993
H    1.0       19.2698433521       17.3745694509       28.2722955535
 $end
$$$$
! Edit this basic GAMESS input file as needed.
! Conformer was generated by a VeraChem VCPack run 
! and contains     29 atoms.
!
 $contrl scftyp=rhf runtyp=optimize nzvar=0
  maxit=200 icharg=0 $end
 $system mwords=50 $end
 $basis gbasis=pm3 $end
 $statpt nstep=200 $end
 $guess guess=huckel $end
 $data
VM2 Rank=4      G=58.653            E=21.369            -TS=37.284              
C1
C    6.0       20.2025533446       18.4715038180       19.1139055726
H    1.0       20.3377868146       17.3931328042       19.2690852093
H    1.0       19.7628172188       18.6163118779       18.1185583323
H    1.0       21.1933380232       18.9443591026       19.1167856206
C    6.0       19.2949155097       19.0791455829       20.2042251789
H    1.0       18.3019204797       18.6107346862       20.1547309093
H    1.0       19.1507880463       20.1500504232       20.0035002481
C    6.0       19.8914554802       18.8889050341       21.6162679313
H    1.0       20.0359437481       17.8172455248       21.8113858937
H    1.0       20.8847017472       19.3568044545       21.6603235875
C    6.0       18.9852117941       19.4960492795       22.7108820104
H    1.0       17.9921883489       19.0276771680       22.6663212261
H    1.0       18.8407592373       20.5674603160       22.5142974961
C    6.0       19.5824279463       19.3057812904       24.1233722733
H    1.0       19.7299693735       18.2338004448       24.3108554763
H    1.0       20.5741617629       19.7768230579       24.1679590705
C    6.0       18.6723764958       19.9133453178       25.2175835367
H    1.0       17.6898914819       19.4214518748       25.1981295579
H    1.0       18.4935834975       20.9735884875       24.9910366786
C    6.0       19.2753301381       19.8046750770       26.6377586594
H    1.0       20.2462486181       20.3170120187       26.6666853458
H    1.0       18.6203492529       20.3317781769       27.3442363944
C    6.0       19.4454526180       18.3460042134       27.1017757370
H    1.0       20.1312364946       17.8216038654       26.4314261657
H    1.0       18.4787485711       17.8360047814       27.0742934208
N    7.0       19.9942766732       18.2325903868       28.5092291004
H    1.0       20.9170347285       18.6713771314       28.5957445756
H    1.0       20.0999988914       17.2541405469       28.7993107071
H    1.0       19.3801743507       18.6829788502       29.1959187646
 $end
$$$$
! Edit this basic GAMESS input file as needed.
! Conformer was generated by a VeraChem VCPack run 
! and contains     29 atoms.
!
 $contrl scftyp=rhf runtyp=optimize nzvar=0
  maxit=200 icharg=0 $end
 $system mwords=50 $end
 $basis gbasis=pm3 $end
 $statpt nstep=200 $end
 $guess guess=huckel $end
 $data
VM2 Rank=5      G=58.661            E=21.378            -TS=37.284              
C1
C    6.0       20.4800178937       19.2507603166       19.1313411394
H    1.0       20.9494575809       18.2587942700       19.1015848921
H    1.0       20.0617328809       19.4557019186       18.1373142532
H    1.0       21.2636683546       19.9942622078       19.3271765286
C    6.0       19.3772434516       19.3102792538       20.2093860496
H    1.0       18.5920710109       18.5799615545       19.9684696346
H    1.0       18.9039254351       20.3020362711       20.1924135786
C    6.0       19.9398948436       19.0250321332       21.6193422557
H    1.0       20.4138434723       18.0337461227       21.6308866804
H    1.0       20.7258749526       19.7559519965       21.8546987270
C    6.0       18.8384496292       19.0838237247       22.7016754687
H    1.0       18.0526590891       18.3531505143       22.4648583497
H    1.0       18.3649967343       20.0753625468       22.6896634937
C    6.0       19.4016386255       18.7981154248       24.1120612622
H    1.0       19.8723233305       17.8052831411       24.1240380188
H    1.0       20.1903741334       19.5275847065       24.3397284343
C    6.0       18.2970083519       18.8591455374       25.1940474100
H    1.0       17.4919525003       18.1601296025       24.9282099518
H    1.0       17.8463918983       19.8613262895       25.2079334490
C    6.0       18.8129628482       18.5062049351       26.6087856090
H    1.0       17.9623684669       18.4839879015       27.3030086990
H    1.0       19.2413898488       17.4950498442       26.6037599939
C    6.0       19.8597979766       19.5096198824       27.1276974781
H    1.0       19.4331483150       20.5162491321       27.1340286269
H    1.0       20.7320453492       19.5088547001       26.4690257566
N    7.0       20.3369863797       19.1950187920       28.5306633274
H    1.0       19.5668307050       19.2071667006       29.2075871900
H    1.0       21.0329997793       19.8742112500       28.8576950056
H    1.0       20.7737140592       18.2689388246       28.5867490717
 $end
$$$$
! Edit this basic GAMESS input file as needed.
! Conformer was generated by a VeraChem VCPack run 
! and contains     29 atoms.
!
 $contrl scftyp=rhf runtyp=optimize nzvar=0
  maxit=200 icharg=0 $end
 $system mwords=50 $end
 $basis gbasis=pm3 $end
 $statpt nstep=200 $end
 $guess guess=huckel $end
 $data
VM2 Rank=6      G=58.793            E=21.498            -TS=37.295              
C1
C    6.0       18.9505070245       18.2468622973       19.5329252291
H    1.0       19.6611954797       17.4104147865       19.5504904963
H    1.0       18.1072301368       17.9960250679       20.1882307468
H    1.0       18.5594601630       18.3338447521       18.5109413821
C    6.0       19.6326688646       19.5646916775       19.9647625949
H    1.0       18.8947662340       20.3790722631       19.9679985678
H    1.0       20.3867065525       19.8359031741       19.2126771931
C    6.0       20.3208340085       19.4764666691       21.3482553197
H    1.0       21.0717068592       18.6744605327       21.3339418524
H    1.0       20.8704225568       20.4114591407       21.5244137149
C    6.0       19.3314781152       19.2445109973       22.5153092909
H    1.0       18.8252890938       18.2784145857       22.3896361866
H    1.0       18.5523127936       20.0188824938       22.4949396976
C    6.0       20.0458432796       19.2669438244       23.8854870573
H    1.0       20.8275890019       18.4949082408       23.9037062280
H    1.0       20.5502495222       20.2337461069       24.0208466338
C    6.0       19.0601564090       19.0315760539       25.0522027490
H    1.0       18.5557856763       18.0644363140       24.9180049780
H    1.0       18.2779114115       19.8032725605       25.0338791673
C    6.0       19.7733753249       19.0541962765       26.4219234440
H    1.0       20.5526731187       18.2807458702       26.4460143421
H    1.0       20.2743592403       20.0213814144       26.5622009958
C    6.0       18.7831892607       18.8188514527       27.5759562794
H    1.0       18.2938834744       17.8492967446       27.4494470184
H    1.0       18.0145505610       19.5963847066       27.5660522059
N    7.0       19.4459477129       18.8339007514       28.9381780356
H    1.0       19.9030293736       19.7314508359       29.1306224155
H    1.0       20.1630029776       18.1056544324       29.0221069097
H    1.0       18.7691324033       18.6753046836       29.6928487238
 $end
$$$$
! Edit this basic GAMESS input file as needed.
! Conformer was generated by a VeraChem VCPack run 
! and contains     29 atoms.
!
 $contrl scftyp=rhf runtyp=optimize nzvar=0
  maxit=200 icharg=0 $end
 $system mwords=50 $end
 $basis gbasis=pm3 $end
 $statpt nstep=200 $end
 $guess guess=huckel $end
 $data
VM2 Rank=7      G=58.800            E=21.506            -TS=37.295              
C1
C    6.0       19.6452599605       20.1988434567       19.5764174710
H    1.0       20.7242099950       20.3969589879       19.6170181579
H    1.0       19.3015601455       20.4188795575       18.5574039003
H    1.0       19.1407766187       20.8997488452       20.2529454003
C    6.0       19.3356854400       18.7305285204       19.9461699493
H    1.0       19.7594517448       18.0740384331       19.1733807351
H    1.0       18.2492827090       18.5658660802       19.9276512095
C    6.0       19.9054779107       18.3095035936       21.3222083028
H    1.0       19.7386397724       17.2314366377       21.4534573921
H    1.0       20.9942568047       18.4569579813       21.3290314493
C    6.0       19.2685466037       19.0676790623       22.5113806222
H    1.0       18.1757772354       18.9607902003       22.4714275239
H    1.0       19.4878881697       20.1404399885       22.4311587442
C    6.0       19.7890239718       18.5450200757       23.8693705056
H    1.0       19.5678581755       17.4724198420       23.9592040663
H    1.0       20.8823325662       18.6487061589       23.9071131515
C    6.0       19.1569017638       19.3033751789       25.0582851663
H    1.0       18.0634272214       19.2002146916       25.0204740774
H    1.0       19.3782323433       20.3761786786       24.9696108874
C    6.0       19.6764103173       18.7813602953       26.4158314509
H    1.0       19.4524926111       17.7103806586       26.5105572435
H    1.0       20.7686066785       18.8876747534       26.4595911399
C    6.0       19.0407487981       19.5428670821       27.5921314861
H    1.0       17.9540402473       19.4261264034       27.5621946688
H    1.0       19.2750511266       20.6077616689       27.5111198441
N    7.0       19.5259452341       19.0588227349       28.9432050457
H    1.0       19.0904728737       19.5788972852       29.7130397324
H    1.0       20.5404904086       19.1670371097       29.0458811133
H    1.0       19.3111981526       18.0674165819       29.0933834989
 $end
$$$$
! Edit this basic GAMESS input file as needed.
! Conformer was generated by a VeraChem VCPack run 
! and contains     29 atoms.
!
 $contrl scftyp=rhf runtyp=optimize nzvar=0
  maxit=200 icharg=0 $end
 $system mwords=50 $end
 $basis gbasis=pm3 $end
 $statpt nstep=200 $end
 $guess guess=huckel $end
 $data
VM2 Rank=8      G=58.820            E=21.536            -TS=37.284              
C1
C    6.0       20.2307953612       18.4039297292       19.2510386554
H    1.0       19.5718983653       18.9339593735       18.5509251397
H    1.0       21.2153226580       18.8891488211       19.2281966147
H    1.0       20.3529477998       17.3759297416       18.8858884875
C    6.0       19.6435174730       18.4090102742       20.6783023216
H    1.0       20.3080896110       17.8362825659       21.3385693139
H    1.0       18.6737872397       17.8920148065       20.6749507020
C    6.0       19.4662704645       19.8484947392       21.2162995988
H    1.0       20.4439160657       20.3470824791       21.2695879952
H    1.0       18.8649271455       20.4253096548       20.5000737160
C    6.0       18.7747833148       19.9125406163       22.6002745389
H    1.0       17.7907627188       19.4271411774       22.5423207312
H    1.0       18.5847451723       20.9667397935       22.8449455400
C    6.0       19.6066650499       19.2735024576       23.7380692033
H    1.0       19.7409816811       18.2007818461       23.5471916271
H    1.0       20.6089959005       19.7232415435       23.7567945369
C    6.0       18.9315446918       19.4604584486       25.1155996490
H    1.0       17.9273218928       19.0144478535       25.0960316049
H    1.0       18.7994200109       20.5324482069       25.3183774077
C    6.0       19.7570911607       18.8201449816       26.2530962800
H    1.0       19.8865008522       17.7472253153       26.0576439337
H    1.0       20.7601230276       19.2666687738       26.2787130128
C    6.0       19.0763444997       19.0126477890       27.6195339569
H    1.0       18.0834503645       18.5550664138       27.6040480931
H    1.0       18.9603970100       20.0800509266       27.8260965364
N    7.0       19.8569879843       18.3972709642       28.7627857961
H    1.0       19.9777668552       17.3861293029       28.6421557180
H    1.0       19.3864476467       18.5366684686       29.6638498446
H    1.0       20.7938440385       18.8052638690       28.8487767437
 $end
$$$$
! Edit this basic GAMESS input file as needed.
! Conformer was generated by a VeraChem VCPack run 
! and contains     29 atoms.
!
 $contrl scftyp=rhf runtyp=optimize nzvar=0
  maxit=200 icharg=0 $end
 $system mwords=50 $end
 $basis gbasis=pm3 $end
 $statpt nstep=200 $end
 $guess guess=huckel $end
 $data
VM2 Rank=9      G=58.822            E=21.538            -TS=37.284              
C1
C    6.0       19.8159048005       17.8220853550       19.5012455620
H    1.0       19.4326581452       16.8906681902       19.9380776174
H    1.0       19.4939556512       17.8599554723       18.4524561757
H    1.0       20.9128663048       17.7807379870       19.5158793818
C    6.0       19.2970419577       19.0524085237       20.2752041883
H    1.0       18.2001230413       19.0851157681       20.2151905520
H    1.0       19.6684752578       19.9682700629       19.7944674348
C    6.0       19.7372740746       19.0242479693       21.7555805554
H    1.0       19.3680519757       18.1010361435       22.2208064198
H    1.0       20.8341970421       18.9937669813       21.8104953692
C    6.0       19.2138968381       20.2554716694       22.5335572899
H    1.0       18.1151619282       20.2583885377       22.5274588697
H    1.0       19.5275258107       21.1688990823       22.0095160732
C    6.0       19.7245580451       20.3290335564       23.9935001490
H    1.0       20.8232498298       20.3423067694       23.9983948705
H    1.0       19.4027171206       21.2865047905       24.4259837000
C    6.0       19.2117020660       19.1746464084       24.8876682371
H    1.0       19.5892643210       18.2137096004       24.5141115637
H    1.0       18.1149527570       19.1291988615       24.8364900919
C    6.0       19.6509466578       19.3502091901       26.3579563288
H    1.0       20.7468640555       19.3950405938       26.4134150879
H    1.0       19.2689143174       20.3033250457       26.7474522815
C    6.0       19.1406810217       18.1967319362       27.2393182175
H    1.0       19.5320647793       17.2466858278       26.8655732841
H    1.0       18.0486767375       18.1586155882       27.2001400018
N    7.0       19.5519945386       18.3331653915       28.6909694722
H    1.0       19.1911943778       19.1964685730       29.1105863380
H    1.0       20.5716025772       18.3479058649       28.7992432908
H    1.0       19.2021103394       17.5549469977       29.2607946093
 $end
$$$$
! Edit this basic GAMESS input file as needed.
! Conformer was generated by a VeraChem VCPack run 
! and contains     29 atoms.
!
 $contrl scftyp=rhf runtyp=optimize nzvar=0
  maxit=200 icharg=0 $end
 $system mwords=50 $end
 $basis gbasis=pm3 $end
 $statpt nstep=200 $end
 $guess guess=huckel $end
 $data
VM2 Rank=10     G=58.834            E=21.550            -TS=37.285              
C1
C    6.0       20.5850513220       19.9824802346       19.5495627841
H    1.0       21.4613185479       19.3211139948       19.5504465131
H    1.0       20.3264371217       20.1980029530       18.5047115519
H    1.0       20.8700109129       20.9284422221       20.0283034129
C    6.0       19.3948245385       19.3268914139       20.2813357374
H    1.0       19.1111322669       18.4021884748       19.7594978238
H    1.0       18.5247045816       19.9967350386       20.2354700785
C    6.0       19.7328770017       19.0120321448       21.7553426901
H    1.0       20.6016347740       18.3406229318       21.7960294086
H    1.0       20.0231937047       19.9416397700       22.2619243871
C    6.0       18.5384976300       18.3585200906       22.4911883751
H    1.0       18.2120368681       17.4739724607       21.9269785030
H    1.0       17.6850844660       19.0505204237       22.5004612418
C    6.0       18.8672230578       17.9211484525       23.9397303853
H    1.0       18.0068075573       17.3660967386       24.3384493559
H    1.0       19.7103115871       17.2165920656       23.9286035909
C    6.0       19.1863944574       19.1034181427       24.8860600716
H    1.0       18.3657652582       19.8334613290       24.8522188822
H    1.0       20.0913277658       19.6236482858       24.5455411375
C    6.0       19.3952568050       18.6318050188       26.3418981878
H    1.0       18.4916217845       18.1197243927       26.6986939477
H    1.0       20.2156535385       17.9026873774       26.3800776399
C    6.0       19.7158699218       19.8122968828       27.2753494117
H    1.0       18.8940511100       20.5331149115       27.2530712332
H    1.0       20.6246113634       20.3154502433       26.9340576287
N    7.0       19.9280052658       19.3894076194       28.7145323569
H    1.0       20.7075394001       18.7297341319       28.8078037345
H    1.0       19.0971336156       18.9322300407       29.1046453731
H    1.0       20.1402363755       20.1904012891       29.3196024346
 $end
$$$$
! Edit this basic GAMESS input file as needed.
! Conformer was generated by a VeraChem VCPack run 
! and contains     29 atoms.
!
 $contrl scftyp=rhf runtyp=optimize nzvar=0
  maxit=200 icharg=0 $end
 $system mwords=50 $end
 $basis gbasis=pm3 $end
 $statpt nstep=200 $end
 $guess guess=huckel $end
 $data
VM2 Rank=11     G=58.851            E=21.567            -TS=37.284              
C1
C    6.0       20.5426746303       19.2796463254       19.2706240664
H    1.0       21.2920379746       20.0127064182       18.9448669193
H    1.0       20.9993875657       18.2828864294       19.2146289306
H    1.0       19.7070504457       19.3134708769       18.5594107596
C    6.0       20.0641740333       19.5901471230       20.7047202012
H    1.0       19.6393356690       20.6031783490       20.7355817574
H    1.0       20.9317481683       19.5874180736       21.3777238756
C    6.0       19.0097282984       18.5664855030       21.1876634483
H    1.0       18.1893737472       18.5282850419       20.4576837436
H    1.0       19.4516419399       17.5607296608       21.2073471128
C    6.0       18.4138040003       18.8989257021       22.5776298167
H    1.0       17.5971272840       18.1931173535       22.7830310181
H    1.0       17.9585440732       19.8986207649       22.5528100009
C    6.0       19.4462298691       18.8231527672       23.7279921818
H    1.0       19.9388990525       17.8411231140       23.7146720072
H    1.0       20.2305567041       19.5764934737       23.5779361314
C    6.0       18.7854028023       19.0501039327       25.1064455360
H    1.0       18.0031314380       18.2954157071       25.2684190461
H    1.0       18.2888530003       20.0304391098       25.1187933998
C    6.0       19.8137601721       18.9794361598       26.2566252366
H    1.0       20.3090389377       17.9992482078       26.2502623604
H    1.0       20.5943697046       19.7363179462       26.1020865434
C    6.0       19.1452313030       19.2059494678       27.6238789240
H    1.0       18.3784342755       18.4443527623       27.7895713162
H    1.0       18.6646010414       20.1878725138       27.6406620252
N    7.0       20.1229948911       19.1441530190       28.7794205890
H    1.0       19.6575182898       19.2974750828       29.6808531092
H    1.0       20.8567811950       19.8557448019       28.6973027225
H    1.0       20.5905371392       18.2332325471       28.8357968145
 $end
$$$$
! Edit this basic GAMESS input file as needed.
! Conformer was generated by a VeraChem VCPack run 
! and contains     29 atoms.
!
 $contrl scftyp=rhf runtyp=optimize nzvar=0
  maxit=200 icharg=0 $end
 $system mwords=50 $end
 $basis gbasis=pm3 $end
 $statpt nstep=200 $end
 $guess guess=huckel $end
 $data
VM2 Rank=12     G=58.857            E=21.572            -TS=37.285              
C1
C    6.0       19.8231485459       18.4684045363       19.1102908704
H    1.0       20.9198537317       18.4227077322       19.0902333163
H    1.0       19.4407320754       17.6798084468       18.4492909756
H    1.0       19.5135259885       19.4362117298       18.6946713811
C    6.0       19.2866082281       18.2840800693       20.5455467716
H    1.0       19.5833417090       17.2948488703       20.9213815621
H    1.0       18.1878148958       18.3005815616       20.5289571615
C    6.0       19.8102652304       19.3823254155       21.4972143464
H    1.0       20.9088589234       19.3633075481       21.5093471057
H    1.0       19.5135668492       20.3690603383       21.1154944809
C    6.0       19.2748095162       19.2014348363       22.9355342174
H    1.0       19.5699691112       18.2108961395       23.3054698717
H    1.0       18.1763815943       19.2244457503       22.9230139846
C    6.0       19.8043578525       20.3009727677       23.8871695648
H    1.0       20.9002522631       20.2456154179       23.9443829832
H    1.0       19.5672533596       21.2860911596       23.4620687769
C    6.0       19.2061552792       20.2263898117       25.3134398634
H    1.0       18.1110642406       20.2988381326       25.2579195694
H    1.0       19.5448387116       21.1053250851       25.8795316727
C    6.0       19.6056069669       18.9476133493       26.0863801250
H    1.0       19.2047615277       18.0596729014       25.5816196637
H    1.0       20.6992251072       18.8487537798       26.0977081314
C    6.0       19.0805479861       18.9809032888       27.5323596404
H    1.0       17.9902625126       19.0627225790       27.5263605330
H    1.0       19.4883654466       19.8519912924       28.0522956377
N    7.0       19.4525003948       17.7458759250       28.3270646005
H    1.0       20.4687773471       17.6261402848       28.3931961149
H    1.0       19.0743957688       16.8914933581       27.9045070813
H    1.0       19.0935173333       17.7885638121       29.2872984414
 $end
$$$$
! Edit this basic GAMESS input file as needed.
! Conformer was generated by a VeraChem VCPack run 
! and contains     29 atoms.
!
 $contrl scftyp=rhf runtyp=optimize nzvar=0
  maxit=200 icharg=0 $end
 $system mwords=50 $end
 $basis gbasis=pm3 $end
 $statpt nstep=200 $end
 $guess guess=huckel $end
 $data
VM2 Rank=13     G=58.908            E=21.623            -TS=37.285              
C1
C    6.0       20.1875384781       19.4931120216       19.1330752763
H    1.0       21.0665833427       18.8363146341       19.0991528444
H    1.0       19.3418731059       18.9561339023       18.6838976897
H    1.0       20.3987101040       20.3714432618       18.5093859904
C    6.0       19.8681688074       19.9177585878       20.5820381222
H    1.0       19.0063899004       20.5998367353       20.5805371809
H    1.0       20.7178901410       20.4811524308       20.9924538953
C    6.0       19.5669120743       18.6989326033       21.4818955215
H    1.0       18.7189194338       18.1376384849       21.0656698699
H    1.0       20.4302153773       18.0191432517       21.4790865987
C    6.0       19.2460867227       19.1201168921       22.9337506229