$$$$
! Edit this basic GAMESS input file as needed.
! Conformer was generated by a VeraChem VCPack run 
! and contains    126 atoms.
!
 $contrl scftyp=rhf runtyp=optimize nzvar=0
  maxit=200 icharg=0 $end
 $system mwords=50 $end
 $basis gbasis=pm3 $end
 $statpt nstep=200 $end
 $guess guess=huckel $end
 $data
VM2 Rank=1      G=522.282           E=363.382           -TS=158.900             
C1
C    6.0       17.0149526078       16.2428590643       22.8198631290
H    1.0       16.0435920873       16.2587967060       23.3262407062
O    8.0       17.2666206564       17.5042993544       22.1557269380
C    6.0       18.1324088456       15.9814524497       23.8648265381
H    1.0       17.9093372077       15.0159704872       24.3378920890
O    8.0       18.1701703657       17.0013513036       24.8774377968
H    1.0       17.2734133399       17.0655865660       25.2677360456
C    6.0       19.5133748586       15.8632649078       23.1802452478
H    1.0       19.7756029073       16.8461581280       22.7649531654
O    8.0       20.4822009041       15.4686269580       24.1576703158
H    1.0       20.3382725122       16.0845404800       24.9112704997
C    6.0       19.4790988379       14.8343659931       22.0235103656
H    1.0       19.4329551603       13.8247720235       22.4527380048
C    6.0       18.2653735702       15.0523729386       21.0801965649
H    1.0       18.4309686148       15.9783133928       20.5212173587
O    8.0       17.0492751812       15.1638137691       21.8579590859
C    6.0       18.0654386060       13.9188060000       20.0504962976
H    1.0       18.9241117797       13.9020016983       19.3662703824
H    1.0       17.1748387206       14.1433357121       19.4481703626
O    8.0       17.9235487874       12.6507763573       20.6975461710
H    1.0       17.1539158322       12.7354290798       21.3034515451
C    6.0       15.0180799382       20.3351363264       20.0319384486
H    1.0       14.3999987194       20.8624873028       19.2943012023
O    8.0       15.5215005902       21.2415889730       21.0317451443
C    6.0       14.1751694519       19.2593199869       20.7574726760
H    1.0       13.7970369199       18.5684619720       19.9924722818
O    8.0       13.0673089097       19.8701871032       21.4357000547
H    1.0       13.4421713271       20.6333557823       21.9311575968
C    6.0       15.0262710275       18.4421227093       21.7627618000
H    1.0       15.3033090075       19.1041695804       22.5946520756
O    8.0       14.2114875807       17.3685709002       22.2437579725
H    1.0       13.3438758257       17.7790598366       22.4570177724
C    6.0       16.3399260716       17.9101251859       21.1170301535
H    1.0       16.1026407131       17.0746404045       20.4457597860
C    6.0       17.0628856891       19.0204134426       20.3046281460
H    1.0       17.4650822379       19.7577856507       21.0125329544
O    8.0       16.1283335287       19.6611071257       19.4024051127
C    6.0       18.2438471711       18.5055005479       19.4531032616
H    1.0       19.0105594505       18.0911074333       20.1204534801
H    1.0       18.6939266258       19.3572266444       18.9256900717
O    8.0       17.8164035990       17.5155432440       18.5136261586
H    1.0       17.0937098057       17.9271874072       17.9907118723
C    6.0       18.4295006461       24.1011576806       20.8764571620
H    1.0       19.1134617894       24.9532343915       20.7711624720
O    8.0       19.1318520417       22.9033013245       21.2715676130
C    6.0       17.2926912413       24.4192356709       21.8778029315
H    1.0       16.7149172873       25.2520764857       21.4560659286
O    8.0       17.8014320928       24.8077822200       23.1631246143
H    1.0       18.2599422898       24.0142433673       23.5385999800
C    6.0       16.3457791771       23.2074217972       22.0249244942
H    1.0       16.8990704136       22.4277457334       22.5669508696
O    8.0       15.2056865028       23.6036434163       22.7950203472
H    1.0       15.5700447076       24.0809570461       23.5728041240
C    6.0       15.8853102362       22.5984465662       20.6683200234
H    1.0       15.0014044472       23.1494331723       20.3224941508
C    6.0       16.9854127125       22.6279415557       19.5481317689
H    1.0       17.6451257060       21.7610751271       19.6765706722
O    8.0       17.7802749325       23.8374067155       19.6224878321
C    6.0       16.4277782629       22.6033582134       18.1028264549
H    1.0       15.9280606723       21.6503479251       17.9000189608
H    1.0       17.2725255720       22.6707497165       17.4040685805
O    8.0       15.5215905939       23.6874400924       17.8805063284
H    1.0       16.0219406398       24.5088538739       18.0850032702
C    6.0       22.6769721601       21.6619043765       23.0688428414
H    1.0       23.6112412546       21.6351780772       23.6403664927
O    8.0       22.4724118234       20.4141591993       22.3639129620
C    6.0       21.4901655374       21.9031645110       24.0395492640
H    1.0       21.6795526269       22.8588417683       24.5460279215
O    8.0       21.3835753059       20.8632588823       25.0265843483
H    1.0       22.2514113176       20.7906374637       25.4762715234
C    6.0       20.1594358523       22.0359923599       23.2641821416
H    1.0       19.9270178194       21.0617792855       22.8122972596
O    8.0       19.1254763630       22.4117102047       24.1804157088
H    1.0       19.2177185730       21.7807832868       24.9296826100
C    6.0       20.2724366419       23.0877698440       22.1333238374
H    1.0       20.2882901823       24.0885594069       22.5847825675
C    6.0       21.5482629733       22.8877879388       21.2714832752
H    1.0       21.4220857365       21.9733191950       20.6840532612
O    8.0       22.7081118891       22.7599685816       22.1285974774
C    6.0       21.8177319895       24.0415639251       20.2808183732
H    1.0       21.0080405365       24.0727221903       19.5397398783
H    1.0       22.7477103343       23.8284295694       19.7366745403
O    8.0       21.9141196989       25.2962859891       20.9613239903
H    1.0       22.6403992799       25.1989291216       21.6168116943
C    6.0       24.8635924683       17.6247553428       20.3436345660
H    1.0       25.5312894418       17.1118100557       19.6398584813
O    8.0       24.2932349748       16.6988687832       21.2881599682
C    6.0       25.6538881026       18.6852883597       21.1467422466
H    1.0       26.0832342582       19.3910324101       20.4234984063
O    8.0       26.7129338214       18.0602536404       21.8871884184
H    1.0       26.3054215553       17.2876476033       22.3404414694
C    6.0       24.7351251674       19.4828224417       22.1072630395
H    1.0       24.4020053719       18.8044785633       22.9047465674
O    8.0       25.5141806774       20.5459897035       22.6644800698
H    1.0       26.3653850183       20.1307370423       22.9285790765
C    6.0       23.4686115333       20.0285203500       21.3834954848
H    1.0       23.7509208239       20.8770844995       20.7469534325
C    6.0       22.8039793779       18.9351862988       20.5012872393
H    1.0       22.3545562440       18.1840947948       21.1649833103
O    8.0       23.7987915703       18.3119921245       19.6528390676
C    6.0       21.6840173326       19.4678499542       19.5810400674
H    1.0       20.8729654699       19.8693706234       20.2022489336
H    1.0       21.2718251351       18.6271563499       19.0070155562
O    8.0       22.1743788901       20.4760834265       18.6931475074
H    1.0       22.9315898926       20.0744640454       18.2130332926
C    6.0       21.4047329374       13.8450202822       20.8762645588
H    1.0       20.7301959377       12.9957013360       20.7072098034
O    8.0       20.6760858060       15.0352352024       21.2460370542
C    6.0       22.4702517468       13.5061845852       21.9468070874
H    1.0       23.0762049380       12.6815409409       21.5491978979
O    8.0       21.8746359039       13.0923699122       23.1860968892
H    1.0       21.3908518280       13.8785560618       23.5449566823
C    6.0       23.4039971111       14.7141499296       22.1828576916
H    1.0       22.8142386643       15.4832223957       22.7010568189
O    8.0       24.4887431543       14.3018238982       23.0214074510
H    1.0       24.0721214814       13.8093768656       23.7626582115
C    6.0       23.9562004215       15.3497936055       20.8735516468
H    1.0       24.8621682143       14.8052244233       20.5783628043
C    6.0       22.9357282451       15.3434422933       19.6800217074
H    1.0       22.2681818116       16.2080498264       19.7800712986
O    8.0       22.1384209218       14.1333108102       19.6753972840
C    6.0       23.5914041560       15.3964434188       18.2772583677
H    1.0       24.1033159998       16.3529242591       18.1283650729
H    1.0       22.7967424901       15.3436635061       17.5208661712
O    8.0       24.5113802267       14.3163099313       18.0961714184
H    1.0       23.9986383949       13.4913689672       18.2493353619
 $end
