$$$$
! Edit this basic GAMESS input file as needed.
! Conformer was generated by a VeraChem VCPack run 
! and contains    126 atoms.
!
 $contrl scftyp=rhf runtyp=optimize nzvar=0
  maxit=200 icharg=0 $end
 $system mwords=50 $end
 $basis gbasis=pm3 $end
 $statpt nstep=200 $end
 $guess guess=huckel $end
 $data
VM2 Rank=1      G=522.282           E=363.382           -TS=158.900             
C1
C    6.0       17.0149526078       16.2428590643       22.8198631290
H    1.0       16.0435920873       16.2587967060       23.3262407062
O    8.0       17.2666206564       17.5042993544       22.1557269380
C    6.0       18.1324088456       15.9814524497       23.8648265381
H    1.0       17.9093372077       15.0159704872       24.3378920890
O    8.0       18.1701703657       17.0013513036       24.8774377968
H    1.0       17.2734133399       17.0655865660       25.2677360456
C    6.0       19.5133748586       15.8632649078       23.1802452478
H    1.0       19.7756029073       16.8461581280       22.7649531654
O    8.0       20.4822009041       15.4686269580       24.1576703158
H    1.0       20.3382725122       16.0845404800       24.9112704997
C    6.0       19.4790988379       14.8343659931       22.0235103656
H    1.0       19.4329551603       13.8247720235       22.4527380048
C    6.0       18.2653735702       15.0523729386       21.0801965649
H    1.0       18.4309686148       15.9783133928       20.5212173587
O    8.0       17.0492751812       15.1638137691       21.8579590859
C    6.0       18.0654386060       13.9188060000       20.0504962976
H    1.0       18.9241117797       13.9020016983       19.3662703824
H    1.0       17.1748387206       14.1433357121       19.4481703626
O    8.0       17.9235487874       12.6507763573       20.6975461710
H    1.0       17.1539158322       12.7354290798       21.3034515451
C    6.0       15.0180799382       20.3351363264       20.0319384486
H    1.0       14.3999987194       20.8624873028       19.2943012023
O    8.0       15.5215005902       21.2415889730       21.0317451443
C    6.0       14.1751694519       19.2593199869       20.7574726760
H    1.0       13.7970369199       18.5684619720       19.9924722818
O    8.0       13.0673089097       19.8701871032       21.4357000547
H    1.0       13.4421713271       20.6333557823       21.9311575968
C    6.0       15.0262710275       18.4421227093       21.7627618000
H    1.0       15.3033090075       19.1041695804       22.5946520756
O    8.0       14.2114875807       17.3685709002       22.2437579725
H    1.0       13.3438758257       17.7790598366       22.4570177724
C    6.0       16.3399260716       17.9101251859       21.1170301535
H    1.0       16.1026407131       17.0746404045       20.4457597860
C    6.0       17.0628856891       19.0204134426       20.3046281460
H    1.0       17.4650822379       19.7577856507       21.0125329544
O    8.0       16.1283335287       19.6611071257       19.4024051127
C    6.0       18.2438471711       18.5055005479       19.4531032616
H    1.0       19.0105594505       18.0911074333       20.1204534801
H    1.0       18.6939266258       19.3572266444       18.9256900717
O    8.0       17.8164035990       17.5155432440       18.5136261586
H    1.0       17.0937098057       17.9271874072       17.9907118723
C    6.0       18.4295006461       24.1011576806       20.8764571620
H    1.0       19.1134617894       24.9532343915       20.7711624720
O    8.0       19.1318520417       22.9033013245       21.2715676130
C    6.0       17.2926912413       24.4192356709       21.8778029315
H    1.0       16.7149172873       25.2520764857       21.4560659286
O    8.0       17.8014320928       24.8077822200       23.1631246143
H    1.0       18.2599422898       24.0142433673       23.5385999800
C    6.0       16.3457791771       23.2074217972       22.0249244942
H    1.0       16.8990704136       22.4277457334       22.5669508696
O    8.0       15.2056865028       23.6036434163       22.7950203472
H    1.0       15.5700447076       24.0809570461       23.5728041240
C    6.0       15.8853102362       22.5984465662       20.6683200234
H    1.0       15.0014044472       23.1494331723       20.3224941508
C    6.0       16.9854127125       22.6279415557       19.5481317689
H    1.0       17.6451257060       21.7610751271       19.6765706722
O    8.0       17.7802749325       23.8374067155       19.6224878321
C    6.0       16.4277782629       22.6033582134       18.1028264549
H    1.0       15.9280606723       21.6503479251       17.9000189608
H    1.0       17.2725255720       22.6707497165       17.4040685805
O    8.0       15.5215905939       23.6874400924       17.8805063284
H    1.0       16.0219406398       24.5088538739       18.0850032702
C    6.0       22.6769721601       21.6619043765       23.0688428414
H    1.0       23.6112412546       21.6351780772       23.6403664927
O    8.0       22.4724118234       20.4141591993       22.3639129620
C    6.0       21.4901655374       21.9031645110       24.0395492640
H    1.0       21.6795526269       22.8588417683       24.5460279215
O    8.0       21.3835753059       20.8632588823       25.0265843483
H    1.0       22.2514113176       20.7906374637       25.4762715234
C    6.0       20.1594358523       22.0359923599       23.2641821416
H    1.0       19.9270178194       21.0617792855       22.8122972596
O    8.0       19.1254763630       22.4117102047       24.1804157088
H    1.0       19.2177185730       21.7807832868       24.9296826100
C    6.0       20.2724366419       23.0877698440       22.1333238374
H    1.0       20.2882901823       24.0885594069       22.5847825675
C    6.0       21.5482629733       22.8877879388       21.2714832752
H    1.0       21.4220857365       21.9733191950       20.6840532612
O    8.0       22.7081118891       22.7599685816       22.1285974774
C    6.0       21.8177319895       24.0415639251       20.2808183732
H    1.0       21.0080405365       24.0727221903       19.5397398783
H    1.0       22.7477103343       23.8284295694       19.7366745403
O    8.0       21.9141196989       25.2962859891       20.9613239903
H    1.0       22.6403992799       25.1989291216       21.6168116943
C    6.0       24.8635924683       17.6247553428       20.3436345660
H    1.0       25.5312894418       17.1118100557       19.6398584813
O    8.0       24.2932349748       16.6988687832       21.2881599682
C    6.0       25.6538881026       18.6852883597       21.1467422466
H    1.0       26.0832342582       19.3910324101       20.4234984063
O    8.0       26.7129338214       18.0602536404       21.8871884184
H    1.0       26.3054215553       17.2876476033       22.3404414694
C    6.0       24.7351251674       19.4828224417       22.1072630395
H    1.0       24.4020053719       18.8044785633       22.9047465674
O    8.0       25.5141806774       20.5459897035       22.6644800698
H    1.0       26.3653850183       20.1307370423       22.9285790765
C    6.0       23.4686115333       20.0285203500       21.3834954848
H    1.0       23.7509208239       20.8770844995       20.7469534325
C    6.0       22.8039793779       18.9351862988       20.5012872393
H    1.0       22.3545562440       18.1840947948       21.1649833103
O    8.0       23.7987915703       18.3119921245       19.6528390676
C    6.0       21.6840173326       19.4678499542       19.5810400674
H    1.0       20.8729654699       19.8693706234       20.2022489336
H    1.0       21.2718251351       18.6271563499       19.0070155562
O    8.0       22.1743788901       20.4760834265       18.6931475074
H    1.0       22.9315898926       20.0744640454       18.2130332926
C    6.0       21.4047329374       13.8450202822       20.8762645588
H    1.0       20.7301959377       12.9957013360       20.7072098034
O    8.0       20.6760858060       15.0352352024       21.2460370542
C    6.0       22.4702517468       13.5061845852       21.9468070874
H    1.0       23.0762049380       12.6815409409       21.5491978979
O    8.0       21.8746359039       13.0923699122       23.1860968892
H    1.0       21.3908518280       13.8785560618       23.5449566823
C    6.0       23.4039971111       14.7141499296       22.1828576916
H    1.0       22.8142386643       15.4832223957       22.7010568189
O    8.0       24.4887431543       14.3018238982       23.0214074510
H    1.0       24.0721214814       13.8093768656       23.7626582115
C    6.0       23.9562004215       15.3497936055       20.8735516468
H    1.0       24.8621682143       14.8052244233       20.5783628043
C    6.0       22.9357282451       15.3434422933       19.6800217074
H    1.0       22.2681818116       16.2080498264       19.7800712986
O    8.0       22.1384209218       14.1333108102       19.6753972840
C    6.0       23.5914041560       15.3964434188       18.2772583677
H    1.0       24.1033159998       16.3529242591       18.1283650729
H    1.0       22.7967424901       15.3436635061       17.5208661712
O    8.0       24.5113802267       14.3163099313       18.0961714184
H    1.0       23.9986383949       13.4913689672       18.2493353619
 $end
$$$$
! Edit this basic GAMESS input file as needed.
! Conformer was generated by a VeraChem VCPack run 
! and contains    126 atoms.
!
 $contrl scftyp=rhf runtyp=optimize nzvar=0
  maxit=200 icharg=0 $end
 $system mwords=50 $end
 $basis gbasis=pm3 $end
 $statpt nstep=200 $end
 $guess guess=huckel $end
 $data
VM2 Rank=2      G=522.380           E=363.922           -TS=158.457             
C1
C    6.0       16.9611879460       16.2329698140       22.8173299731
H    1.0       15.9816143728       16.2621729349       23.3072356509
O    8.0       17.2359862859       17.4832754712       22.1398196959
C    6.0       18.0558757939       15.9732507648       23.8831265970
H    1.0       17.8259186178       15.0074856430       24.3518618127
O    8.0       18.0693617442       16.9867107894       24.8961810648
H    1.0       18.9196413470       16.8513233227       25.3717435445
C    6.0       19.4519434063       15.8561652708       23.2321327328
H    1.0       19.7256310949       16.8363635449       22.8178209228
O    8.0       20.4000228698       15.4619202064       24.2315784042
H    1.0       21.0063184688       14.8090240276       23.8070912432
C    6.0       19.4453135746       14.8233707326       22.0776780890
H    1.0       19.4129471048       13.8133159219       22.5083864120
C    6.0       18.2424678167       15.0219012570       21.1136566744
H    1.0       18.4129011326       15.9398551032       20.5425946872
O    8.0       17.0121818734       15.1418180793       21.8689518729
C    6.0       18.0615203754       13.8734711350       20.0970565818
H    1.0       18.9283511675       13.8520598712       19.4233947784
H    1.0       17.1772135229       14.0849870657       19.4808984804
O    8.0       17.9179611487       12.6136783900       20.7594396786
H    1.0       17.1402614714       12.7023559444       21.3544086312
C    6.0       15.0448426789       20.3268165592       19.9874224340
H    1.0       14.4444928433       20.8668520026       19.2443302980
O    8.0       15.5406992055       21.2190377931       21.0036846660
C    6.0       14.1792643119       19.2529632738       20.6879664029
H    1.0       13.8097873224       18.5720938571       19.9098866182
O    8.0       13.0638757470       19.8680971358       21.3498106313
H    1.0       13.4361434022       20.6217743077       21.8614607951
C    6.0       15.0030915069       18.4191636573       21.7022772692
H    1.0       15.2635549886       19.0688811542       22.5491795479
O    8.0       14.1707166117       17.3440104252       22.1486476390
H    1.0       13.3029319149       17.7577240790       22.3544115953
C    6.0       16.3293183070       17.8862633574       21.0829135789
H    1.0       16.1047220329       17.0486696860       20.4099577089
C    6.0       17.0727418149       18.9924564779       20.2833502191
H    1.0       17.4723656192       19.7236660361       20.9990523474
O    8.0       16.1581468280       19.6463648072       19.3705833558
C    6.0       18.2608366378       18.4681197184       19.4476862110
H    1.0       19.0163817707       18.0504182806       20.1256861778
H    1.0       18.7224433669       19.3159579594       18.9240345494
O    8.0       17.8398631145       17.4783525022       18.5051415173
H    1.0       17.1282566348       17.8934965287       17.9699630858
C    6.0       18.4526987355       24.0853259171       20.9088718981
H    1.0       19.1324273934       24.9423486748       20.8172248072
O    8.0       19.1580146508       22.8889360274       21.3020810478
C    6.0       17.3053111756       24.3880771834       21.9027094906
H    1.0       16.7282753782       25.2233582799       21.4848164298
O    8.0       17.8012588387       24.7642840572       23.1967418067
H    1.0       18.2661780727       23.9710019527       23.5649178876
C    6.0       16.3616637087       23.1711681027       22.0278550277
H    1.0       16.9131640950       22.3867090291       22.5649555205
O    8.0       15.2139290615       23.5548348927       22.7929711082
H    1.0       15.5703614147       24.0243951775       23.5791140811
C    6.0       15.9144398130       22.5781471957       20.6597945555
H    1.0       15.0371280228       23.1366790204       20.3093489109
C    6.0       17.0286963359       22.6157795891       19.5540769467
H    1.0       17.6886284169       21.7495005210       19.6864835855
O    8.0       17.8181929665       23.8275383131       19.6461536457
C    6.0       16.4914288885       22.5992923979       18.1008388603
H    1.0       16.0020250886       21.6444627352       17.8824643888
H    1.0       17.3454650064       22.6787051077       17.4147367445
O    8.0       15.5805530765       23.6785881712       17.8744208292
H    1.0       16.0724172047       24.5020457947       18.0908608425
C    6.0       22.7091125975       21.6511674448       23.0849414463
H    1.0       23.6461789026       21.6194602257       23.6520546545
O    8.0       22.5027378207       20.4091839856       22.3707457922
C    6.0       21.5240426825       21.8822041280       24.0605821694
H    1.0       21.7114559680       22.8349454056       24.5732832565
O    8.0       21.4223115327       20.8349141570       25.0403854550
H    1.0       22.2906829922       20.7627846374       25.4891502443
C    6.0       20.1912345043       22.0158205863       23.2883654545
H    1.0       19.9618749210       21.0440214790       22.8297932826
O    8.0       19.1564197910       22.3809329455       24.2079646769
H    1.0       19.2513653199       21.7452066854       24.9527891914
C    6.0       20.2974101220       23.0760143111       22.1647980021
H    1.0       20.3057536153       24.0736646575       22.6234254358
C    6.0       21.5739553200       22.8912048513       21.3005870145
H    1.0       21.4510241827       21.9829545330       20.7029662068
O    8.0       22.7351690609       22.7583419816       22.1551145653
C    6.0       21.8383451122       24.0567623056       20.3224078413
H    1.0       21.0288791633       24.0920269705       19.5812736069
H    1.0       22.7695391424       23.8538972566       19.7764386414
O    8.0       21.9286618755       25.3045643830       21.0162964402
H    1.0       22.6555075961       25.2038224867       21.6706508700
C    6.0       24.8661769158       17.6436113533       20.3006930718
H    1.0       25.5142896436       17.1250090550       19.5831314341
O    8.0       24.3139651826       16.7204241641       21.2598487799
C    6.0       25.6716985502       18.7294138634       21.0606471345
H    1.0       26.0351505189       19.4431195580       20.3092963972
O    8.0       26.7979167484       18.1660470429       21.7558896918
H    1.0       27.3714993640       17.7310215180       21.0900343204
C    6.0       24.7726274689       19.5088948708       22.0531458246
H    1.0       24.4745229472       18.8206369627       22.8558704624
O    8.0       25.5520071242       20.5808896120       22.5925835655
H    1.0       26.4069184075       20.1656543848       22.8457322790
C    6.0       23.4804800248       20.0413657006       21.3654001292
H    1.0       23.7369229963       20.8966421661       20.7270306664
C    6.0       22.8048145622       18.9467371160       20.4932306738
H    1.0       22.3674499925       18.1958711536       21.1649925352
O    8.0       23.7849309755       18.3228754844       19.6278965029
C    6.0       21.6687881526       19.4774772878       19.5919103996
H    1.0       20.8678972301       19.8789597424       20.2263384552
H    1.0       21.2483139720       18.6357243615       19.0256051972
O    8.0       22.1429142004       20.4850182389       18.6945369511
H    1.0       22.8910194157       20.0830978433       18.2006445818
C    6.0       21.3865998130       13.8673877447       20.9276321240
H    1.0       20.7211670899       13.0074642599       20.7775219436
O    8.0       20.6516327664       15.0466936261       21.3209039799
C    6.0       22.4845782198       13.5472916974       21.9703876203
H    1.0       23.0979525047       12.7328965016       21.5628931612
O    8.0       21.9289470976       13.1366767574       23.2263211015
H    1.0       22.7047350343       13.0215810899       23.8205669972
C    6.0       23.3963558219       14.7750883537       22.1788933766
H    1.0       22.7942685383       15.5477365888       22.6772806928
O    8.0       24.4992711559       14.4192810406       23.0196690280
H    1.0       25.0400347380       15.2347701552       23.1086386061
C    6.0       23.9309604989       15.3817011098       20.8521036995
H    1.0       24.8141776296       14.8116194832       20.5364299176
C    6.0       22.8749005554       15.3827396910       19.6903266874
H    1.0       22.2089242954       16.2453338354       19.8139884852
O    8.0       22.0816275718       14.1690372507       19.7062132731
C    6.0       23.4888132743       15.4368017471       18.2685401437
H    1.0       23.9986621215       16.3916772945       18.1046623182
H    1.0       22.6719921725       15.3863863486       17.5359566831
O    8.0       24.4011860503       14.3552857024       18.0590868775
H    1.0       23.8906537608       13.5310424940       18.2230218056
 $end
$$$$
! Edit this basic GAMESS input file as needed.
! Conformer was generated by a VeraChem VCPack run 
! and contains    126 atoms.
!
 $contrl scftyp=rhf runtyp=optimize nzvar=0
  maxit=200 icharg=0 $end
 $system mwords=50 $end
 $basis gbasis=pm3 $end
 $statpt nstep=200 $end
 $guess guess=huckel $end
 $data
VM2 Rank=3      G=522.419           E=363.848           -TS=158.571             
C1
C    6.0       16.9759557933       16.2487046199       22.8097348101
H    1.0       15.9990862845       16.2737073263       23.3052365915
O    8.0       17.2405457449       17.4993341534       22.1291944093
C    6.0       18.0781516616       15.9961930822       23.8696904509
H    1.0       17.8544651937       15.0310967436       24.3428142558
O    8.0       18.0940873836       17.0128318550       24.8795091634
H    1.0       18.9485747717       16.8832156381       25.3491161492
C    6.0       19.4708724149       15.8821414215       23.2109122461
H    1.0       19.7381981345       16.8616379938       22.7908776766
O    8.0       20.4264538961       15.4958837864       24.2063879758
H    1.0       21.0128484666       14.8195520342       23.7907760610
C    6.0       19.4601222385       14.8444192731       22.0609718737
H    1.0       19.4254433867       13.8365055986       22.4964031778
C    6.0       18.2539373535       15.0409620328       21.1009006407
H    1.0       18.4200451619       15.9595522127       20.5296529932
O    8.0       17.0265815372       15.1571862488       21.8616365911
C    6.0       18.0714111891       13.8924802352       20.0846305664
H    1.0       18.9356677782       13.8730996712       19.4076076520
H    1.0       17.1842886686       14.1023962913       19.4719741212
O    8.0       17.9330439280       12.6321478421       20.7471012006
H    1.0       17.1574577716       12.7189818715       21.3450831897
C    6.0       15.0255193819       20.3364119208       19.9960710730
H    1.0       14.4183149962       20.8769667703       19.2589411491
O    8.0       15.5287988978       21.2275263490       21.0098020878
C    6.0       14.1674944774       19.2604331969       20.7026083802
H    1.0       13.7932255075       18.5792852504       19.9270653846
O    8.0       13.0562044488       19.8729245051       21.3737295474
H    1.0       13.4310490802       20.6269347783       21.8829912693
C    6.0       15.0012801318       18.4278303569       21.7098110290
H    1.0       15.2673112779       19.0777390898       22.5548364944
O    8.0       14.1749840895       17.3506981123       22.1626537159
H    1.0       13.3080170467       17.7624202551       22.3757235752
C    6.0       16.3235456999       17.8977791968       21.0796055552
H    1.0       16.0954968144       17.0583985515       20.4100349451
C    6.0       17.0575923082       19.0043967735       20.2721981313
H    1.0       17.4638474172       19.7360082721       20.9837397596
O    8.0       16.1336887096       19.6575454194       19.3684393182
C    6.0       18.2375805805       18.4801398297       19.4252723048
H    1.0       18.9990292551       18.0630064125       20.0967418636
H    1.0       18.6947167247       19.3275034726       18.8968072869
O    8.0       17.8080278853       17.4890768464       18.4879619026
H    1.0       17.0919506773       17.9036524119       17.9583286516
C    6.0       18.4481768933       24.0825286418       20.9091531992
H    1.0       19.1322415049       24.9359991300       20.8165738527
O    8.0       19.1476670692       22.8825093592       21.3023588192
C    6.0       17.3035150251       24.3915067649       21.9040664237
H    1.0       16.7295012047       25.2287995913       21.4860365487
O    8.0       17.8029345610       24.7669650525       23.1969619123
H    1.0       18.2652749479       23.9721643067       23.5651188327
C    6.0       16.3550467230       23.1786345401       22.0315393908
H    1.0       16.9040960111       22.3925191155       22.5687404686
O    8.0       15.2098831259       23.5675255465       22.7978482948
H    1.0       15.5692407840       24.0363323447       23.5831109878
C    6.0       15.9036345527       22.5859997327       20.6646174788
H    1.0       15.0262597150       23.1457485425       20.3162533234
C    6.0       17.0147968168       22.6210040621       19.5556986449
H    1.0       17.6713799537       21.7517022997       19.6842693557
O    8.0       17.8106376671       23.8285242558       19.6472486682
C    6.0       16.4721110529       22.6096120178       18.1044654547
H    1.0       15.9737305371       21.6590601429       17.8876654102
H    1.0       17.3241812490       22.6823438653       17.4151929762
O    8.0       15.5693053059       23.6965307099       17.8821925517
H    1.0       16.0683920971       24.5156076057       18.0987607435
C    6.0       22.7027673282       21.6451911805       23.0873623092
H    1.0       23.6400911299       21.6203814580       23.6544398738
O    8.0       22.4999315497       20.3964747297       22.3840046965
C    6.0       21.5173949179       21.8809777380       24.0617486391
H    1.0       21.7047759959       22.8363880460       24.5694680517
O    8.0       21.4161508545       20.8388930371       25.0471564008
H    1.0       22.2846163535       20.7694055884       25.4961254604
C    6.0       20.1840380329       22.0106179228       23.2895251934
H    1.0       19.9543314134       21.0367850770       22.8354662940
O    8.0       19.1499697432       22.3802774940       24.2081198955
H    1.0       19.2448919323       21.7476047105       24.9555445693
C    6.0       20.2906085983       23.0657696462       22.1613406201
H    1.0       20.3059927126       24.0651349340       22.6160826870
C    6.0       21.5637595373       22.8703377303       21.2949051915
H    1.0       21.4374686767       21.9562537122       20.7067257252
O    8.0       22.7267302464       22.7444602976       22.1480533365
C    6.0       21.8274034131       24.0262228208       20.3050837096
H    1.0       21.0156749308       24.0562542150       19.5661781963
H    1.0       22.7565079688       23.8164791624       19.7581672360
O    8.0       21.9223093297       25.2802076002       20.9871545203
H    1.0       22.6508130349       25.1839072703       21.6403316844
C    6.0       24.8784578024       17.6396378906       20.3047852813
H    1.0       25.5308070535       17.1365256541       19.5798271198
O    8.0       24.3609526533       16.7029976084       21.2733721299
C    6.0       25.6733788216       18.7291342528       21.0656172376
H    1.0       26.0452020783       19.4416663455       20.3175075671
O    8.0       26.7890036300       18.1496293632       21.7581387553
H    1.0       26.4314398107       17.3866512864       22.2615159113
C    6.0       24.7737768411       19.5089696115       22.0586052958
H    1.0       24.4824548752       18.8263154781       22.8684672508
O    8.0       25.5476537410       20.5908153224       22.5861149622
H    1.0       26.4210332999       20.1987084969       22.8100855967
C    6.0       23.4735866209       20.0262131390       21.3756366053
H    1.0       23.7187984170       20.8763834691       20.7260893183
C    6.0       22.8014124378       18.9165801190       20.5211144522
H    1.0       22.3848460218       18.1631027686       21.2031823457
O    8.0       23.7788546052       18.3031722408       19.6462029468
C    6.0       21.6464721580       19.4264673498       19.6318691598
H    1.0       20.8510851287       19.8264820768       20.2741858424
H    1.0       21.2266736573       18.5747610491       19.0801929376
O    8.0       22.0967207285       20.4295864160       18.7174519044
H    1.0       22.8442772017       20.0315966079       18.2195427467
C    6.0       21.3959395962       13.8751493329       20.9137760801
H    1.0       20.7253072162       13.0205808054       20.7565019199
O    8.0       20.6657030732       15.0599651984       21.3001032990
C    6.0       22.4813216739       13.5448854081       21.9659354500
H    1.0       23.0905517552       12.7252913930       21.5626032193
O    8.0       21.9115693691       13.1368114578       23.2164555204
H    1.0       22.6817640547       13.0100615647       23.8156130435
C    6.0       23.4039289939       14.7629811331       22.1848613042
H    1.0       22.8053516956       15.5407629784       22.6793184698
O    8.0       24.4911602759       14.3867970488       23.0374937943
H    1.0       25.0112130725       15.2038444815       23.1895620358
C    6.0       23.9578248135       15.3675515255       20.8636350812
H    1.0       24.8350271772       14.7853235420       20.5533973767
C    6.0       22.9103521796       15.3770079870       19.6925958759
H    1.0       22.2486482199       16.2432493798       19.8108222369
O    8.0       22.1066864050       14.1703515593       19.7002618462
C    6.0       23.5348777076       15.4252993388       18.2750014004
H    1.0       24.0532698863       16.3759039369       18.1132166756
H    1.0       22.7227405636       15.3807009991       17.5368485393
O    8.0       24.4397137764       14.3361787593       18.0725432934
H    1.0       23.9212810474       13.5163063691       18.2335581729
 $end
$$$$
! Edit this basic GAMESS input file as needed.
! Conformer was generated by a VeraChem VCPack run 
! and contains    126 atoms.
!
 $contrl scftyp=rhf runtyp=optimize nzvar=0
  maxit=200 icharg=0 $end
 $system mwords=50 $end
 $basis gbasis=pm3 $end
 $statpt nstep=200 $end
 $guess guess=huckel $end
 $data
VM2 Rank=4      G=522.430           E=363.339           -TS=159.091             
C1
C    6.0       17.0620103644       16.3217383158       22.8392576577
H    1.0       16.0997002192       16.3463300693       23.3624965155
O    8.0       17.2965674673       17.5693084271       22.1444109153
C    6.0       18.1992310200       16.0876272606       23.8698235470
H    1.0       17.9814957920       15.1382295455       24.3767127733
O    8.0       18.2625638922       17.1386451212       24.8491399676
H    1.0       17.3732188926       17.2227729877       25.2522892504
C    6.0       19.5674186509       15.9434073526       23.1652337638
H    1.0       19.8283629845       16.9143852093       22.7222976014
O    8.0       20.5489734139       15.5662841804       24.1368870607
H    1.0       20.4092349975       16.1897844223       24.8848713664
C    6.0       19.5094692405       14.8884321735       22.0335946367
H    1.0       19.4594258800       13.8892883195       22.4859803250
C    6.0       18.2844227668       15.0964559077       21.1034294161
H    1.0       18.4446836410       16.0130985833       20.5271527180
O    8.0       17.0813987202       15.2233071254       21.8988435488
C    6.0       18.0651459618       13.9469543791       20.0955305066
H    1.0       18.9135205302       13.9156741068       19.3990777161
H    1.0       17.1665000919       14.1650069337       19.5028541839
O    8.0       17.9283251065       12.6901725295       20.7652025685
H    1.0       17.1687149930       12.7880124661       21.3816838485
C    6.0       15.0005323071       20.3479673849       20.0161669021
H    1.0       14.3738044851       20.8719130863       19.2834353378
O    8.0       15.5007912590       21.2545530547       21.0174467724
C    6.0       14.1724627937       19.2635075748       20.7455283070
H    1.0       13.8033639534       18.5643266088       19.9836828236
O    8.0       13.0570790152       19.8615318152       21.4228857293
H    1.0       13.4225949636       20.6290736103       21.9184725996
C    6.0       15.0372517410       18.4635947108       21.7531374012
H    1.0       15.3078558463       19.1339763990       22.5804507948
O    8.0       14.2388038773       17.3818250750       22.2430583741
H    1.0       13.3657012307       17.7811739978       22.4549833185
C    6.0       16.3559308716       17.9449732834       21.1066952951