$$$$
! Edit this basic GAMESS input file as needed.
! Conformer was generated by a VeraChem VCPack run 
! and contains    151 atoms.
!
 $contrl scftyp=rhf runtyp=optimize nzvar=0
  maxit=200 icharg=0 $end
 $system mwords=50 $end
 $basis gbasis=pm3 $end
 $statpt nstep=200 $end
 $guess guess=huckel $end
 $data
FE Rank=1      G=517.729           E=323.297           -TS=194.432              
C1
C    6.0       16.2480480470       15.1950155670       21.8789180603
H    1.0       15.1822747163       15.0415780807       22.0914859229
O    8.0       16.5807026136       16.5929453822       21.7910802045
C    6.0       17.1041328929       14.5701426065       23.0050704969
H    1.0       16.8995060968       13.4917156051       23.0193216957
O    8.0       16.7570002093       15.1365470976       24.2789823533
H    1.0       16.3673001917       16.0291306249       24.1034207987
C    6.0       18.6089702214       14.7688886363       22.7170861421
H    1.0       18.8236038316       15.8420517681       22.7773274260
O    8.0       19.3724074347       14.0677505423       23.7032663650
H    1.0       18.9460827800       14.2984195800       24.5589329704
C    6.0       18.9883915020       14.2841201884       21.2953836307
H    1.0       19.0373715124       13.1870707427       21.2967612359
C    6.0       17.9913755410       14.7805041826       20.2088841847
H    1.0       18.1635941622       15.8557784256       20.0696172774
O    8.0       16.6180906230       14.5709578792       20.6318710999
C    6.0       18.1890822769       14.1052671128       18.8309959907
H    1.0       19.1273696628       14.4735159592       18.3942165674
H    1.0       17.3739940440       14.4204463371       18.1657112456
O    8.0       18.2273010560       12.6762553841       18.9310626516
H    1.0       18.2748213454       12.3147846345       18.0192624916
C    6.0       14.7355952499       20.3257059987       21.3689517481
H    1.0       13.9844383453       21.1103653113       21.2120601184
O    8.0       16.0534732766       20.8869474388       21.5212897652
C    6.0       14.4125141079       19.5479604055       22.6709505970
H    1.0       13.4048520677       19.1255152630       22.5651067639
O    8.0       14.4393001411       20.4377003952       23.7974039433
H    1.0       15.1552465887       21.0918163146       23.6164161056
C    6.0       15.4035841438       18.3778056295       22.8821129465
H    1.0       16.4012571673       18.7986439709       23.0708038053
O    8.0       14.9886118093       17.5893266396       24.0023322131
H    1.0       14.8074124286       18.2385407221       24.7181238954
C    6.0       15.4775294045       17.4973200608       21.6130848496
H    1.0       14.5229905094       16.9683081048       21.4919020589
C    6.0       15.7519614763       18.3511294226       20.3470652622
H    1.0       16.7423629148       18.8086531014       20.4567458933
O    8.0       14.7523204512       19.3984926975       20.2592063144
C    6.0       15.7626038368       17.5522574768       19.0170812360
H    1.0       16.7819462523       17.1864312254       18.8398936055
H    1.0       15.5233403398       18.2373786177       18.1931076019
O    8.0       14.8515835833       16.4472428526       19.0129006356
H    1.0       15.2735332524       15.7252071613       19.5344550901
C    6.0       18.5771093968       23.9346874707       20.3148735031
H    1.0       19.0652076668       24.8171100218       19.8816774775
O    8.0       19.5403711550       23.0186452687       20.8778986092
C    6.0       17.5403207323       24.3353154475       21.3968890918
H    1.0       16.7590507226       24.9197662539       20.8937132129
O    8.0       18.1239068324       25.1412813999       22.4307145629
H    1.0       18.8118756468       24.5838122454       22.8745106784
C    6.0       16.8764336957       23.0706070086       21.9937489493
H    1.0       17.6465661359       22.5024770875       22.5345791541
O    8.0       15.8369523309       23.4578811039       22.8989137178
H    1.0       16.2287428815       24.1684644553       23.4531910293
C    6.0       16.2914296415       22.1582804294       20.8839486420
H    1.0       15.3640287636       22.6188211297       20.5196098501
C    6.0       17.2784442354       21.9505701694       19.6950308334
H    1.0       18.0839381296       21.2970966891       20.0419223570
O    8.0       17.8429710124       23.2249080869       19.2947493543
C    6.0       16.6818800384       21.2780258066       18.4321529888
H    1.0       16.8313921039       20.1955131617       18.5110320789
H    1.0       17.2580591784       21.6082921311       17.5573926198
O    8.0       15.2917599978       21.5591788480       18.2375160360
H    1.0       14.7958381394       20.9278611555       18.8077857139
C    6.0       23.4611211017       22.6837720251       22.2066247608
H    1.0       24.4870924382       22.8657774631       22.5511045706
O    8.0       23.2135254942       21.2845016672       21.9785172523
C    6.0       22.4520330882       23.1832364557       23.2683250514
H    1.0       22.6043252363       24.2642003521       23.3843446585
O    8.0       22.6755640549       22.5392742724       24.5327548328
H    1.0       23.1355752223       21.6828766644       24.3477989158
C    6.0       20.9986023483       22.9567030178       22.7930429622
H    1.0       20.8213822185       21.8746057377       22.7329443767
O    8.0       20.1076372605       23.5399441244       23.7481371394
H    1.0       20.4353716583       23.2216197465       24.6194113168
C    6.0       20.7708686241       23.5701757035       21.3866538319
H    1.0       20.7244071480       24.6634310544       21.4786423574
C    6.0       21.8929449691       23.1672831993       20.3870547931
H    1.0       21.7744137171       22.0990763945       20.1646398390
O    8.0       23.2037005534       23.3865182861       20.9726934579
C    6.0       21.8225640292       23.9250636654       19.0401352973
H    1.0       20.9467367635       23.5641877528       18.4837415354
H    1.0       22.7123200269       23.6715518243       18.4483836682
O    8.0       21.7316384263       25.3436195462       19.2228082423
H    1.0       21.7690642063       25.7615275721       18.3350579743
C    6.0       25.0854259511       17.5960871781       21.6943124906
H    1.0       25.7996635875       16.7670899760       21.6077881039
O    8.0       23.7237007102       17.1280567106       21.6702639747
C    6.0       25.2901687081       18.3300703044       23.0415364185
H    1.0       26.3106731772       18.7344986115       23.0514665022
O    8.0       25.1290448315       17.4134074267       24.1352464470
H    1.0       24.4850476247       16.7283987134       23.8341361659
C    6.0       24.3004956775       19.5120847113       23.1730167251
H    1.0       23.2829091996       19.1033598924       23.2419283442
O    8.0       24.6023769142       20.2591978967       24.3549767533
H    1.0       24.7180755435       19.5832828867       25.0599480598
C    6.0       24.3710502658       20.4325542392       21.9304647248
H    1.0       25.3095944815       21.0007314146       21.9655757115
C    6.0       24.3018645280       19.6360735166       20.5990043177
H    1.0       23.2954750806       19.2141086996       20.5139064440
O    8.0       25.2619696504       18.5486798606       20.6209471992
C    6.0       24.5334626245       20.4964620622       19.3305339230
H    1.0       23.5915757796       20.9970666155       19.0732109919
H    1.0       24.7817084096       19.8294933278       18.4941555297
O    8.0       25.5595081745       21.4808177449       19.4991020857
H    1.0       25.1539519882       22.2393461364       19.9752814789
C    6.0       21.2666542030       14.0401704836       20.3973370376
H    1.0       20.8250509580       13.1505531744       19.9300353856
O    8.0       20.2612371485       14.8847368961       20.9924586540
C    6.0       22.2999188457       13.6513611415       21.4878817248
H    1.0       23.1006447236       13.0882966148       20.9910538798
O    8.0       21.7120199691       12.8257480553       22.5046878526
H    1.0       20.9405357959       13.3235887649       22.8775930509
C    6.0       22.9279831210       14.9216117823       22.1133000290
H    1.0       22.1397371292       15.4592796343       22.6591788783
O    8.0       23.9729118708       14.5492348062       23.0180482007
H    1.0       23.6018160218       13.8101791750       23.5493638678
C    6.0       23.4897094827       15.8667438808       21.0207649607
H    1.0       24.4112322544       15.4281407456       20.6161216197
C    6.0       22.4737566730       16.1022930268       19.8679765865
H    1.0       21.6462553280       16.6944641935       20.2730972869
O    8.0       21.9671677197       14.8249649908       19.4078109881
C    6.0       23.0235533211       16.8791310739       18.6428541487
H    1.0       22.8251563367       17.9474632130       18.7880024344
H    1.0       22.4540590092       16.5759375001       17.7541665625
O    8.0       24.4236606926       16.6747556119       18.4203101569
H    1.0       24.9027509730       17.2206399532       19.0862833843
C    6.0       19.4521059731       18.5646964830       25.9354593905
O    8.0       20.4623866291       18.3325244413       26.5697929652
O    8.0       18.5165626450       19.2095767515       26.3664983333
C    6.0       19.3522625082       18.0159442527       24.5166132971
H    1.0       18.3066938034       17.7410064392       24.3354839976
H    1.0       19.9467035351       17.0961207679       24.4655724719
C    6.0       19.8356809951       19.0232145081       23.4452195832
H    1.0       19.2699186876       19.9595841930       23.5500737523
H    1.0       20.8913735751       19.2670087794       23.6253657108
C    6.0       19.6592553193       18.4707912361       22.0153546584
H    1.0       18.5983777385       18.2601529342       21.8402324038
H    1.0       20.2004012107       17.5216705504       21.9145388091
C    6.0       20.1681088497       19.4682372196       20.9590134217
H    1.0       19.7296989502       20.4511326950       21.1573623076
H    1.0       21.2503955205       19.5851557680       21.0701994509
C    6.0       19.8231302000       19.0301926425       19.5195090506
H    1.0       18.7350177809       18.9723033610       19.4063262561
H    1.0       20.2063965618       18.0215049164       19.3296865409
C    6.0       20.3956802856       20.0061347944       18.4722437507
H    1.0       20.0094676908       21.0182143394       18.6534255134
H    1.0       21.4865663537       20.0585939182       18.5739480971
C    6.0       20.0376090509       19.5692536357       17.0388133888
H    1.0       18.9497570699       19.5327568782       16.8985655226
H    1.0       20.4503104878       20.2741578519       16.3057321343
H    1.0       20.4449785918       18.5739265322       16.8188253073
 $end
