$$$$
! Edit this basic GAMESS input file as needed.
! Conformer was generated by a VeraChem VCPack run 
! and contains    149 atoms.
!
 $contrl scftyp=rhf runtyp=optimize nzvar=0
  maxit=200 icharg=0 $end
 $system mwords=50 $end
 $basis gbasis=pm3 $end
 $statpt nstep=200 $end
 $guess guess=huckel $end
 $data
FE Rank=1      G=572.771           E=375.071           -TS=197.700              
C1
C    6.0       16.1471605173       15.3707064948       21.7002499008
H    1.0       15.0689934900       15.2662914780       21.8752802281
O    8.0       16.4487216803       16.5101108239       20.8658723036
C    6.0       16.9208173658       15.4938325149       23.0413040823
H    1.0       16.7714105437       14.5540375022       23.5890763092
O    8.0       16.4614624087       16.5858405853       23.8526091074
H    1.0       15.5526471960       16.8170380195       23.5446522365
C    6.0       18.4296585377       15.6592616488       22.7648375970
H    1.0       18.5563009977       16.6023186139       22.2218465755
O    8.0       19.1265433925       15.7205518846       24.0140125914
H    1.0       18.4707315217       16.1439542907       24.6175818597
C    6.0       18.9664324651       14.5082732606       21.8777890615
H    1.0       19.0388688362       13.6022936751       22.4942883912
C    6.0       18.0554467358       14.2387688076       20.6440153274
H    1.0       18.1988461449       15.0609887368       19.9306195322
O    8.0       16.6581877617       14.1946521964       21.0365004803
C    6.0       18.3959169528       12.9244442379       19.9012174076
H    1.0       19.3562825804       13.0549768645       19.3841943981
H    1.0       17.6324726144       12.7494811499       19.1313414462
O    8.0       18.4720319273       11.8039136589       20.7916564243
H    1.0       18.6072098625       10.9984851026       20.2459513225
C    6.0       14.9086655537       20.2472562194       20.0379571870
H    1.0       14.3589712716       21.1294413904       19.6855934997
O    8.0       16.2163259936       20.6096845576       20.5375722129
C    6.0       14.1010757117       19.4792700399       21.1183465280
H    1.0       13.1864325735       19.1169271591       20.6308236451
O    8.0       13.7270901583       20.3139880936       22.2240231222
H    1.0       14.5647675645       20.5488075314       22.6971971936
C    6.0       14.8900962385       18.2449624055       21.6156549094
H    1.0       15.7857024848       18.6034081585       22.1411520371
O    8.0       14.0530820136       17.5092315779       22.5157618882
H    1.0       13.5633359668       18.1954532339       23.0247573124
C    6.0       15.3527943906       17.3449667120       20.4342211679
H    1.0       14.5050084379       16.7407178187       20.0879833208
C    6.0       15.9250899410       18.1657021565       19.2434788246
H    1.0       16.9211890657       18.5129416749       19.5362627599
O    8.0       15.0977901991       19.3189479552       18.9498374577
C    6.0       16.1092240839       17.3399810028       17.9468268539
H    1.0       16.9271718713       16.6231995125       18.1005747267
H    1.0       16.4219458204       18.0206910802       17.1439257769
O    8.0       14.9182621153       16.6429499683       17.5614722750
H    1.0       14.8078194438       15.8818148290       18.1703680347
C    6.0       18.4333222049       23.6806249254       22.2371617136
H    1.0       18.7763061544       24.6043382389       22.7208752371
O    8.0       19.5370475444       22.9196693320       21.7085305011
C    6.0       17.6485867282       22.8082573800       23.2513917593
H    1.0       16.8016982710       23.4097065685       23.6067532882
O    8.0       18.4648969552       22.4299746504       24.3721746718
H    1.0       19.2687038692       23.0044034507       24.3568300504
C    6.0       17.0882969202       21.5369861707       22.5785099292
H    1.0       17.9408974980       20.8980023079       22.3288891366
O    8.0       16.2402875376       20.8609578641       23.5105586241
H    1.0       16.7549624520       20.8483726367       24.3490588277
C    6.0       16.3225146139       21.8515879793       21.2678964609
H    1.0       15.3394087073       22.2676619557       21.5237876739
C    6.0       17.0906892734       22.8525588594       20.3600649538
H    1.0       17.9583167761       22.3304582583       19.9369108746
O    8.0       17.5502952272       23.9876701144       21.1378032179
C    6.0       16.2508949755       23.3785487041       19.1715051224
H    1.0       16.1165382654       22.5601678850       18.4512774269
H    1.0       16.8190588807       24.1697714723       18.6641845896
O    8.0       14.9718517678       23.8722351319       19.5883678799
H    1.0       14.5319416969       24.2630072780       18.8020199641
C    6.0       23.6765034159       22.8532536731       21.7476515653
H    1.0       24.7489994353       23.0845444540       21.7171476311
O    8.0       23.4392003300       21.4338650286       21.8077132903
C    6.0       23.0427459675       23.4803848381       23.0108001156
H    1.0       23.1825871664       24.5675342353       22.9486157063
O    8.0       23.6921426762       22.9817934534       24.1910363426
H    1.0       23.9880804391       22.0624732757       23.9838424481
C    6.0       21.5239749279       23.1922308469       23.0693281121
H    1.0       21.3869617907       22.1150555089       23.2364375218
O    8.0       20.9586592587       23.9284173663       24.1589250112
H    1.0       21.6021152607       23.8199992600       24.8960144802
C    6.0       20.8238227069       23.5677962267       21.7360854053
H    1.0       20.7300487666       24.6595681046       21.6743091941
C    6.0       21.5940485893       23.0542774765       20.4884997122
H    1.0       21.4881653680       21.9636782875       20.4523124824
O    8.0       23.0018145635       23.3840928245       20.5880807673
C    6.0       21.0439780215       23.6084456539       19.1505199200
H    1.0       20.0753747118       23.1341537633       18.9462696052
H    1.0       21.7268263140       23.3144569407       18.3424787518
O    8.0       20.8858955797       25.0317035643       19.1633269271
H    1.0       20.0900268388       25.2370367660       19.6994002167
C    6.0       25.0166653714       17.7534227413       20.7746400612
H    1.0       25.6208598925       16.9149419401       20.4047826325
O    8.0       23.6985775474       17.3271129362       21.1849585196
C    6.0       25.7013529925       18.4412291708       21.9832477364
H    1.0       26.6635159266       18.8379884821       21.6340100882
O    8.0       25.9375307099       17.5121424778       23.0523302128
H    1.0       25.0818845092       17.0480117656       23.2379082545
C    6.0       24.8431629553       19.6311108194       22.4756586828
H    1.0       23.9036553305       19.2298463911       22.8791636421
O    8.0       25.5414330221       20.3408762430       23.5039610183
H    1.0       25.9022509637       19.6447474021       24.0970519849
C    6.0       24.4981614654       20.5952225365       21.3127733856
H    1.0       25.4012657256       21.1669208229       21.0618864835
C    6.0       23.9833805630       19.8498178441       20.0469374572
H    1.0       22.9923112567       19.4471956080       20.2705811881
O    8.0       24.8710776668       18.7495763866       19.7391201015
C    6.0       23.8258006874       20.7230542191       18.7749994620
H    1.0       22.8061263500       21.1257096346       18.7515618084
H    1.0       23.9282442209       20.0761819923       17.8934123461
O    8.0       24.7665472106       21.7994310814       18.7027798660
H    1.0       24.4011535861       22.5331178604       19.2492221437
C    6.0       21.3102673992       13.9406379057       21.4450388386
H    1.0       20.9094923488       12.9189642483       21.4637786500
O    8.0       20.2534751863       14.9225357142       21.3732322372
C    6.0       22.1834319729       14.2208889125       22.6971040416
H    1.0       23.0313969653       13.5243161695       22.6643402743
O    8.0       21.4573086666       14.0088991698       23.9172203381
H    1.0       20.6553086409       14.5876144464       23.8878407941
C    6.0       22.7479873927       15.6600429006       22.6412421883
H    1.0       21.9052675643       16.3571724520       22.6921776715
O    8.0       23.6164369942       15.8786069726       23.7565620991
H    1.0       23.1707230645       15.4415395884       24.5168480083
C    6.0       23.5032178487       15.9052156741       21.3111142399
H    1.0       24.4566742825       15.3618137897       21.3531757676
C    6.0       22.6830833542       15.4439595789       20.0730947418
H    1.0       21.8463317257       16.1416103670       19.9368239851
O    8.0       22.1566856993       14.1108936512       20.2884649668
C    6.0       23.4993380102       15.4403528525       18.7581078173
H    1.0       23.6845591752       16.4811094199       18.4597020696
H    1.0       22.8907274056       14.9784814820       17.9692061652
O    8.0       24.7457313542       14.7463413450       18.8972632743
H    1.0       25.1737634632       14.7230339447       18.0136819779
N    7.0       20.5935562026       18.2826913389       24.3286965533
H    1.0       20.3506002452       17.2834332796       24.2453663507
H    1.0       20.2839209033       18.5865147262       25.2576764808
H    1.0       21.6155072007       18.3591101157       24.3054882513
C    6.0       19.9322486269       19.0902450657       23.2316730185
H    1.0       20.1146195723       20.1513134202       23.4254756665
H    1.0       18.8548286050       18.9101382332       23.2917195340
C    6.0       20.4441491805       18.7197688687       21.8292201568
H    1.0       21.5031704227       18.9890589342       21.7557189521
H    1.0       20.3832796643       17.6363801289       21.6823058736
C    6.0       19.6346048108       19.4249957666       20.7229762054
H    1.0       19.7888020240       20.5071544270       20.7956814577
H    1.0       18.5645660428       19.2464211992       20.8894653698
C    6.0       20.0102179918       18.9296631468       19.3095929474
H    1.0       21.0998557612       18.9370727207       19.1840545594
H    1.0       19.6883475662       17.8848868717       19.1958910205
C    6.0       19.3671787936       19.8009675858       18.2078529669
H    1.0       19.7451122558       20.8289335932       18.2835535605
H    1.0       18.2801591949       19.8580194326       18.3529618617
C    6.0       19.6684138714       19.2501157611       16.7989011761
H    1.0       20.7492622320       19.2200408437       16.6091535148
H    1.0       19.2086853197       19.8831557782       16.0288870173
H    1.0       19.2720922359       18.2334472548       16.6791380334
 $end
