$$$$
! Edit this basic GAMESS input file as needed.
! Conformer was generated by a VeraChem VCPack run 
! and contains     26 atoms.
!
 $contrl scftyp=rhf runtyp=optimize nzvar=0
  maxit=200 icharg=0 $end
 $system mwords=50 $end
 $basis gbasis=pm3 $end
 $statpt nstep=200 $end
 $guess guess=huckel $end
 $data
VM2 Rank=1      G=48.261            E=15.909            -TS=32.352              
C1
C    6.0       19.9052420576       19.3106543774       18.8162318403
H    1.0       20.2945394039       20.3369141828       18.7942564233
H    1.0       20.2786888902       18.7894590458       17.9251977069
H    1.0       18.8107838950       19.3584959947       18.7447011602
C    6.0       20.3457234401       18.5775995448       20.1010414976
H    1.0       21.4427189633       18.5157423358       20.1275437707
H    1.0       19.9704312751       17.5448508669       20.0783555286
C    6.0       19.8326675654       19.2912455397       21.3713904494
H    1.0       20.2083395884       20.3237315782       21.3883447436
H    1.0       18.7360161267       19.3526283447       21.3392440089
C    6.0       20.2719018430       18.5601574857       22.6601694521
H    1.0       21.3686241819       18.4989311121       22.6913083380
H    1.0       19.8961935415       17.5276669430       22.6421645690
C    6.0       19.7582874866       19.2745040098       23.9307797218
H    1.0       20.1339547717       20.3071341205       23.9492281085
H    1.0       18.6614430202       19.3359449087       23.9000079581
C    6.0       20.1968081810       18.5443018077       25.2192687556
H    1.0       21.2928323849       18.4854849884       25.2564167655
H    1.0       19.8187531846       17.5132652526       25.2071230883
C    6.0       19.6802385839       19.2637137151       26.4777028914
H    1.0       20.0676220309       20.2858648982       26.5026029008
H    1.0       18.5881247145       19.3101805812       26.4530588851
N    7.0       20.0901308425       18.5768235197       27.7644153917
H    1.0       19.7359452080       19.0719964838       28.5901411342
H    1.0       21.1094563375       18.5250166835       27.8621583725
H    1.0       19.7327987503       17.6171843555       27.8160694752
 $end
$$$$
! Edit this basic GAMESS input file as needed.
! Conformer was generated by a VeraChem VCPack run 
! and contains     26 atoms.
!
 $contrl scftyp=rhf runtyp=optimize nzvar=0
  maxit=200 icharg=0 $end
 $system mwords=50 $end
 $basis gbasis=pm3 $end
 $statpt nstep=200 $end
 $guess guess=huckel $end
 $data
VM2 Rank=2      G=48.509            E=16.054            -TS=32.455              
C1
C    6.0       20.1408036704       19.6498920139       19.0008440369
H    1.0       19.1347359084       20.0853363938       18.9420319598
H    1.0       20.8620850980       20.4696395913       19.1148962728
H    1.0       20.3477000423       19.1494308438       18.0459714160
C    6.0       20.2455606034       18.6516022472       20.1732662722
H    1.0       21.2510114495       18.2079322590       20.1855464268
H    1.0       19.5369812525       17.8266845507       20.0140402967
C    6.0       19.9586346883       19.3310140730       21.5306030390
H    1.0       20.6678350868       20.1561761552       21.6841061278
H    1.0       18.9536249856       19.7749435647       21.5126617172
C    6.0       20.0624807591       18.3343305576       22.7071507753
H    1.0       21.0677701082       17.8909295098       22.7245410964
H    1.0       19.3536378348       17.5091421958       22.5519326532
C    6.0       19.7748026815       19.0142351493       24.0648724102
H    1.0       20.4826415914       19.8408145479       24.2124211956
H    1.0       18.7683022836       19.4550980347       24.0483761332
C    6.0       19.8800795360       18.0150757979       25.2412752461
H    1.0       20.8922480962       17.5914034719       25.2861044083
H    1.0       19.1958737944       17.1740749098       25.0664599615
C    6.0       19.5295085807       18.6544345147       26.5987332440
H    1.0       18.5244210940       19.0826092593       26.5553798435
H    1.0       19.5389668790       17.8847573148       27.3753119560
N    7.0       20.4891294806       19.7484156464       27.0242549763
H    1.0       20.2355040748       20.1436980822       27.9362702575
H    1.0       20.5021272361       20.5238216617       26.3545440910
H    1.0       21.4503976275       19.4013946427       27.1053537596
 $end
$$$$
! Edit this basic GAMESS input file as needed.
! Conformer was generated by a VeraChem VCPack run 
! and contains     26 atoms.
!
 $contrl scftyp=rhf runtyp=optimize nzvar=0
  maxit=200 icharg=0 $end
 $system mwords=50 $end
 $basis gbasis=pm3 $end
 $statpt nstep=200 $end
 $guess guess=huckel $end
 $data
VM2 Rank=3      G=48.526            E=16.071            -TS=32.455              
C1
C    6.0       19.4925992866       19.2223557149       18.9791704388
H    1.0       18.4512318922       18.8791939731       19.0342499244
H    1.0       19.4900905363       20.3198997603       18.9539887328
H    1.0       19.9156196429       18.8645382119       18.0315053787
C    6.0       20.3139440638       18.6967625117       20.1755290408
H    1.0       21.3571914698       19.0275744221       20.0748980031
H    1.0       20.3263792467       17.5979764295       20.1545525649
C    6.0       19.7392202594       19.1862515483       21.5232616445
H    1.0       19.7266739965       20.2849090585       21.5385634966
H    1.0       18.6957582802       18.8551800051       21.6181244107
C    6.0       20.5592140079       18.6619584611       22.7237416549
H    1.0       21.6026573073       18.9926774354       22.6271039940
H    1.0       20.5711193328       17.5632674791       22.7079055117
C    6.0       19.9843945892       19.1524230687       24.0718755631
H    1.0       19.9752100371       20.2511985704       24.0887133607
H    1.0       18.9404407066       18.8233697559       24.1608974896
C    6.0       20.8061703229       18.6259124575       25.2722077339
H    1.0       21.8553854425       18.9283124885       25.1552412969
H    1.0       20.7959301132       17.5278351358       25.2829358563
C    6.0       20.2934156858       19.1583260144       26.6242397878
H    1.0       20.9605873442       18.8224960118       27.4227801807
H    1.0       20.2967120665       20.2516274037       26.6145189902
N    7.0       18.8920417846       18.6950102234       26.9709741362
H    1.0       18.8296446630       17.6727853804       27.0178981343
H    1.0       18.2058133235       19.0092297404       26.2779427920
H    1.0       18.5861553577       19.0558013886       27.8812532128
 $end
$$$$
! Edit this basic GAMESS input file as needed.
! Conformer was generated by a VeraChem VCPack run 
! and contains     26 atoms.
!
 $contrl scftyp=rhf runtyp=optimize nzvar=0
  maxit=200 icharg=0 $end
 $system mwords=50 $end
 $basis gbasis=pm3 $end
 $statpt nstep=200 $end
 $guess guess=huckel $end
 $data
VM2 Rank=4      G=48.731            E=16.280            -TS=32.451              
C1
C    6.0       19.7687242223       18.8532960794       18.9896881484
H    1.0       20.5474789678       19.5749132912       18.7103064609
H    1.0       19.7777568566       18.0438575602       18.2482211695
H    1.0       18.7959402676       19.3581082474       18.9256660635
C    6.0       20.0121406244       18.2957702609       20.4081459108
H    1.0       20.9759157761       17.7680418439       20.4319682784
H    1.0       19.2378866729       17.5527303971       20.6455101934
C    6.0       20.0042447274       19.4156623405       21.4721698889
H    1.0       20.7777933344       20.1571311229       21.2286970681
H    1.0       19.0397949623       19.9414533256       21.4433289074
C    6.0       20.2481107980       18.8613559616       22.8940171644
H    1.0       21.2140533933       18.3383058164       22.9221514795
H    1.0       19.4755332536       18.1166881614       23.1278145723
C    6.0       20.2380741548       19.9853194808       23.9577946897
H    1.0       20.9812081250       20.7474324823       23.6850863693
H    1.0       19.2614552653       20.4891538724       23.9558527139
C    6.0       20.5520135952       19.4747124125       25.3837357147
H    1.0       20.6144347718       20.3343064225       26.0642881189
H    1.0       21.5388417730       18.9929848870       25.3943418315
C    6.0       19.4900792860       18.4915966185       25.9111282073
H    1.0       18.5077006465       18.9714278934       25.9018325795
H    1.0       19.4490432458       17.6098540863       25.2665210306
N    7.0       19.7676125919       18.0212868458       27.3243202758
H    1.0       19.7914143870       18.8015933161       27.9889846464
H    1.0       20.6681849447       17.5364525082       27.3958261071
H    1.0       19.0496428772       17.3681749598       27.6565319725
 $end
$$$$
! Edit this basic GAMESS input file as needed.
! Conformer was generated by a VeraChem VCPack run 
! and contains     26 atoms.
!
 $contrl scftyp=rhf runtyp=optimize nzvar=0
  maxit=200 icharg=0 $end
 $system mwords=50 $end
 $basis gbasis=pm3 $end
 $statpt nstep=200 $end
 $guess guess=huckel $end
 $data
VM2 Rank=5      G=48.734            E=16.283            -TS=32.451              
C1
C    6.0       20.3709975976       19.2510001527       19.0098831150
H    1.0       20.2930543510       20.3455446310       18.9761216225
H    1.0       21.1451810111       18.9460682792       18.2938504188
H    1.0       19.4150879545       18.8295547725       18.6724445231
C    6.0       20.7212190253       18.7633602120       20.4317342463
H    1.0       21.6969321894       19.1736085338       20.7277057205
H    1.0       20.8257248991       17.6692957438       20.4264644352
C    6.0       19.6464314937       19.1797008153       21.4602573976
H    1.0       19.5440260424       20.2737595741       21.4604498256
H    1.0       18.6727754118       18.7694676319       21.1583737759
C    6.0       19.9935119291       18.6931095738       22.8854379974
H    1.0       20.9700462029       19.1017297246       23.1778000143
H    1.0       20.0931289320       17.5988093652       22.8843660964
C    6.0       18.9156187365       19.1127018535       23.9135955136
H    1.0       18.8362797455       20.2084016294       23.9415879368
H    1.0       17.9365294248       18.7387978843       23.5834247817
C    6.0       19.1951544879       18.5794236552       25.3383954212
H    1.0       19.2499795614       17.4828026534       25.3178999498
H    1.0       18.3493546998       18.8398383943       25.9885929722
C    6.0       20.4904066415       19.1515122797       25.9445289122
H    1.0       21.3465176296       18.8614760745       25.3300166501
H    1.0       20.4355828074       20.2432662108       25.9660034348
N    7.0       20.7476600883       18.6681914578       27.3571673967
H    1.0       20.8362685574       17.6477167740       27.4017661617
H    1.0       19.9905585574       18.9335049315       27.9956250349
H    1.0       21.6138845029       19.0602757165       27.7422978574
 $end
$$$$
! Edit this basic GAMESS input file as needed.
! Conformer was generated by a VeraChem VCPack run 
! and contains     26 atoms.
!
 $contrl scftyp=rhf runtyp=optimize nzvar=0
  maxit=200 icharg=0 $end
 $system mwords=50 $end
 $basis gbasis=pm3 $end
 $statpt nstep=200 $end
 $guess guess=huckel $end
 $data
VM2 Rank=6      G=48.855            E=16.392            -TS=32.463              
C1
C    6.0       19.4449675999       18.1620482894       19.5242628996
H    1.0       19.4108147583       17.2841257513       20.1811692230
H    1.0       18.4489586975       18.6234387722       19.5137280239
H    1.0       19.6604898094       17.8056070273       18.5086657968
C    6.0       20.5208902012       19.1726973573       19.9822584503
H    1.0       20.6010946376       19.9695858943       19.2297041118
H    1.0       21.5023385463       18.6791719234       20.0130442063
C    6.0       20.2153038052       19.8164361075       21.3562769864
H    1.0       20.9648694239       20.5960873558       21.5502474596
H    1.0       19.2428991671       20.3262669519       21.3142489745
C    6.0       20.2241542846       18.8044829372       22.5271014262
H    1.0       21.1784708035       18.2599912769       22.5339105183
H    1.0       19.4317692708       18.0584644600       22.3821539313
C    6.0       20.0184485030       19.5030004758       23.8903651875
H    1.0       20.8116683342       20.2475569818       24.0458662659
H    1.0       19.0656506879       20.0506280625       23.8823144811
C    6.0       20.0229710527       18.4949841094       25.0606808706
H    1.0       20.9756672708       17.9488385335       25.0747745772
H    1.0       19.2276486849       17.7522999759       24.9124113410
C    6.0       19.8179649632       19.2009590882       26.4125671543
H    1.0       20.6170414773       19.9300033881       26.5720936755
H    1.0       18.8626603879       19.7328038435       26.4090436804
N    7.0       19.8162995902       18.2443916352       27.5874870251
H    1.0       19.0680692890       17.5474715877       27.5119574312
H    1.0       19.6784546297       18.7349436866       28.4778906854
H    1.0       20.7005007936       17.7309281697       27.6636154432
 $end
$$$$
! Edit this basic GAMESS input file as needed.
! Conformer was generated by a VeraChem VCPack run 
! and contains     26 atoms.
!
 $contrl scftyp=rhf runtyp=optimize nzvar=0
  maxit=200 icharg=0 $end
 $system mwords=50 $end
 $basis gbasis=pm3 $end
 $statpt nstep=200 $end
 $guess guess=huckel $end
 $data
VM2 Rank=7      G=48.894            E=16.431            -TS=32.463              
C1
C    6.0       21.1081438215       19.2585604692       19.5798547433
H    1.0       21.3980179488       18.9512943435       18.5666919444
H    1.0       21.0763347878       20.3556189465       19.6016792551
H    1.0       21.8972675962       18.9232963741       20.2641961447
C    6.0       19.7358741314       18.6551176321       19.9560304413
H    1.0       19.8020184598       17.5581300265       19.9562225049
H    1.0       19.0075438418       18.9189391097       19.1764571205
C    6.0       19.2007947229       19.1475518884       21.3223804195
H    1.0       19.1165274407       20.2430018682       21.3099900208
H    1.0       18.1812509952       18.7606896150       21.4572783546
C    6.0       20.0722699138       18.7044284095       22.5220178068
H    1.0       21.0754104582       19.1425223056       22.4370876738
H    1.0       20.1972636652       17.6130185822       22.5010708567
C    6.0       19.4480343887       19.1268846066       23.8713133173
H    1.0       19.3195927818       20.2181701807       23.8908437197
H    1.0       18.4454304907       18.6870983819       23.9667989674
C    6.0       20.3176482777       18.6893461989       25.0705155865
H    1.0       21.3190272836       19.1315644098       24.9822868747
H    1.0       20.4444715814       17.5985507961       25.0569809709
C    6.0       19.6868414067       19.1144546778       26.4081962205
H    1.0       19.5737353480       20.2016866042       26.4328775772
H    1.0       18.6959703534       18.6631100621       26.5078899305
N    7.0       20.5113933373       18.7026561173       27.6106914648
H    1.0       21.4488848347       19.1173762288       27.5915017591
H    1.0       20.6321536979       17.6857416107       27.6612415101
H    1.0       20.0735553082       18.9953191721       28.4910932964
 $end
$$$$
! Edit this basic GAMESS input file as needed.
! Conformer was generated by a VeraChem VCPack run 
! and contains     26 atoms.
!
 $contrl scftyp=rhf runtyp=optimize nzvar=0
  maxit=200 icharg=0 $end
 $system mwords=50 $end
 $basis gbasis=pm3 $end
 $statpt nstep=200 $end
 $guess guess=huckel $end
 $data
VM2 Rank=8      G=48.924            E=16.474            -TS=32.451              
C1
C    6.0       20.1861019685       19.7828129308       19.1892283137
H    1.0       20.2153314818       18.9014739642       18.5353048122
H    1.0       19.1864223089       20.2304980075       19.1153222387
H    1.0       20.9111295701       20.5116951549       18.8043850455
C    6.0       20.5170349638       19.4032110912       20.6482268945
H    1.0       20.5183313483       20.3141423501       21.2612912080
H    1.0       21.5326452816       18.9859517652       20.6944656633
C    6.0       19.5050751067       18.3790759411       21.2142608345
H    1.0       18.4972335899       18.8166882316       21.2168433250
H    1.0       19.4621416461       17.5112232355       20.5416989263
C    6.0       19.8579095540       17.8795895379       22.6369111660
H    1.0       20.8596740285       17.4281932352       22.6299999927
H    1.0       19.1592381287       17.0751804303       22.9055647746
C    6.0       19.7905959232       18.9867726316       23.7163111492
H    1.0       20.5374213978       19.7634012482       23.5050820566
H    1.0       18.8056355126       19.4729269195       23.6834693826
C    6.0       20.0384366837       18.4224504321       25.1326413217
H    1.0       21.0226787870       17.9366585976       25.1699342580
H    1.0       19.2896821685       17.6521286781       25.3607929423
C    6.0       19.9735852896       19.5297923988       26.1992587956
H    1.0       20.7286961288       20.2912123612       25.9859133451
H    1.0       18.9893548977       20.0054606153       26.1767295360
N    7.0       20.2122605106       19.0152950364       27.6041615248
H    1.0       20.1647496417       19.7686037991       28.2989430456
H    1.0       21.1351795844       18.5790426510       27.6998250116
H    1.0       19.5167784873       18.3132267840       27.8773944356
 $end
$$$$
! Edit this basic GAMESS input file as needed.
! Conformer was generated by a VeraChem VCPack run 
! and contains     26 atoms.
!
 $contrl scftyp=rhf runtyp=optimize nzvar=0
  maxit=200 icharg=0 $end
 $system mwords=50 $end
 $basis gbasis=pm3 $end
 $statpt nstep=200 $end
 $guess guess=huckel $end
 $data
VM2 Rank=9      G=48.925            E=16.472            -TS=32.453              
C1
C    6.0       20.8451485567       19.8696296278       19.4335642703
H    1.0       21.0194348474       19.5525315495       18.3971671746
H    1.0       20.1891266867       20.7496073704       19.4109200876
H    1.0       21.8101841250       20.1733781320       19.8597899241
C    6.0       20.2113470388       18.7262031661       20.2539853092
H    1.0       20.8742025244       17.8498381085       20.2307285108
H    1.0       19.2660099896       18.4212640449       19.7836067120
C    6.0       19.9544612038       19.1466803064       21.7181220986
H    1.0       20.9042122653       19.4572141318       22.1727427749
H    1.0       19.2899971217       20.0215471682       21.7361269993
C    6.0       19.3225662797       17.9993610774       22.5425858307
H    1.0       20.0092003315       17.1420343192       22.5718846701
H    1.0       18.4149268495       17.6498395626       22.0312811211
C    6.0       18.9435632528       18.4099699266       23.9868087798
H    1.0       18.2432799014       19.2563257865       23.9574143845
H    1.0       18.4004447740       17.5769160508       24.4545292787
C    6.0       20.1622318539       18.7718350089       24.8679908743
H    1.0       20.6724265754       19.6551591706       24.4638337887
H    1.0       20.8854318889       17.9455506040       24.8563787265
C    6.0       19.7380729023       19.0592332472       26.3190478382
H    1.0       19.0300705015       19.8922184891       26.3374354224
H    1.0       19.2445263658       18.1788799208       26.7395829840
N    7.0       20.9036089119       19.4160876396       27.2188949990
H    1.0       21.3951904163       20.2548677351       26.8933351876
H    1.0       21.5948583715       18.6603616166       27.2667117032
H    1.0       20.5989507958       19.6030757175       28.1804922652
 $end
$$$$
! Edit this basic GAMESS input file as needed.
! Conformer was generated by a VeraChem VCPack run 
! and contains     26 atoms.
!
 $contrl scftyp=rhf runtyp=optimize nzvar=0
  maxit=200 icharg=0 $end
 $system mwords=50 $end
 $basis gbasis=pm3 $end
 $statpt nstep=200 $end
 $guess guess=huckel $end
 $data
VM2 Rank=10     G=48.931            E=16.480            -TS=32.451              
C1
C    6.0       19.3438594024       19.2271650717       19.1611071698
H    1.0       20.1724358689       18.8732547740       18.5338617775
H    1.0       18.4077119032       18.8600723276       18.7207560624
H    1.0       19.3282600922       20.3241252944       19.1201371149
C    6.0       19.4948819972       18.7287799274       20.6140672887
H    1.0       19.4775805724       17.6300200867       20.6257440596
H    1.0       18.6290365563       19.0675547303       21.1981799873
C    6.0       20.8064046421       19.2376119594       21.2577374738
H    1.0       21.6517794201       18.9558208026       20.6148627151
H    1.0       20.7997194510       20.3357524182       21.2937503702
C    6.0       21.0606178003       18.6730917956       22.6771065904
H    1.0       22.0612258996       18.9897633379       23.0025176766
H    1.0       21.0825048919       17.5752348651       22.6374878261
C    6.0       20.0197527990       19.1380185690       23.7239762592
H    1.0       19.9612957516       20.2353564950       23.7221405576
H    1.0       19.0230725232       18.7645235867       23.4544487750
C    6.0       20.3749083818       18.6444400774       25.1438794597
H    1.0       21.3657801729       19.0216352631       25.4301991871
H    1.0       20.4330677336       17.5477667117       25.1501717278
C    6.0       19.3335490817       19.1075853629       26.1778798194
H    1.0       19.2840394830       20.1998082099       26.1866968342
H    1.0       18.3476595315       18.7206401059       25.9062853097
N    7.0       19.6470258957       18.6423072366       27.5852459391
H    1.0       18.9414031269       18.9614838981       28.2580577771
H    1.0       20.5522267783       18.9959800297       27.9120162446
H    1.0       19.6809368690       17.6196833234       27.6511070086
 $end
$$$$
! Edit this basic GAMESS input file as needed.
! Conformer was generated by a VeraChem VCPack run 
! and contains     26 atoms.
!
 $contrl scftyp=rhf runtyp=optimize nzvar=0
  maxit=200 icharg=0 $end
 $system mwords=50 $end
 $basis gbasis=pm3 $end
 $statpt nstep=200 $end
 $guess guess=huckel $end
 $data
VM2 Rank=11     G=48.947            E=16.494            -TS=32.453              
C1
C    6.0       18.9940093279       18.6487099549       19.3717989318
H    1.0       18.4441481376       19.5987285290       19.3529042112
H    1.0       19.2650270755       18.3956538012       18.3385730579
H    1.0       18.3164806287       17.8687539818       19.7430782868
C    6.0       20.2549933046       18.7551100545       20.2554368846
H    1.0       20.9279613539       19.5178311926       19.8391689307
H    1.0       20.8009585203       17.8016365999       20.2281250420
C    6.0       19.9015402695       19.1116522637       21.7164063839
H    1.0       19.3578582210       20.0661924234       21.7385933872
H    1.0       19.2224024080       18.3475874010       22.1165525520
C    6.0       21.1651397464       19.2145983653       22.6041476173
H    1.0       21.8662760297       19.9262454009       22.1465748666
H    1.0       21.6817198641       18.2451021489       22.6277457065
C    6.0       20.8696124503       19.6802365950       24.0511660711
H    1.0       21.8262732871       19.8362384391       24.5690274187
H    1.0       20.3686578091       20.6580438680       24.0284425287
C    6.0       20.0175845241       18.6765552944       24.8631077771
H    1.0       20.4929105178       17.6868266803       24.8430754819
H    1.0       19.0246708089       18.5688027725       24.4087776524
C    6.0       19.8528147026       19.1347693874       26.3228889535
H    1.0       20.8356955283       19.2278312583       26.7927257108
H    1.0       19.3651061788       20.1130035408       26.3487780907
N    7.0       19.0253056746       18.1773680848       27.1560473807
H    1.0       19.4455662635       17.2429566310       27.1946663450
H    1.0       18.0769667746       18.0667837132       26.7823923911
H    1.0       18.9285496847       18.5012845998       28.1246365143
 $end
$$$$
! Edit this basic GAMESS input file as needed.
! Conformer was generated by a VeraChem VCPack run 
! and contains     26 atoms.
!
 $contrl scftyp=rhf runtyp=optimize nzvar=0
  maxit=200 icharg=0 $end
 $system mwords=50 $end
 $basis gbasis=pm3 $end
 $statpt nstep=200 $end
 $guess guess=huckel $end
 $data
VM2 Rank=12     G=49.083            E=16.517            -TS=32.566              
C1
C    6.0       20.4627675794       19.6711234366       19.5222315344
H    1.0       21.3151979816       20.0462712058       20.1019424658
H    1.0       20.8046970567       19.5266547543       18.4892020129
H    1.0       19.6847986294       20.4455291375       19.5130776007
C    6.0       19.9204685297       18.3453101405       20.1026755792
H    1.0       20.7247934800       17.5968929162       20.1288821561
H    1.0       19.1536511789       17.9486799892       19.4226236519
C    6.0       19.3017758140       18.4984908561       21.5131598937
H    1.0       18.4848501492       19.2324011082       21.4775408897
H    1.0       18.8447991335       17.5410028280       21.7989749824
C    6.0       20.3281112558       18.9117412819       22.5952362850
H    1.0       20.7423177530       19.9006136630       22.3586901697
H    1.0       21.1686646637       18.2041410092       22.5927524842
C    6.0       19.6921387635       18.9525696485       24.0032548405
H    1.0       18.8510546438       19.6598489277       24.0050331461
H    1.0       19.2780979473       17.9639167894       24.2422504197
C    6.0       20.7172709635       19.3685245276       25.0846842487
H    1.0       21.1525470478       20.3409415865       24.8183939951
H    1.0       21.5477477021       18.6505170342       25.1122495517
C    6.0       20.0896803140       19.4832985155       26.4872881166
H    1.0       20.8381326595       19.8600730425       27.1897302913
H    1.0       19.2584082735       20.1930457499       26.4616755183
N    7.0       19.5687867801       18.1679415933       27.0324695018
H    1.0       19.1697272465       18.2762972385       27.9712692028
H    1.0       20.3108743907       17.4640327498       27.1020881743
H    1.0       18.8329731989       17.7750151016       26.4373884106
 $end
$$$$
! Edit this basic GAMESS input file as needed.
! Conformer was generated by a VeraChem VCPack run 
! and contains     26 atoms.
!
 $contrl scftyp=rhf runtyp=optimize nzvar=0
  maxit=200 icharg=0 $end
 $system mwords=50 $end
 $basis gbasis=pm3 $end
 $statpt nstep=200 $end
 $guess guess=huckel $end
 $data
VM2 Rank=13     G=49.102            E=16.465            -TS=32.638              
C1
C    6.0       20.5614159755       19.3876431944       19.2124225737
H    1.0       20.9775555302       20.3968731114       19.3286899460
H    1.0       21.1499089511       18.8667188644       18.4460303740
H    1.0       19.5328078808       19.4826335442       18.8406913058
C    6.0       20.5995344618       18.6146133782       20.5477429565
H    1.0       21.6426555798       18.5061911425       20.8764616374
H    1.0       20.2089327830       17.5991278204       20.3923688347
C    6.0       19.7780889540       19.3271472767       21.6449345159
H    1.0       20.1708061721       20.3423237907       21.7951880606
H    1.0       18.7370708849       19.4354748974       21.3103181818
C    6.0       19.8135597623       18.5557386982       22.9835506040
H    1.0       20.8569045416       18.4447734919       23.3076197963
H    1.0       19.4173239020       17.5420538609       22.8325323572
C    6.0       18.9916294526       19.2728517973       24.0812783855
H    1.0       19.3990888708       20.2780257518       24.2536066495
H    1.0       17.9629724404       19.4182721986       23.7234053973
C    6.0       18.9418711693       18.4880819194       25.4162508033
H    1.0       18.4527998075       17.5193168712       25.2484121841
H    1.0       18.3097480714       19.0297975299       26.1323347377
C    6.0       20.3251648674       18.2401332485       26.0514844623
H    1.0       20.2036324222       17.6607256451       26.9707356225
H    1.0       20.9488964894       17.6609518470       25.3658123434
N    7.0       21.0697353571       19.5127904870       26.4033356989
H    1.0       21.2433162367       20.0897969114       25.5745245469
H    1.0       21.9813340794       19.3155567202       26.8302663007
H    1.0       20.5449279985       20.0885408318       27.0696747053
 $end
$$$$
! Edit this basic GAMESS input file as needed.
! Conformer was generated by a VeraChem VCPack run 
! and contains     26 atoms.
!
 $contrl scftyp=rhf runtyp=optimize nzvar=0
  maxit=200 icharg=0 $end
 $system mwords=50 $end
 $basis gbasis=pm3 $end
 $statpt nstep=200 $end
 $guess guess=huckel $end
 $data
VM2 Rank=14     G=49.122            E=16.556            -TS=32.566              
C1
C    6.0       19.4648943729       18.1895729000       19.6036601523
H    1.0       19.7242945739       17.2824936657       20.1634478437
H    1.0       18.3891460777       18.3724889235       19.7233583773
H    1.0       19.6547969079       17.9871111208       18.5416426790
C    6.0       20.2917377744       19.4059858314       20.0784658790
H    1.0       20.0870099352       20.2551753988       19.4115635514
H    1.0       21.3637809559       19.1866850938       19.9765516504
C    6.0       19.9804681837       19.8313652854       21.5337529139
H    1.0       20.5242976729       20.7615988346       21.7487903133
H    1.0       18.9118377931       20.0698427659       21.6254192746
C    6.0       20.3694781862       18.7641380270       22.5848034007
H    1.0       21.4255632880       18.4901080673       22.4551834735
H    1.0       19.7807313757       17.8511357482       22.4259345522
C    6.0       20.1399908853       19.2693633079       24.0272643035
H    1.0       20.7334823376       20.1785768936       24.1967599967