$$$$
! Edit this basic GAMESS input file as needed.
! Conformer was generated by a VeraChem VCPack run 
! and contains     25 atoms.
!
 $contrl scftyp=rhf runtyp=optimize nzvar=0
  maxit=200 icharg=0 $end
 $system mwords=50 $end
 $basis gbasis=pm3 $end
 $statpt nstep=200 $end
 $guess guess=huckel $end
 $data
VM2 Rank=1      G=62.075            E=29.291            -TS=32.785              
C1
C    6.0       21.2649473098       19.5699856628       21.1383752898
H    1.0       22.0468929085       19.7182957163       21.8916126918
H    1.0       21.7745796711       19.7414799940       20.1802783007
C    6.0       20.7595332052       18.1038075153       21.1583156213
H    1.0       19.7152359662       18.0408660591       20.8265172330
H    1.0       21.3326991671       17.5468214181       20.4044867265
C    6.0       20.9529807229       17.3662000287       22.5093841202
H    1.0       22.0133546454       17.4004977019       22.7947224394
H    1.0       20.7266423492       16.3038584579       22.3451436275
C    6.0       20.0857686826       17.8547889858       23.7002741014
H    1.0       19.0202806988       17.7989575900       23.4478120692
H    1.0       20.2245712769       17.1309632733       24.5147315934
C    6.0       20.4544398964       19.2645861112       24.2301189876
H    1.0       21.4702642945       19.5138221436       23.9017282668
C    6.0       19.4857873346       20.3914192102       23.7945591567
H    1.0       18.5769307902       20.3181937945       24.4070404220
H    1.0       19.9398093830       21.3598068171       24.0411495414
C    6.0       19.0436461969       20.4095204566       22.3085534901
H    1.0       18.3090849445       21.2184794381       22.1958389558
H    1.0       18.4890339214       19.4966793605       22.0627519262
C    6.0       20.1645101713       20.6552502531       21.2675815776
H    1.0       20.6410970619       21.6243703738       21.4681791852
H    1.0       19.6821741826       20.7603623057       20.2860985613
O    8.0       20.4523864804       19.2274417763       25.6528376554
H    1.0       20.7315735231       20.1156331959       25.9587945178
 $end
$$$$
! Edit this basic GAMESS input file as needed.
! Conformer was generated by a VeraChem VCPack run 
! and contains     25 atoms.
!
 $contrl scftyp=rhf runtyp=optimize nzvar=0
  maxit=200 icharg=0 $end
 $system mwords=50 $end
 $basis gbasis=pm3 $end
 $statpt nstep=200 $end
 $guess guess=huckel $end
 $data
VM2 Rank=2      G=62.111            E=29.304            -TS=32.807              
C1
C    6.0       21.2655958493       19.5695994075       21.1386116209
H    1.0       22.0494476147       19.7177486294       21.8898799915
H    1.0       21.7735270369       19.7405139718       20.1795040873
C    6.0       20.7600405641       18.1033802778       21.1596362558
H    1.0       19.7157014199       18.0405774669       20.8279179352
H    1.0       21.3329781381       17.5460456018       20.4058798300
C    6.0       20.9534894576       17.3658750290       22.5108766112
H    1.0       22.0136870127       17.4008146021       22.7967494321
H    1.0       20.7279145014       16.3034191197       22.3459881445
C    6.0       20.0832631770       17.8542397891       23.6993008832
H    1.0       19.0191729138       17.8028713511       23.4394588741
H    1.0       20.2119829058       17.1260021106       24.5111015937
C    6.0       20.4528560960       19.2643218376       24.2284312608
H    1.0       21.4658058456       19.5190740491       23.8957112446
C    6.0       19.4814833580       20.3887515339       23.7950891336
H    1.0       18.5734091617       20.3112161246       24.4078438502
H    1.0       19.9342983241       21.3555612293       24.0498065452
C    6.0       19.0429475800       20.4114124594       22.3077777248
H    1.0       18.3104760678       21.2222902868       22.1955201396
H    1.0       18.4868511565       19.5004103188       22.0586594514
C    6.0       20.1665398721       20.6564946783       21.2693426383
H    1.0       20.6447037644       21.6241943050       21.4730387159
H    1.0       19.6859884220       20.7650395918       20.2873645147
O    8.0       20.4577840459       19.2289249875       25.6509338714
H    1.0       21.1308348935       18.5666689196       25.9134206801
 $end
$$$$
! Edit this basic GAMESS input file as needed.
! Conformer was generated by a VeraChem VCPack run 
! and contains     25 atoms.
!
 $contrl scftyp=rhf runtyp=optimize nzvar=0
  maxit=200 icharg=0 $end
 $system mwords=50 $end
 $basis gbasis=pm3 $end
 $statpt nstep=200 $end
 $guess guess=huckel $end
 $data
VM2 Rank=3      G=62.126            E=29.342            -TS=32.784              
C1
C    6.0       21.2426357538       19.6237974109       21.1382170361
H    1.0       21.8986460915       20.0759108100       21.8905759961
H    1.0       21.7260646601       19.8584796539       20.1799342158
C    6.0       21.2325296500       18.0789187466       21.2749757992
H    1.0       20.9680609875       17.6585696497       20.2949924659
H    1.0       22.2545831810       17.7322350200       21.4793906034
C    6.0       20.2644084489       17.4646484292       22.3169717877
H    1.0       20.3178507088       16.3727075026       22.2096896164
H    1.0       19.2271276305       17.7161727095       22.0678202085
C    6.0       20.5610267380       17.7974982920       23.8019800290
H    1.0       19.8656420010       17.2092470222       24.4159156555
H    1.0       21.5665030351       17.4355271597       24.0524022141
C    6.0       20.4475233262       19.2812804535       24.2300672536
H    1.0       21.3424343215       19.8222075926       23.9008401634
C    6.0       19.1906386989       20.0141995341       23.6941057461
H    1.0       18.3986290004       19.2986127043       23.4435591619
H    1.0       18.7750196866       20.6279306037       24.5047381434
C    6.0       19.4602330894       20.9671984139       22.4990713452
H    1.0       20.2333069132       21.6945685647       22.7824020304
H    1.0       18.5490030726       21.5570164095       22.3301074763
C    6.0       19.8480882160       20.3024447671       21.1520222610
H    1.0       19.8605897400       21.0978788341       20.3943028000
H    1.0       19.0662101501       19.6064538121       20.8220666627
O    8.0       20.4169160787       19.3130139528       25.6525887420
H    1.0       21.2418953071       18.8841528275       25.9623077934
 $end
$$$$
! Edit this basic GAMESS input file as needed.
! Conformer was generated by a VeraChem VCPack run 
! and contains     25 atoms.
!
 $contrl scftyp=rhf runtyp=optimize nzvar=0
  maxit=200 icharg=0 $end
 $system mwords=50 $end
 $basis gbasis=pm3 $end
 $statpt nstep=200 $end
 $guess guess=huckel $end
 $data
VM2 Rank=4      G=62.126            E=29.319            -TS=32.807              
C1
C    6.0       21.2430135143       19.6245389180       21.1385504102
H    1.0       21.9002144260       20.0780843395       21.8889912255
H    1.0       21.7249183958       19.8584123538       20.1792993559
C    6.0       21.2349810561       18.0794886781       21.2768224643
H    1.0       20.9742854598       17.6579941006       20.2963258863
H    1.0       22.2571090769       17.7349087269       21.4844132772
C    6.0       20.2652819365       17.4628144776       22.3161838932
H    1.0       20.3215534414       16.3709994531       22.2093560119
H    1.0       19.2282911209       17.7119874929       22.0636143335
C    6.0       20.5559683917       17.7963163427       23.8025219349
H    1.0       19.8579963745       17.2116854734       24.4166240020
H    1.0       21.5594185536       17.4346162019       24.0611802389
C    6.0       20.4460729379       19.2803124611       24.2283862949
H    1.0       21.3428931788       19.8152756902       23.8949246823
C    6.0       19.1883826594       20.0127741066       23.6930197404
H    1.0       18.4005799811       19.2949808523       23.4349783902
H    1.0       18.7624003341       20.6224335552       24.5009645046
C    6.0       19.4604154561       20.9678015279       22.5005185269
H    1.0       20.2337916874       21.6945737067       22.7845133197
H    1.0       18.5496745879       21.5582556218       22.3308172428
C    6.0       19.8483557110       20.3031703585       21.1533143384
H    1.0       19.8605737845       21.0987346716       20.3957154383
H    1.0       19.0665666179       19.6070950463       20.8232991839
O    8.0       20.4215283369       19.3157831294       25.6506823968
H    1.0       20.4280725995       20.2612682180       25.9085496548
 $end
$$$$
! Edit this basic GAMESS input file as needed.
! Conformer was generated by a VeraChem VCPack run 
! and contains     25 atoms.
!
 $contrl scftyp=rhf runtyp=optimize nzvar=0
  maxit=200 icharg=0 $end
 $system mwords=50 $end
 $basis gbasis=pm3 $end
 $statpt nstep=200 $end
 $guess guess=huckel $end
 $data
VM2 Rank=5      G=62.195            E=29.408            -TS=32.788              
C1
C    6.0       20.7558272388       19.2414903570       20.8005624707
H    1.0       20.7018354525       19.0670227835       19.7172582274
H    1.0       21.8174668377       19.4274386295       21.0082078269
C    6.0       20.2661997196       17.9508471105       21.5065676097
H    1.0       19.2040959285       18.0305793216       21.7639086399
H    1.0       20.3136784139       17.1256311936       20.7828419585
C    6.0       21.1003443677       17.5255109421       22.7406266831
H    1.0       22.0421126510       17.0936007099       22.3754183749
H    1.0       20.5848545353       16.7050484864       23.2571199459
C    6.0       21.4659565738       18.6396210103       23.7585022794
H    1.0       22.1040487739       18.1862074990       24.5283502171
H    1.0       22.1068481583       19.3873342863       23.2790725426
C    6.0       20.2996869694       19.3460999167       24.4923963572
H    1.0       20.7560884473       20.0337525418       25.2188131769
C    6.0       19.3297540713       20.1867985969       23.6260335849
H    1.0       18.5531888691       19.5555751373       23.1804313382
H    1.0       18.7873066059       20.8466878955       24.3157193022
C    6.0       19.9922956317       21.0753102016       22.5396000298
H    1.0       21.0293407581       21.3196739631       22.8029293539
H    1.0       19.4640680882       22.0386054322       22.5337481680
C    6.0       19.9095401125       20.5060434986       21.0994112375
H    1.0       20.2359559460       21.2960682060       20.4093817407
H    1.0       18.8590865313       20.3095177993       20.8449352877
O    8.0       19.5443953152       18.3712783663       25.1962997476
H    1.0       19.2505702883       17.7296769921       24.5185639846
 $end
$$$$
! Edit this basic GAMESS input file as needed.
! Conformer was generated by a VeraChem VCPack run 
! and contains     25 atoms.
!
 $contrl scftyp=rhf runtyp=optimize nzvar=0
  maxit=200 icharg=0 $end
 $system mwords=50 $end
 $basis gbasis=pm3 $end
 $statpt nstep=200 $end
 $guess guess=huckel $end
 $data
VM2 Rank=6      G=62.220            E=29.432            -TS=32.788              
C1
C    6.0       20.6500409421       19.4973000932       20.8001057108
H    1.0       20.4906025449       19.5762068806       19.7160139999
H    1.0       21.5267036607       20.1245011744       21.0071218066
C    6.0       20.9569574922       18.0085174217       21.1065939634
H    1.0       20.0807284542       17.3964892827       20.8526657869
H    1.0       21.7507776907       17.6838651585       20.4200967590
C    6.0       21.4170283075       17.6748349123       22.5495238289
H    1.0       22.3179125341       18.2438094978       22.8125713256
H    1.0       21.7331332882       16.6226595434       22.5493156567
C    6.0       20.3162182471       17.8307812779       23.6324158297
H    1.0       19.3227731606       17.7179444202       23.1847625952
H    1.0       20.4043202887       16.9844791846       24.3262332925
C    6.0       20.3950559471       19.1157545464       24.4930908069
H    1.0       21.2033819809       18.9620649743       25.2223635093
C    6.0       20.7115112975       20.4391664710       23.7539462236
H    1.0       20.8339300084       21.2155163695       24.5205664239
H    1.0       21.6952188673       20.3692821225       23.2773937686
C    6.0       19.6636686090       20.9553905369       22.7309511930
H    1.0       18.7159821945       21.1658902915       23.2440150211
H    1.0       20.0174100854       21.9278741657       22.3621757286
C    6.0       19.3848995945       20.0568436320       21.5002971783
H    1.0       18.8319004509       20.6661714888       20.7723365544
H    1.0       18.6960809223       19.2450973881       21.7596108316
O    8.0       19.1686195630       19.2644111086       25.1930752654
H    1.0       18.5070347419       19.5019554062       24.5124959876
 $end
$$$$
! Edit this basic GAMESS input file as needed.
! Conformer was generated by a VeraChem VCPack run 
! and contains     25 atoms.
!
 $contrl scftyp=rhf runtyp=optimize nzvar=0
  maxit=200 icharg=0 $end
 $system mwords=50 $end
 $basis gbasis=pm3 $end
 $statpt nstep=200 $end
 $guess guess=huckel $end
 $data
VM2 Rank=7      G=62.234            E=29.468            -TS=32.766              
C1
C    6.0       21.2426935234       19.6233921748       21.1389871972
H    1.0       21.7270137627       19.8592026056       20.1814362233
H    1.0       21.8982052151       20.0740471808       21.8927149894
C    6.0       21.2318387887       18.0784936820       21.2739259159
H    1.0       20.9660794478       17.6591525952       20.2938629485
H    1.0       22.2539621142       17.7312224020       21.4770377181
C    6.0       20.2649084062       17.4639616099       22.3167734128
H    1.0       20.3195053506       16.3720473829       22.2096908104
H    1.0       19.2272812530       17.7144704131       22.0680098483
C    6.0       20.5624295913       17.7974593085       23.8014701371
H    1.0       19.8737146417       17.2020736606       24.4152814768
H    1.0       21.5708070511       17.4429475905       24.0516295014
C    6.0       20.4456524127       19.2808817833       24.2302695380
H    1.0       21.3417402969       19.8211118158       23.9035802307
C    6.0       19.1892319969       20.0151168532       23.6943662539
H    1.0       18.3966272437       19.3011302285       23.4402841433
H    1.0       18.7731186607       20.6323545822       24.5021272270
C    6.0       19.4613376539       20.9675677806       22.4996508286
H    1.0       20.2357958873       21.6934159601       22.7832591296
H    1.0       18.5514373714       21.5593203130       22.3301155461
C    6.0       19.8483157309       20.3022337009       21.1527362919
H    1.0       19.8609163635       21.0973965963       20.3947297241
H    1.0       19.0661465873       19.6063686278       20.8231919134
O    8.0       20.4175918960       19.3138931067       25.6518204245
H    1.0       19.6031198975       18.8432212053       25.9238387565
 $end
$$$$
! Edit this basic GAMESS input file as needed.
! Conformer was generated by a VeraChem VCPack run 
! and contains     25 atoms.
!
 $contrl scftyp=rhf runtyp=optimize nzvar=0
  maxit=200 icharg=0 $end
 $system mwords=50 $end
 $basis gbasis=pm3 $end
 $statpt nstep=200 $end
 $guess guess=huckel $end
 $data
VM2 Rank=8      G=62.249            E=29.482            -TS=32.767              
C1
C    6.0       21.2647944242       19.5702816800       21.1391743178
H    1.0       22.0453946652       19.7191513806       21.8937555232
H    1.0       21.7758467466       19.7416033672       20.1818075249
C    6.0       20.7594944209       18.1041351797       21.1590097946
H    1.0       19.7150787360       18.0410020588       20.8276112885
H    1.0       21.3324929551       17.5473791757       20.4048780514
C    6.0       20.9539056749       17.3666821261       22.5099241342
H    1.0       22.0141817499       17.4029447340       22.7955361770
H    1.0       20.7297928200       16.3039339343       22.3450853646
C    6.0       20.0853377666       17.8531308561       23.7005143800
H    1.0       19.0205669537       17.7957674153       23.4445251974
H    1.0       20.2262611064       17.1264557422       24.5121149548
C    6.0       20.4527769473       19.2635184130       24.2303028734
H    1.0       21.4689225783       19.5141023758       23.9044178278
C    6.0       19.4866699065       20.3923957023       23.7940587749
H    1.0       18.5774209230       20.3288125212       24.4062676884
H    1.0       19.9479423355       21.3575633880       24.0405599688
C    6.0       19.0436008352       20.4104427620       22.3083169362
H    1.0       18.3099357745       21.2202527146       22.1957716976
H    1.0       18.4879985999       19.4981235417       22.0627797152
C    6.0       20.1639502949       20.6551508875       21.2666467676
H    1.0       20.6402911035       21.6246288801       21.4661465113
H    1.0       19.6815264330       20.7588679061       20.2850622902
O    8.0       20.4534697295       19.2272623933       25.6520520213
H    1.0       19.5443209654       18.9850289479       25.9234526648
 $end
$$$$
! Edit this basic GAMESS input file as needed.
! Conformer was generated by a VeraChem VCPack run 
! and contains     25 atoms.
!
 $contrl scftyp=rhf runtyp=optimize nzvar=0
  maxit=200 icharg=0 $end
 $system mwords=50 $end
 $basis gbasis=pm3 $end
 $statpt nstep=200 $end
 $guess guess=huckel $end
 $data
VM2 Rank=9      G=62.280            E=29.544            -TS=32.736              
C1
C    6.0       20.0802997088       19.1697429962       20.7504174802
H    1.0       19.0107524722       18.9952561371       20.9241657084
H    1.0       20.1849344398       19.2407075402       19.6591227973
C    6.0       20.9185445104       17.9470666949       21.2069087411
H    1.0       20.6299894519       17.0924795695       20.5798161418
H    1.0       21.9788465221       18.1293043244       20.9847073121
C    6.0       20.7705752760       17.5143409767       22.6887780189
H    1.0       21.3064704145       16.5617714476       22.7999590386
H    1.0       19.7235335969       17.2820637575       22.9199405722
C    6.0       21.3721543784       18.5109833542       23.7172656547
H    1.0       21.9096697891       17.9337229075       24.4817138700
H    1.0       22.1512864516       19.1196217458       23.2465400829
C    6.0       20.3595278477       19.4244334597       24.4523445912
H    1.0       20.9207564901       20.2485932363       24.9152863778
C    6.0       19.2244652579       20.0353560168       23.5968264914
H    1.0       18.6141753767       19.2441884082       23.1484043771
H    1.0       18.5458818142       20.5592436112       24.2830856485
C    6.0       19.6554705953       21.0578856324       22.5141020315
H    1.0       18.7402236944       21.4817320243       22.0786862935
H    1.0       20.1730034635       21.8994217110       22.9942997529
C    6.0       20.5312487275       20.5264052407       21.3509314548
H    1.0       21.5851354084       20.4838075303       21.6482929794
H    1.0       20.5016506178       21.2807349211       20.5527259704
O    8.0       19.7517136980       18.6567856285       25.4824255360
H    1.0       19.3541584528       17.8799697470       25.0395823969
 $end
$$$$
! Edit this basic GAMESS input file as needed.
! Conformer was generated by a VeraChem VCPack run 
! and contains     25 atoms.
!
 $contrl scftyp=rhf runtyp=optimize nzvar=0
  maxit=200 icharg=0 $end
 $system mwords=50 $end
 $basis gbasis=pm3 $end
 $statpt nstep=200 $end
 $guess guess=huckel $end
 $data
VM2 Rank=10     G=62.309            E=29.573            -TS=32.736              
C1
C    6.0       20.1531251379       19.0665350465       20.7484573793
H    1.0       20.2914344991       19.0932637868       19.6589323608
H    1.0       19.2964265137       18.4001561676       20.9114714867
C    6.0       21.4467763864       18.4773997408       21.3680446368
H    1.0       21.9914897859       17.9420931984       20.5782628918
H    1.0       22.1269416662       19.2804964156       21.6735397720
C    6.0       21.2260397951       17.4755830983       22.5299620661
H    1.0       22.1884686404       17.2847841585       23.0238624292
H    1.0       20.9216374727       16.5151852415       22.0919152757
C    6.0       20.1678800663       17.8554650513       23.5974858816
H    1.0       19.1789769329       17.9439297490       23.1351788991
H    1.0       20.0821420012       17.0027868528       24.2841264444
C    6.0       20.4783626702       19.1050542697       24.4551790444
H    1.0       21.4580039316       18.9582328745       24.9319196162
C    6.0       20.5055565015       20.4674181258       23.7180361711
H    1.0       20.4361666192       21.2553185819       24.4802254329
H    1.0       21.4878480684       20.6253309569       23.2606125435
C    6.0       19.3797938064       20.7007149130       22.6734263778
H    1.0       19.0428878673       21.7411322349       22.7781200354
H    1.0       18.4951755399       20.0901885875       22.8934104902
C    6.0       19.8184598435       20.5129239667       21.1978280028
H    1.0       20.6752351764       21.1671724820       20.9863590041
H    1.0       19.0039534773       20.8802851534       20.5587251664
O    8.0       19.4880057928       19.1819057879       25.4715804402
H    1.0       18.6539476377       19.4166489533       25.0167812565
 $end
$$$$
! Edit this basic GAMESS input file as needed.
! Conformer was generated by a VeraChem VCPack run 
! and contains     25 atoms.
!
 $contrl scftyp=rhf runtyp=optimize nzvar=0
  maxit=200 icharg=0 $end
 $system mwords=50 $end
 $basis gbasis=pm3 $end
 $statpt nstep=200 $end
 $guess guess=huckel $end
 $data
VM2 Rank=11     G=62.324            E=29.662            -TS=32.661              
C1
C    6.0       20.8851095698       19.4385337035       20.6771918878
H    1.0       20.0833290908       19.0985091084       20.0075515917
H    1.0       21.6959600660       19.7741897770       20.0163482705
C    6.0       21.4146255756       18.2317071213       21.4955705599
H    1.0       21.8470894968       17.5224707492       20.7765263077
H    1.0       22.2522514930       18.5335421891       22.1374670586
C    6.0       20.3317029363       17.4722194784       22.3048207285
H    1.0       20.5190309871       16.3944592295       22.2031140296
H    1.0       19.3424736938       17.6223135121       21.8576699392
C    6.0       20.2996332668       17.7914192204       23.8222553807
H    1.0       19.3732571149       17.3875969273       24.2515071581
H    1.0       21.1186893873       17.2322599112       24.2932535904
C    6.0       20.4466693168       19.2757013656       24.2333851597
H    1.0       21.3876571167       19.6707632102       23.8312458342
C    6.0       19.2855600727       20.2042317736       23.8067330612
H    1.0       18.3470587483       19.8296969853       24.2356494382
H    1.0       19.4602383819       21.1818497060       24.2752470217
C    6.0       19.0880166834       20.4405662720       22.2863442654
H    1.0       18.4538869722       21.3308569706       22.1759174557
H    1.0       18.5010679448       19.6284796362       21.8424525775
C    6.0       20.3926899963       20.6709171798       21.4805940120
H    1.0       21.1921448166       21.0630236998       22.1224144251
H    1.0       20.1939291401       21.4690982535       20.7522784026
O    8.0       20.5199925823       19.3177038855       25.6531049448
H    1.0       21.2928725928       18.7742869038       25.9127912867
 $end
$$$$
! Edit this basic GAMESS input file as needed.
! Conformer was generated by a VeraChem VCPack run 
! and contains     25 atoms.
!
 $contrl scftyp=rhf runtyp=optimize nzvar=0
  maxit=200 icharg=0 $end
 $system mwords=50 $end
 $basis gbasis=pm3 $end
 $statpt nstep=200 $end
 $guess guess=huckel $end
 $data
VM2 Rank=12     G=62.334            E=29.672            -TS=32.661              
C1
C    6.0       20.8852481109       19.4382543884       20.6771995991
H    1.0       20.0837581365       19.0975545178       20.0075536203
H    1.0       21.6958543121       19.7745170651       20.0163638941
C    6.0       21.4157119788       18.2318444605       21.4956625541
H    1.0       21.8489855018       17.5230800170       20.7766555710
H    1.0       22.2528583191       18.5340984792       22.1380327154
C    6.0       20.3335203030       17.4710728936       22.3047089204
H    1.0       20.5246428541       16.3936954544       22.2064177259
H    1.0       19.3448335323       17.6168214737       21.8549431207
C    6.0       20.2967550596       17.7935599289       23.8216469318
H    1.0       19.3700525139       17.3909657031       24.2508006419
H    1.0       21.1145660106       17.2381071289       24.2995735267
C    6.0       20.4461235139       19.2769818182       24.2333769157
H    1.0       21.3891361984       19.6672229288       23.8312703034
C    6.0       19.2860308523       20.2077826346       23.8072977128
H    1.0       18.3468754590       19.8343337969       24.2362786804
H    1.0       19.4589522628       21.1888138956       24.2688458052
C    6.0       19.0875640228       20.4384615939       22.2864654121
H    1.0       18.4505092437       21.3262714707       22.1726292869
H    1.0       18.5033396004       19.6229660665       21.8452224682
C    6.0       20.3918479828       20.6702446561       21.4805190459
H    1.0       21.1913293042       21.0629765755       22.1218792858
H    1.0       20.1921931388       21.4681856912       20.7521696199
O    8.0       20.5211981758       19.3147976258       25.6531229083
H    1.0       20.6740024512       20.2496576669       25.9036613692
 $end
$$$$
! Edit this basic GAMESS input file as needed.
! Conformer was generated by a VeraChem VCPack run 
! and contains     25 atoms.
!
 $contrl scftyp=rhf runtyp=optimize nzvar=0
  maxit=200 icharg=0 $end
 $system mwords=50 $end
 $basis gbasis=pm3 $end
 $statpt nstep=200 $end
 $guess guess=huckel $end
 $data
VM2 Rank=13     G=62.415            E=29.634            -TS=32.781              
C1
C    6.0       20.5590437154       19.2233884044       20.6053882363
H    1.0       20.0763020513       18.4738608425       19.9637704815
H    1.0       21.1340523268       19.8678091089       19.9264135005
C    6.0       21.5726199021       18.5184231611       21.5415235869
H    1.0       22.3219572360       18.0316986266       20.9024505541
H    1.0       22.1401960007       19.2598405271       22.1153761282
C    6.0       20.9931499952       17.4301555689       22.4800106969
H    1.0       21.8386679989       16.9472947301       22.9888232008
H    1.0       20.5211746368       16.6438688333       21.8754082125
C    6.0       19.9899849137       17.9010489025       23.5647611344
H    1.0       18.9905103078       18.0125111455       23.1324414257
H    1.0       19.8841261173       17.0796421829       24.2858908451
C    6.0       20.3949565746       19.1974182520       24.3131922346
H    1.0       21.4728158199       19.3728432927       24.1965689143
C    6.0       19.6236389418       20.4598712843       23.8541830714
H    1.0       18.5448513722       20.2747832506       23.9390519921
H    1.0       19.8434365063       21.2626488023       24.5704412523
C    6.0       19.9446693402       21.0003526982       22.4339479140
H    1.0       21.0132911296       21.2318253958       22.3378364992
H    1.0       19.4320103332       21.9670184134       22.3357564093
C    6.0       19.4629005187       20.0969510916       21.2692115955
H    1.0       19.0483034334       20.7444395278       20.4844162105
H    1.0       18.6157961178       19.4787296429       21.5870519821
O    8.0       20.1230360982       19.0153906370       25.6977815299
H    1.0       20.6687862017       18.2570258486       25.9936810639
 $end
$$$$
! Edit this basic GAMESS input file as needed.
! Conformer was generated by a VeraChem VCPack run 
! and contains     25 atoms.
!
 $contrl scftyp=rhf runtyp=optimize nzvar=0
  maxit=200 icharg=0 $end
 $system mwords=50 $end
 $basis gbasis=pm3 $end
 $statpt nstep=200 $end
 $guess guess=huckel $end
 $data
VM2 Rank=14     G=62.424            E=29.643            -TS=32.781              
C1
C    6.0       20.5224299067       19.3667231078       20.6071566401
H    1.0       21.3927603577       19.3138779285       19.9388356983
H    1.0       19.6589841277       19.5528379411       19.9542198906
C    6.0       20.3561430828       17.9772057948       21.2756595647
H    1.0       19.3161399767       17.8174962302       21.5817517760
H    1.0       20.5297699734       17.2223654145       20.4964904681
C    6.0       21.3213031008       17.6840301477       22.4535220970
H    1.0       22.2420983578       18.2749546779       22.3656767395
H    1.0       21.6427871602       16.6373333018       22.3641945603
C    6.0       20.6951504455       17.8463553979       23.8655542050
H    1.0       19.8000654692       17.2153859838       23.9426477439
H    1.0       21.4092501932       17.4370941059       24.5924336638
C    6.0       20.3433360140       19.2868368844       24.3134911404
H    1.0       21.2313138559       19.9238420176       24.2045146943
C    6.0       19.1498367562       19.9143126957       23.5476196332
H    1.0       18.5266518763       19.1270969302       23.1114952382
H    1.0       18.4858494333       20.4241071067       24.2583746183
C    6.0       19.5399600388       20.9512208445       22.4625457534
H    1.0       19.7908999658       21.8927741718       22.9699437358
H    1.0       18.6577324763       21.1711581018       21.8462227031
C    6.0       20.7301946005       20.5862336484       21.5400516125
H    1.0       21.6487315684       20.4654695439       22.1255895986
H    1.0       20.9241685202       21.4570862596       20.8991057672
O    8.0       20.0056460548       19.2300814788       25.6943993536
H    1.0       19.8523523567       20.1537230413       25.9840608651
 $end
$$$$
! Edit this basic GAMESS input file as needed.
! Conformer was generated by a VeraChem VCPack run 
! and contains     25 atoms.
!
 $contrl scftyp=rhf runtyp=optimize nzvar=0
  maxit=200 icharg=0 $end
 $system mwords=50 $end